##TITLE=13C-NMR: A_Laurent_190525 2/1 Sample 1 in d2o, 298 K
##JCAMPDX= 6.0         $$ Bruker NMR JCAMP-DX V2.0
##DATA TYPE= NMR SPECTRUM
##DATA CLASS= XYDATA
##ORIGIN= Bruker BioSpin GmbH
##OWNER= aci
##LONG DATE= 2025/05/19 10:52:14+0000
$$ TopSpin 5.0.0
$$ 2026-09-17 13:13:28.308 +0200  matthias@Matthiass-MacBook-Pro.local
$$ Compression mode = diff/dup
##.OBSERVE FREQUENCY= 125.80305756
##.OBSERVE NUCLEUS= ^13C
##.ACQUISITION MODE= SIMULTANEOUS (DQD)
##.ACQUISITION SCHEME= undefined
##.AVERAGES= 50
##.DIGITISER RES= 21
##SPECTROMETER/DATA SYSTEM= spect
##.PULSE SEQUENCE= zgpg30
##.SOLVENT NAME= D2O
##.SHIFT REFERENCE= INTERNAL, D2O, 1, 250.7547
##AUDIT TRAIL= $$ (NUMBER, WHEN, WHO, WHERE, PROCESS, VERSION, WHAT)
$$ ##TITLE= Audit trail, TopSpin 3.5 pl 7
$$ ##JCAMPDX= 5.01
$$ ##ORIGIN= Bruker BioSpin GmbH
$$ ##OWNER= aci
$$ $$ /opt/topspin3.2/data/aci/nmr/A_Laurent_190525/2/pdata/1/auditp.txt
$$ ##AUDIT TRAIL=  $$ (NUMBER, WHEN, WHO, WHERE, PROCESS, VERSION, WHAT)
(   1,<2025-05-19 12:47:34.254 +0200>,<aci>,<chem-nmr500>,<go4>,<TopSpin 3.5.7>,
      <acquisition in progress>)
(   2,<2025-05-19 12:52:17.946 +0200>,<aci>,<chem-nmr500>,<proc1d>,<TopSpin 3.5.7>,
      <Start of raw data processing
       efp LB = 1 FT_mod = 6 PKNL = 1 PHC0 = 460.4897 PHC1 = -123.7369 SI = 64K 
       data hash MD5: 64K
       05 0D 0F 10 3B 0C DA 11 29 AE 29 5E 13 43 08 81>)
(   3,<2025-05-19 12:52:49.203 +0200>,<aci>,<chem-nmr500>,<proc1d>,<TopSpin 3.5.7>,
      <pk fgphup PHC0 = 9.253215 PHC1 = -34.3 
       data hash MD5: 64K
       E4 41 8F 42 B9 C0 28 10 78 20 05 D9 3E 18 7D FF>)
(   4,<2025-05-19 12:52:51.589 +0200>,<aci>,<chem-nmr500>,<proc1d>,<TopSpin 3.5.7>,
      <abs ABSG = 5 
       data hash MD5: 64K
       15 12 D1 47 44 BD FB 89 64 B3 1C DD A5 96 46 08>)
(   5,<2025-05-21 12:01:31.609 +0200>,<aci>,<chem-nmr500>,<disknew>,<TopSpin 3.5.7>,
      <processed data deleted>)
$$ $$ /Users/matthias/Documents/NMR/NMR Spectra/Data Stuff/Guvacine/2/pdata/1/auditp.txt
(   6,<2026-09-15T13:50:18.326+0200>,<matthias>,<Matthiass-MacBook-Pro.local>,<proc1d>,<TopSpin 5.0.0>,
      <Start of raw data processing
       em LB = 1 SI = 64K
       fid data hash MD5: 65786
       9E E5 60 77 26 0E 12 DD A0 79 23 AB EB 71 6F C2
       data hash MD5: 64K
       DA 20 E5 58 5F 82 85 53 82 1F 4A 3D E1 82 D6 53>)
(   7,<2026-09-15T13:50:18.421+0200>,<matthias>,<Matthiass-MacBook-Pro.local>,<proc1d>,<TopSpin 5.0.0>,
      <ft FT_mod = 6 PKNL = 1 SI = 64K
       data hash MD5: 64K
       96 03 7E 30 BF D5 AB AA 1F C7 2B C9 0E C8 62 02>)
(   8,<2026-09-15T13:50:18.592+0200>,<matthias>,<Matthiass-MacBook-Pro.local>,<proc1d>,<TopSpin 5.0.0>,
      <apk
       data hash MD5: 64K
       A8 32 2B AD 46 85 10 57 FA C3 63 1C CD EA F2 A5>)
(   9,<2026-09-15T13:50:18.678+0200>,<matthias>,<Matthiass-MacBook-Pro.local>,<proc1d>,<TopSpin 5.0.0>,
      <abs n ABSG = 5
       data hash MD5: 64K
       E0 B7 BF 77 D9 AF 97 57 72 39 1B 12 E3 1C 7C C0>)
$$ ##END=
$$ 
$$ $$ hash MD5
$$ $$ 53 38 AD AE 07 4C 3C CB B6 36 06 D0 77 7D DB 5B
##$RELAX= 
##$BRUKER FILE EXP=cpdprg2
$$ 1 pcpd*3:180
$$   pcpd*4:0
$$   pcpd*2:180
$$   pcpd*3:0
$$   pcpd  :180
$$   pcpd*2:0
$$   pcpd*4:180
$$   pcpd*2:0
$$   pcpd*3:180
$$ 2 pcpd*3:0
$$   pcpd*4:180
$$   pcpd*2:0
$$   pcpd*3:180
$$   pcpd  :0
$$   pcpd*2:180
$$   pcpd*4:0
$$   pcpd*2:180
$$   pcpd*3:0
$$   lo to 2 times 2
$$ 3 pcpd*3:180
$$   pcpd*4:0
$$   pcpd*2:180
$$   pcpd*3:0
$$   pcpd  :180
$$   pcpd*2:0
$$   pcpd*4:180
$$   pcpd*2:0
$$   pcpd*3:180
$$   jump to 1
##$RELAX= 
##$BRUKER FILE EXP=format.temp
$$ EDIT_PAR COMMAND FILE
$$ 
$$ DI_MODE         LONG
$$ ED_ENTRY        ACQU
$$ ORDER           FILE
$$ 
$$ 
$$ HEADER		"F2 - Acquisition Parameters"
$$ T_NAME		Date_
$$ 		TYPE	R64
$$ 		CLASS	ACQU
$$ 		SUBRANGE 0.0 50000000
$$ 		REL	"Date_=itodate(DATE)"
$$ 		INV_REL	"DATE=datetoi(Date_,DATE)"
$$ 		FORMAT	"%14.0f"
$$ 		TEXT	" "
$$ END
$$ T_NAME		Time
$$ 		TYPE	R32
$$ 		CLASS	ACQU
$$ 		SUBRANGE 0.0 1000000
$$ 		REL	"Time=itotime(DATE)"
$$ 		INV_REL	"DATE=timetoi(Time,DATE)"
$$ 		FORMAT	"%14.2f h"
$$ 		TEXT	" "
$$ END
$$ NAME		INSTRUM
$$ 		TEXT	" "
$$ END
$$ NAME		PROBHD
$$ 		FORMAT	"%14.14s"
$$ 		TEXT	" "
$$ END
$$ NAME		PULPROG
$$ 		TEXT	" "
$$ END
$$ NAME		TD
$$ 		TEXT	" "
$$ END
$$ NAME		SOLVENT
$$ 		TEXT	" "
$$ END
$$ NAME		NS
$$ 		TEXT	" "
$$ END
$$ NAME		DS
$$ 		TEXT	" "
$$ END
$$ T_NAME		SWH
$$ 		TYPE	R32
$$ 		CLASS	ACQU
$$ 		SUBRANGE 0.0 1e8
$$ 		REL	"SWH=SW*SFO1"
$$ 		INV_REL "SW=SWH/SFO1"
$$ 		UNIT	"Hz"
$$ 		FORMAT	"%14.3f Hz"
$$ 		TEXT	" "
$$ END
$$ T_NAME          FIDRES
$$                 TYPE    R32
$$                 CLASS   ACQU
$$                 SUBRANGE 0.0 100000
$$                 REL     "FIDRES=2*SW*SFO1/TD"
$$                 INV_REL "TD = nextpow(2*SW*SFO1/FIDRES)"
$$ 		UNIT	"Hz"
$$ 		FORMAT	"%14.6f Hz"
$$ 		TEXT	" "
$$ END
$$ T_NAME          AQ
$$ 		TYPE	R32
$$ 		CLASS	ACQU
$$ 		SUBRANGE 0.0 1000
$$ 		REL	"AQ=aqcalc(SW,SFO1,TD,DIGTYP)"
$$ 		INV_REL	"TD=tdcalc(SW,SFO1,1.0e6*AQ,DIGTYP)"
$$ 		UNIT	"sec"
$$ 		FORMAT	"%14.7f sec"
$$ 		TEXT	" "
$$ END
$$ NAME		RG
$$ 		TEXT	" "
$$ END
$$ T_NAME          DW
$$ 		TYPE	R32
$$ 		CLASS	ACQU
$$ 		SUBRANGE 0.0 1000000
$$ 		REL	"DW=1/(2*SW*SFO1)"
$$ 		INV_REL	"SW=1000000/(2*(0.005+DW)*SFO1)"
$$ 		UNIT	"usec"
$$ 		FORMAT	"%14.3lf usec"
$$ 		TEXT	" "
$$ END
$$ NAME		DE
$$ 		FORMAT	"%14.2f usec"
$$ 		TEXT	" "
$$ END
$$ NAME		TE
$$ 		FORMAT	"%14.1f K"
$$ 		TEXT	" "
$$ END
$$ T_NAME		D1
$$ 		TYPE	R32
$$ 		CLASS	ACQU
$$ 		SUBRANGE 0.0 1e38
$$ 		REL	"D1=D[1]"
$$ 		INV_REL	"D[1]=D1"
$$ 		UNIT	"sec"
$$ 		FORMAT	"%14.8f sec"
$$ 		TEXT	" "
$$ END
$$ T_NAME		D11
$$ 		TYPE	R32
$$ 		CLASS	ACQU
$$ 		SUBRANGE 0.0 1e38
$$ 		REL	"D11=D[11]"
$$ 		INV_REL	"D[11]=D11"
$$ 		UNIT	"sec"
$$ 		FORMAT	"%14.8f sec"
$$ 		TEXT	" "
$$ END
$$ NAME		TD0
$$ 		TEXT	" "
$$ END
$$ NAME		SFO1
$$ 		FORMAT	"%14.7f MHz"
$$ 		TEXT	" "
$$ END
$$ NAME		NUC1
$$ 		NONEDIT
$$ 		TEXT	" "
$$ END
$$ T_NAME		P1
$$ 		TYPE	R32
$$ 		CLASS	ACQU
$$ 		SUBRANGE 0.0 1.0e10
$$ 		REL	"P1=P[1]"
$$ 		INV_REL	"P[1]=P1"
$$ 		UNIT	"usec"
$$ 		FORMAT	"%14.2f usec"
$$ 		TEXT	" "
$$ END
$$ T_NAME		PLW1
$$ 		TYPE	R32
$$ 		CLASS	ACQU
$$ 		REL	"PLW1=PLW[1]"
$$ 		INV_REL	"PLW[1]=PLW1"
$$ 		UNIT	"W"
$$ 		FORMAT	"%14.8f W"
$$ 		TEXT	"power PLW1 "
$$ END
$$ NAME		SFO2
$$ 		FORMAT	"%14.7f MHz"
$$ 		TEXT	" "
$$ END
$$ NAME		NUC2
$$ 		NONEDIT
$$ 		TEXT	" "
$$ END
$$ NAME		CPDPRG[2]
$$ 		TEXT	" "
$$ END
$$ T_NAME		PCPD2
$$ 		TYPE	R32
$$ 		CLASS	ACQU
$$ 		SUBRANGE 0 1e38
$$ 		REL	"PCPD2=PCPD[2]"
$$ 		INV_REL	"PCPD[2]=PCPD2"
$$ 		UNIT	"usec"
$$ 		FORMAT	"%14.2f usec"
$$ 		TEXT	" "
$$ END
$$ T_NAME		PLW2
$$ 		TYPE	R32
$$ 		CLASS	ACQU
$$ 		REL	"PLW2=PLW[2]"
$$ 		INV_REL	"PLW[2]=PLW2"
$$ 		UNIT	"W"
$$ 		FORMAT	"%14.8f W"
$$ 		TEXT	"power PLW2 "
$$ END
$$ T_NAME		PLW12
$$ 		TYPE	R32
$$ 		CLASS	ACQU
$$ 		REL	"PLW12=PLW[12]"
$$ 		INV_REL	"PLW[12]=PLW12"
$$ 		UNIT	"W"
$$ 		FORMAT	"%14.8f W"
$$ 		TEXT	"power PLW12 "
$$ END
$$ T_NAME		PLW13
$$ 		TYPE	R32
$$ 		CLASS	ACQU
$$ 		REL	"PLW13=PLW[13]"
$$ 		INV_REL	"PLW[13]=PLW13"
$$ 		UNIT	"W"
$$ 		FORMAT	"%14.8f W"
$$ 		TEXT	"power PLW13 "
$$ END
##$RELAX= 
##$BRUKER FILE EXP=fq1list
$$ O 125.803058
$$ -16500000
$$ -16443359
$$ -16386719
$$ -16330078
$$ -16273438
$$ -16216797
$$ -16160156
$$ -16103516
$$ -16046875
$$ -15990234
$$ -15933594
$$ -15876953
$$ -15820312
$$ -15763672
$$ -15707031
$$ -15650391
$$ -15593750
$$ -15537109
$$ -15480469
$$ -15423828
$$ -15367188
$$ -15310547
$$ -15253906
$$ -15197266
$$ -15140625
$$ -15083984
$$ -15027344
$$ -14970703
$$ -14914062
$$ -14857422
$$ -14800781
$$ -14744141
$$ -14687500
$$ -14630859
$$ -14574219
$$ -14517578
$$ -14460938
$$ -14404297
$$ -14347656
$$ -14291016
$$ -14234375
$$ -14177734
$$ -14121094
$$ -14064453
$$ -14007812
$$ -13951172
$$ -13894531
$$ -13837891
$$ -13781250
$$ -13724609
$$ -13667969
$$ -13611328
$$ -13554688
$$ -13498047
$$ -13441406
$$ -13384766
$$ -13328125
$$ -13271484
$$ -13214844
$$ -13158203
$$ -13101562
$$ -13044922
$$ -12988281
$$ -12931641
$$ -12875000
$$ -12818359
$$ -12761719
$$ -12705078
$$ -12648438
$$ -12591797
$$ -12535156
$$ -12478516
$$ -12421875
$$ -12365234
$$ -12308594
$$ -12251953
$$ -12195312
$$ -12138672
$$ -12082031
$$ -12025391
$$ -11968750
$$ -11912109
$$ -11855469
$$ -11798828
$$ -11742188
$$ -11685547
$$ -11628906
$$ -11572266
$$ -11515625
$$ -11458984
$$ -11402344
$$ -11345703
$$ -11289062
$$ -11232422
$$ -11175781
$$ -11119141
$$ -11062500
$$ -11005859
$$ -10949219
$$ -10892578
$$ -10835938
$$ -10779297
$$ -10722656
$$ -10666016
$$ -10609375
$$ -10552734
$$ -10496094
$$ -10439453
$$ -10382812
$$ -10326172
$$ -10269531
$$ -10212891
$$ -10156250
$$ -10099609
$$ -10042969
$$ -9986328
$$ -9929688
$$ -9873047
$$ -9816406
$$ -9759766
$$ -9703125
$$ -9646484
$$ -9589844
$$ -9533203
$$ -9476562
$$ -9419922
$$ -9363281
$$ -9306641
$$ -9250000
$$ -9193359
$$ -9136719
$$ -9080078
$$ -9023438
$$ -8966797
$$ -8910156
$$ -8853516
$$ -8796875
$$ -8740234
$$ -8683594
$$ -8626953
$$ -8570312
$$ -8513672
$$ -8457031
$$ -8400391
$$ -8343750
$$ -8287109
$$ -8230469
$$ -8173828
$$ -8117188
$$ -8060547
$$ -8003906
$$ -7947266
$$ -7890625
$$ -7833984
$$ -7777344
$$ -7720703
$$ -7664062
$$ -7607422
$$ -7550781
$$ -7494141
$$ -7437500
$$ -7380859
$$ -7324219
$$ -7267578
$$ -7210938
$$ -7154297
$$ -7097656
$$ -7041016
$$ -6984375
$$ -6927734
$$ -6871094
$$ -6814453
$$ -6757812
$$ -6701172
$$ -6644531
$$ -6587891
$$ -6531250
$$ -6474609
$$ -6417969
$$ -6361328
$$ -6304688
$$ -6248047
$$ -6191406
$$ -6134766
$$ -6078125
$$ -6021484
$$ -5964844
$$ -5908203
$$ -5851562
$$ -5794922
$$ -5738281
$$ -5681641
$$ -5625000
$$ -5568359
$$ -5511719
$$ -5455078
$$ -5398438
$$ -5341797
$$ -5285156
$$ -5228516
$$ -5171875
$$ -5115234
$$ -5058594
$$ -5001953
$$ -4945312
$$ -4888672
$$ -4832031
$$ -4775391
$$ -4718750
$$ -4662109
$$ -4605469
$$ -4548828
$$ -4492188
$$ -4435547
$$ -4378906
$$ -4322266
$$ -4265625
$$ -4208984
$$ -4152344
$$ -4095703
$$ -4039062
$$ -3982422
$$ -3925781
$$ -3869141
$$ -3812500
$$ -3755859
$$ -3699219
$$ -3642578
$$ -3585938
$$ -3529297
$$ -3472656
$$ -3416016
$$ -3359375
$$ -3302734
$$ -3246094
$$ -3189453
$$ -3132812
$$ -3076172
$$ -3019531
$$ -2962891
$$ -2906250
$$ -2849609
$$ -2792969
$$ -2736328
$$ -2679688
$$ -2623047
$$ -2566406
$$ -2509766
$$ -2453125
$$ -2396484
$$ -2339844
$$ -2283203
$$ -2226562
$$ -2169922
$$ -2113281
$$ -2056641
$$ -2000000
$$ -1992172
$$ -1984344
$$ -1976517
$$ -1968689
$$ -1960861
$$ -1953033
$$ -1945205
$$ -1937378
$$ -1929550
$$ -1921722
$$ -1913894
$$ -1906067
$$ -1898239
$$ -1890411
$$ -1882583
$$ -1874755
$$ -1866928
$$ -1859100
$$ -1851272
$$ -1843444
$$ -1835616
$$ -1827789
$$ -1819961
$$ -1812133
$$ -1804305
$$ -1796477
$$ -1788650
$$ -1780822
$$ -1772994
$$ -1765166
$$ -1757339
$$ -1749511
$$ -1741683
$$ -1733855
$$ -1726027
$$ -1718200
$$ -1710372
$$ -1702544
$$ -1694716
$$ -1686888
$$ -1679061
$$ -1671233
$$ -1663405
$$ -1655577
$$ -1647750
$$ -1639922
$$ -1632094
$$ -1624266
$$ -1616438
$$ -1608611
$$ -1600783
$$ -1592955
$$ -1585127
$$ -1577299
$$ -1569472
$$ -1561644
$$ -1553816
$$ -1545988
$$ -1538160
$$ -1530333
$$ -1522505
$$ -1514677
$$ -1506849
$$ -1499022
$$ -1491194
$$ -1483366
$$ -1475538
$$ -1467710
$$ -1459883
$$ -1452055
$$ -1444227
$$ -1436399
$$ -1428571
$$ -1420744
$$ -1412916
$$ -1405088
$$ -1397260
$$ -1389432
$$ -1381605
$$ -1373777
$$ -1365949
$$ -1358121
$$ -1350294
$$ -1342466
$$ -1334638
$$ -1326810
$$ -1318982
$$ -1311155
$$ -1303327
$$ -1295499
$$ -1287671
$$ -1279843
$$ -1272016
$$ -1264188
$$ -1256360
$$ -1248532
$$ -1240705
$$ -1232877
$$ -1225049
$$ -1217221
$$ -1209393
$$ -1201566
$$ -1193738
$$ -1185910
$$ -1178082
$$ -1170254
$$ -1162427
$$ -1154599
$$ -1146771
$$ -1138943
$$ -1131115
$$ -1123288
$$ -1115460
$$ -1107632
$$ -1099804
$$ -1091977
$$ -1084149
$$ -1076321
$$ -1068493
$$ -1060665
$$ -1052838
$$ -1045010
$$ -1037182
$$ -1029354
$$ -1021526
$$ -1013699
$$ -1005871
$$  -998043
$$  -990215
$$  -982387
$$  -974560
$$  -966732
$$  -958904
$$  -951076
$$  -943249
$$  -935421
$$  -927593
$$  -919765
$$  -911937
$$  -904110
$$  -896282
$$  -888454
$$  -880626
$$  -872798
$$  -864971
$$  -857143
$$  -849315
$$  -841487
$$  -833659
$$  -825832
$$  -818004
$$  -810176
$$  -802348
$$  -794521
$$  -786693
$$  -778865
$$  -771037
$$  -763209
$$  -755382
$$  -747554
$$  -739726
$$  -731898
$$  -724070
$$  -716243
$$  -708415
$$  -700587
$$  -692759
$$  -684932
$$  -677104
$$  -669276
$$  -661448
$$  -653620
$$  -645793
$$  -637965
$$  -630137
$$  -622309
$$  -614481
$$  -606654
$$  -598826
$$  -590998
$$  -583170
$$  -575342
$$  -567515
$$  -559687
$$  -551859
$$  -544031
$$  -536204
$$  -528376
$$  -520548
$$  -512720
$$  -504892
$$  -497065
$$  -489237
$$  -481409
$$  -473581
$$  -465753
$$  -457926
$$  -450098
$$  -442270
$$  -434442
$$  -426614
$$  -418787
$$  -410959
$$  -403131
$$  -395303
$$  -387476
$$  -379648
$$  -371820
$$  -363992
$$  -356164
$$  -348337
$$  -340509
$$  -332681
$$  -324853
$$  -317025
$$  -309198
$$  -301370
$$  -293542
$$  -285714
$$  -277886
$$  -270059
$$  -262231
$$  -254403
$$  -246575
$$  -238748
$$  -230920
$$  -223092
$$  -215264
$$  -207436
$$  -199609
$$  -191781
$$  -183953
$$  -176125
$$  -168297
$$  -160470
$$  -152642
$$  -144814
$$  -136986
$$  -129159
$$  -121331
$$  -113503
$$  -105675
$$   -97847
$$   -90020
$$   -82192
$$   -74364
$$   -66536
$$   -58708
$$   -50881
$$   -43053
$$   -35225
$$   -27397
$$   -19569
$$   -11742
$$    -3914
$$     3914
$$    11742
$$    19569
$$    27397
$$    35225
$$    43053
$$    50881
$$    58708
$$    66536
$$    74364
$$    82192
$$    90020
$$    97847
$$   105675
$$   113503
$$   121331
$$   129159
$$   136986
$$   144814
$$   152642
$$   160470
$$   168297
$$   176125
$$   183953
$$   191781
$$   199609
$$   207436
$$   215264
$$   223092
$$   230920
$$   238748
$$   246575
$$   254403
$$   262231
$$   270059
$$   277886
$$   285714
$$   293542
$$   301370
$$   309198
$$   317025
$$   324853
$$   332681
$$   340509
$$   348337
$$   356164
$$   363992
$$   371820
$$   379648
$$   387476
$$   395303
$$   403131
$$   410959
$$   418787
$$   426614
$$   434442
$$   442270
$$   450098
$$   457926
$$   465753
$$   473581
$$   481409
$$   489237
$$   497065
$$   504892
$$   512720
$$   520548
$$   528376
$$   536204
$$   544031
$$   551859
$$   559687
$$   567515
$$   575342
$$   583170
$$   590998
$$   598826
$$   606654
$$   614481
$$   622309
$$   630137
$$   637965
$$   645793
$$   653620
$$   661448
$$   669276
$$   677104
$$   684932
$$   692759
$$   700587
$$   708415
$$   716243
$$   724070
$$   731898
$$   739726
$$   747554
$$   755382
$$   763209
$$   771037
$$   778865
$$   786693
$$   794521
$$   802348
$$   810176
$$   818004
$$   825832
$$   833659
$$   841487
$$   849315
$$   857143
$$   864971
$$   872798
$$   880626
$$   888454
$$   896282
$$   904110
$$   911937
$$   919765
$$   927593
$$   935421
$$   943249
$$   951076
$$   958904
$$   966732
$$   974560
$$   982387
$$   990215
$$   998043
$$  1005871
$$  1013699
$$  1021526
$$  1029354
$$  1037182
$$  1045010
$$  1052838
$$  1060665
$$  1068493
$$  1076321
$$  1084149
$$  1091977
$$  1099804
$$  1107632
$$  1115460
$$  1123288
$$  1131115
$$  1138943
$$  1146771
$$  1154599
$$  1162427
$$  1170254
$$  1178082
$$  1185910
$$  1193738
$$  1201566
$$  1209393
$$  1217221
$$  1225049
$$  1232877
$$  1240705
$$  1248532
$$  1256360
$$  1264188
$$  1272016
$$  1279843
$$  1287671
$$  1295499
$$  1303327
$$  1311155
$$  1318982
$$  1326810
$$  1334638
$$  1342466
$$  1350294
$$  1358121
$$  1365949
$$  1373777
$$  1381605
$$  1389432
$$  1397260
$$  1405088
$$  1412916
$$  1420744
$$  1428571
$$  1436399
$$  1444227
$$  1452055
$$  1459883
$$  1467710
$$  1475538
$$  1483366
$$  1491194
$$  1499022
$$  1506849
$$  1514677
$$  1522505
$$  1530333
$$  1538160
$$  1545988
$$  1553816
$$  1561644
$$  1569472
$$  1577299
$$  1585127
$$  1592955
$$  1600783
$$  1608611
$$  1616438
$$  1624266
$$  1632094
$$  1639922
$$  1647750
$$  1655577
$$  1663405
$$  1671233
$$  1679061
$$  1686888
$$  1694716
$$  1702544
$$  1710372
$$  1718200
$$  1726027
$$  1733855
$$  1741683
$$  1749511
$$  1757339
$$  1765166
$$  1772994
$$  1780822
$$  1788650
$$  1796477
$$  1804305
$$  1812133
$$  1819961
$$  1827789
$$  1835616
$$  1843444
$$  1851272
$$  1859100
$$  1866928
$$  1874755
$$  1882583
$$  1890411
$$  1898239
$$  1906067
$$  1913894
$$  1921722
$$  1929550
$$  1937378
$$  1945205
$$  1953033
$$  1960861
$$  1968689
$$  1976517
$$  1984344
$$  1992172
$$  2000000
$$  2056641
$$  2113281
$$  2169922
$$  2226562
$$  2283203
$$  2339844
$$  2396484
$$  2453125
$$  2509766
$$  2566406
$$  2623047
$$  2679687
$$  2736328
$$  2792969
$$  2849609
$$  2906250
$$  2962891
$$  3019531
$$  3076172
$$  3132812
$$  3189453
$$  3246094
$$  3302734
$$  3359375
$$  3416016
$$  3472656
$$  3529297
$$  3585937
$$  3642578
$$  3699219
$$  3755859
$$  3812500
$$  3869141
$$  3925781
$$  3982422
$$  4039062
$$  4095703
$$  4152344
$$  4208984
$$  4265625
$$  4322266
$$  4378906
$$  4435547
$$  4492187
$$  4548828
$$  4605469
$$  4662109
$$  4718750
$$  4775391
$$  4832031
$$  4888672
$$  4945312
$$  5001953
$$  5058594
$$  5115234
$$  5171875
$$  5228516
$$  5285156
$$  5341797
$$  5398437
$$  5455078
$$  5511719
$$  5568359
$$  5625000
$$  5681641
$$  5738281
$$  5794922
$$  5851562
$$  5908203
$$  5964844
$$  6021484
$$  6078125
$$  6134766
$$  6191406
$$  6248047
$$  6304687
$$  6361328
$$  6417969
$$  6474609
$$  6531250
$$  6587891
$$  6644531
$$  6701172
$$  6757812
$$  6814453
$$  6871094
$$  6927734
$$  6984375
$$  7041016
$$  7097656
$$  7154297
$$  7210937
$$  7267578
$$  7324219
$$  7380859
$$  7437500
$$  7494141
$$  7550781
$$  7607422
$$  7664062
$$  7720703
$$  7777344
$$  7833984
$$  7890625
$$  7947266
$$  8003906
$$  8060547
$$  8117187
$$  8173828
$$  8230469
$$  8287109
$$  8343750
$$  8400391
$$  8457031
$$  8513672
$$  8570312
$$  8626953
$$  8683594
$$  8740234
$$  8796875
$$  8853516
$$  8910156
$$  8966797
$$  9023437
$$  9080078
$$  9136719
$$  9193359
$$  9250000
$$  9306641
$$  9363281
$$  9419922
$$  9476562
$$  9533203
$$  9589844
$$  9646484
$$  9703125
$$  9759766
$$  9816406
$$  9873047
$$  9929687
$$  9986328
$$ 10042969
$$ 10099609
$$ 10156250
$$ 10212891
$$ 10269531
$$ 10326172
$$ 10382812
$$ 10439453
$$ 10496094
$$ 10552734
$$ 10609375
$$ 10666016
$$ 10722656
$$ 10779297
$$ 10835937
$$ 10892578
$$ 10949219
$$ 11005859
$$ 11062500
$$ 11119141
$$ 11175781
$$ 11232422
$$ 11289062
$$ 11345703
$$ 11402344
$$ 11458984
$$ 11515625
$$ 11572266
$$ 11628906
$$ 11685547
$$ 11742187
$$ 11798828
$$ 11855469
$$ 11912109
$$ 11968750
$$ 12025391
$$ 12082031
$$ 12138672
$$ 12195312
$$ 12251953
$$ 12308594
$$ 12365234
$$ 12421875
$$ 12478516
$$ 12535156
$$ 12591797
$$ 12648437
$$ 12705078
$$ 12761719
$$ 12818359
$$ 12875000
$$ 12931641
$$ 12988281
$$ 13044922
$$ 13101562
$$ 13158203
$$ 13214844
$$ 13271484
$$ 13328125
$$ 13384766
$$ 13441406
$$ 13498047
$$ 13554687
$$ 13611328
$$ 13667969
$$ 13724609
$$ 13781250
$$ 13837891
$$ 13894531
$$ 13951172
$$ 14007812
$$ 14064453
$$ 14121094
$$ 14177734
$$ 14234375
$$ 14291016
$$ 14347656
$$ 14404297
$$ 14460937
$$ 14517578
$$ 14574219
$$ 14630859
$$ 14687500
$$ 14744141
$$ 14800781
$$ 14857422
$$ 14914062
$$ 14970703
$$ 15027344
$$ 15083984
$$ 15140625
$$ 15197266
$$ 15253906
$$ 15310547
$$ 15367187
$$ 15423828
$$ 15480469
$$ 15537109
$$ 15593750
$$ 15650391
$$ 15707031
$$ 15763672
$$ 15820312
$$ 15876953
$$ 15933594
$$ 15990234
$$ 16046875
$$ 16103516
$$ 16160156
$$ 16216797
$$ 16273437
$$ 16330078
$$ 16386719
$$ 16443359
$$ 16500000
##$RELAX= 
##$BRUKER FILE EXP=scon2
$$ ##TITLE= Parameter file, TopSpin 3.5 pl 7
$$ ##JCAMPDX= 5.0
$$ ##DATATYPE= Parameter Values
$$ ##NPOINTS= 1	$$ modification sequence number
$$ ##ORIGIN= Bruker BioSpin GmbH
$$ ##OWNER= aci
$$ $$ 2025-05-19 12:47:34.222 +0200  aci@chem-nmr500
$$ $$ /opt/topspin3.2/data/aci/nmr/A_Laurent_190525/2/scon2
$$ $$ process /opt/topspin3.5pl7/prog/mod/go4
$$ ##$BLKTR= (0..19)
$$ 3 3 3 3 3 3 3 3 3 3 3 3 3 3 3 3 3 3 3 3
$$ ##$DE1= 4.5
$$ ##$DEADC= 0.5
$$ ##$DEPA= 4.5
$$ ##$DERX= 1.5
$$ ##$FILCOR= 0
$$ ##$GRADCHAN= 0
$$ ##$GRADPRE= (0..1)
$$ 10 10
$$ ##$HD_BLKTR= (0..19)
$$ 1 1 1 1 1 1 1 1 1 1 1 1 1 1 1 1 1 1 1 1
$$ ##$HD_DE1= 5
$$ ##$HD_DEADC= 0
$$ ##$HD_DEPA= 2.5
$$ ##$HD_DERX= 0
$$ ##END=
##$RELAX= 
##$BRUKER FILE EXP=acqum
$$ ##TITLE= Parameter file, TopSpin 3.5 pl 7
$$ ##JCAMPDX= 5.0
$$ ##DATATYPE= Parameter Values
$$ ##NPOINTS= 1	$$ modification sequence number
$$ ##ORIGIN= Bruker BioSpin GmbH
$$ ##OWNER= aci
$$ $$ 2025-05-19 12:22:42.201 +0200  aci@chem-nmr500
$$ $$ /opt/topspin3.2/data/aci/nmr/A_Laurent_190525/2/acqum
$$ $$ process /opt/topspin3.5pl7/prog/mod/edparproc
$$ ##$COMMENT= <>
$$ ##$ECF= 1
$$ ##$ECHOLST= (0..15)
$$ 1 1 1 1 1 1 1 1 1 1 1 1 1 1 1 1
$$ ##$ECOLLST= (0..15)
$$ 1 1 1 1 1 1 1 1 1 1 1 1 1 1 1 1
$$ ##$FLIPA= 0
$$ ##$FOV1= 0
$$ ##$FOV2= 0
$$ ##$FOV3= 0
$$ ##$FRARE= 1
$$ ##$HEADER= <>
$$ ##$INSTIT= <>
$$ ##$METHOD= <>
$$ ##$NECHOES= 1
$$ ##$NPROJEC= 1
$$ ##$NSLICES= 1
$$ ##$PATPOS= 0
$$ ##$RUNEXAM= -1
$$ ##$SDIST= 1
$$ ##$SOANGLE= 0
$$ ##$SORIENT= 0
$$ ##$SOT= <>
$$ ##$SPOS= 0
$$ ##$SPOSDIR= <>
$$ ##$STHICK= 3
$$ ##$T2DIST= 30
$$ ##$TINV= 50
$$ ##$TREC= 2700
$$ ##$TREP= 3000
$$ ##$TSCAN= 50000
$$ ##END=
##$RELAX= 
##$BRUKER FILE EXP=pulseprogram
$$ # 1 "/opt/topspin3.5pl7/exp/stan/nmr/lists/pp/zgpg30"
$$ ;zgpg30
$$ ;avance-version (12/01/11)
$$ ;1D sequence with power-gated decoupling
$$ ;using 30 degree flip angle
$$ ;
$$ ;$CLASS=HighRes
$$ ;$DIM=1D
$$ ;$TYPE=
$$ ;$SUBTYPE=
$$ ;$COMMENT=
$$ ;$RECOMMEND=y
$$ 
$$ 
$$ # 1 "/opt/topspin3.5pl7/exp/stan/nmr/lists/pp/Avance.incl" 1
$$ ;Avance3.incl
$$ ;   for AV III
$$ ;
$$ ;avance-version (13/06/17)
$$ ;
$$ ;$CLASS=HighRes Incl
$$ ;$COMMENT=
$$ # 169 "/opt/topspin3.5pl7/exp/stan/nmr/lists/pp/Avance.incl"
$$ ;$Id: Avance3.incl,v 1.10.2.2 2013/08/30 09:43:33 ber Exp $
$$ # 14 "/opt/topspin3.5pl7/exp/stan/nmr/lists/pp/zgpg30" 2
$$ 
$$ # 1 "/opt/topspin3.5pl7/exp/stan/nmr/lists/pp/Delay.incl" 1
$$ ;Delay.incl  -  include file for commonly used delays
$$ ;
$$ ;version (13/08/07)
$$ ;
$$ ;$CLASS=HighRes Incl
$$ ;$COMMENT=
$$ 
$$ # 9 "/opt/topspin3.5pl7/exp/stan/nmr/lists/pp/Delay.incl"
$$ ;general delays
$$ 
$$ define delay DELTA
$$ define delay DELTA1
$$ define delay DELTA2
$$ define delay DELTA3
$$ define delay DELTA4
$$ define delay DELTA5
$$ define delay DELTA6
$$ define delay DELTA7
$$ define delay DELTA8
$$ define delay DELTA9
$$ define delay DELTA10
$$ define delay DELTA11
$$ define delay DELTA12
$$ define delay DELTA13
$$ define delay DELTA14
$$ define delay DELTA15
$$ define delay DELTA16
$$ 
$$ define delay TAU
$$ define delay TAU1
$$ define delay TAU2
$$ define delay TAU3
$$ define delay TAU4
$$ define delay TAU5
$$ define delay TAU6
$$ define delay TAU7
$$ define delay TAU8
$$ define delay TAU9
$$ # 40 "/opt/topspin3.5pl7/exp/stan/nmr/lists/pp/Delay.incl"
$$ define delay INCR1
$$ define delay INCR2
$$ define delay INCR3
$$ define delay INCR4
$$ define delay INCR5
$$ define delay INCR6
$$ 
$$ 
$$ ;delays for centering pulses
$$ # 50 "/opt/topspin3.5pl7/exp/stan/nmr/lists/pp/Delay.incl"
$$ define delay CEN_HN1
$$ define delay CEN_HN2
$$ define delay CEN_HN3
$$ define delay CEN_HC1
$$ define delay CEN_HC2
$$ define delay CEN_HC3
$$ define delay CEN_HC4
$$ define delay CEN_HP1
$$ define delay CEN_HP2
$$ define delay CEN_CN1
$$ define delay CEN_CN2
$$ define delay CEN_CN3
$$ define delay CEN_CN4
$$ define delay CEN_CP1
$$ define delay CEN_CP2
$$ 
$$ 
$$ ;loop counters
$$ # 69 "/opt/topspin3.5pl7/exp/stan/nmr/lists/pp/Delay.incl"
$$ define loopcounter COUNTER
$$ define loopcounter SCALEF
$$ define loopcounter FACTOR1
$$ define loopcounter FACTOR2
$$ define loopcounter FACTOR3
$$ define loopcounter FACTOR4
$$ define loopcounter FACTOR5
$$ define loopcounter FACTOR6
$$ 
$$ 
$$ # 80 "/opt/topspin3.5pl7/exp/stan/nmr/lists/pp/Delay.incl"
$$ ;$Id: Delay.incl,v 1.14.2.1 2013/08/30 09:43:33 ber Exp $
$$ # 15 "/opt/topspin3.5pl7/exp/stan/nmr/lists/pp/zgpg30" 2
$$ 
$$ 
$$ # 18 "/opt/topspin3.5pl7/exp/stan/nmr/lists/pp/zgpg30"
$$ "d11=30m"
$$ 
$$ 
$$ "DELTA=d1-100m"
$$ # 24 "/opt/topspin3.5pl7/exp/stan/nmr/lists/pp/zgpg30"
$$ "acqt0=-p1*0.66/3.1416"
$$ 
$$ 
$$ # 1 "mc_line 27 file /opt/topspin3.5pl7/exp/stan/nmr/lists/pp/zgpg30 exp. def. part of mc cmd. before ze"
$$ ; dimension 1D; AQ_mode 
$$ define delay MCWRK
$$ define delay MCREST
$$ "MCREST = 30m - 30m"
$$ "MCWRK = 0.333333*30m"
$$ 
$$     dccorr
$$ # 27 "/opt/topspin3.5pl7/exp/stan/nmr/lists/pp/zgpg30"
$$ 1 ze
$$ # 1 "mc_line 27 file /opt/topspin3.5pl7/exp/stan/nmr/lists/pp/zgpg30 exp. def. of mc cmd. after ze"
$$ # 28 "/opt/topspin3.5pl7/exp/stan/nmr/lists/pp/zgpg30"
$$   d11 pl12:f2
$$ # 1 "mc_line 29 file /opt/topspin3.5pl7/exp/stan/nmr/lists/pp/zgpg30 exp. start label for mc cmd."
$$ 2 MCWRK  * 2 do:f2
$$ LBLF0, MCWRK 
$$   MCREST
$$ # 30 "/opt/topspin3.5pl7/exp/stan/nmr/lists/pp/zgpg30"
$$   10u pl13:f2
$$   d11 cpd2:f2
$$   DELTA
$$   4u do:f2
$$   10u pl12:f2
$$   100m cpd2:f2
$$   p1*0.33 ph1
$$   go=2 ph31
$$ # 1 "mc_line 38 file /opt/topspin3.5pl7/exp/stan/nmr/lists/pp/zgpg30 exp. mc cmd. in line"
$$   MCWRK do:f2 pl13:f2 wr #0
$$   MCWRK zd
$$   lo to LBLF0 times td0
$$ 
$$ # 39 "/opt/topspin3.5pl7/exp/stan/nmr/lists/pp/zgpg30"
$$ exit
$$ # 42 "/opt/topspin3.5pl7/exp/stan/nmr/lists/pp/zgpg30"
$$ ph1=0 2 2 0 1 3 3 1
$$ ph31=0 2 2 0 1 3 3 1
$$ 
$$ 
$$ ;pl1 : f1 channel - power level for pulse (default)
$$ ;pl12: f2 channel - power level for CPD/BB decoupling
$$ ;pl13: f2 channel - power level for second CPD/BB decoupling
$$ ;p1 : f1 channel -  90 degree high power pulse
$$ ;d1 : relaxation delay; 1-5 * T1
$$ ;d11: delay for disk I/O                             [30 msec]
$$ ;ns: 1 * n, total number of scans: NS * TD0
$$ ;cpd2: decoupling according to sequence defined by cpdprg2
$$ ;pcpd2: f2 channel - 90 degree pulse for decoupling sequence
$$ # 58 "/opt/topspin3.5pl7/exp/stan/nmr/lists/pp/zgpg30"
$$ ;$Id: zgpg30,v 1.13 2012/01/31 17:49:32 ber Exp $
##$RELAX= 
##$BRUKER FILE EXP=sample_info.prop
$$ #Mon May 19 12:56:12 CEST 2025
$$ I_10000=NM=Sample ID, NM2=, HEIGHT=0
$$ I_10001=NM=Origin, NM2=, HEIGHT=0
$$ I_10002=NM=Chemical formula, NM2=, HEIGHT=0
$$ I_10003=NM=Concentration, NM2=, HEIGHT=0
$$ I_10004=NM=Date Prepared, NM2=, HEIGHT=0
$$ I_10005=NM=Buffer, NM2=, HEIGHT=0
$$ I_10006=NM=Contact, NM2=, HEIGHT=0
$$ I_10007=NM=Comment, NM2=, HEIGHT=5
##$RELAX= 
##$BRUKER FILE EXP=shimvalues
$$ # Mon May 19 12:48:37 2025
$$ #$$PROBEIDENTIFIER=Z800701_0081
$$ #$$PROBENAME=PA BBO 500S2 BB-H-D-05 Z
$$ #$$SHIMID=292722
$$ #
$$ # Active Shim Gradients
$$ #
$$ Z           		369             
$$ Z2          		2146            
$$ Z3          		-1002           
$$ Z4          		3421            
$$ Z5          		-1716           
$$ Z6          		2909            
$$ Z7          		-973            
$$ Z8          		0               
$$ X           		1783            
$$ XZ          		-4947           
$$ XZ2         		1010            
$$ XZ3         		-6355           
$$ XZ4         		1379            
$$ XZ5         		10013           
$$ Y           		4209            
$$ YZ          		-10129          
$$ YZ2         		-4173           
$$ YZ3         		3481            
$$ YZ4         		-66             
$$ YZ5         		-12010          
$$ XY          		2927            
$$ XYZ         		-8055           
$$ XYZ2        		-6939           
$$ XYZ3        		-4244           
$$ XYZ4        		-2739           
$$ XYZ5        		0               
$$ (X2-Y2)     		11678           
$$ (X2-Y2)Z    		-10953          
$$ (X2-Y2)Z2   		1259            
$$ (X2-Y2)Z3   		6854            
$$ (X2-Y2)Z4   		1240            
$$ (X2-Y2)Z5   		0               
$$ X3          		2375            
$$ X3Z         		-6144           
$$ Y3          		4207            
$$ Y3Z         		6975            
$$ #
$$ # Lock Parameter
$$ #
$$ FIELD		5539.572
$$ LOCKPHASE		8.270   
$$ LOCKPOWER		-39.000 
$$ LOCKGAIN		118.200 
$$ LOCKDC		-75.000 
$$ LOCKSHIFT		4.700   
$$ LOOPGAIN		5.000   
$$ LOOPTIME		0.250   
$$ LOOPFILTER		500.000 
$$ #
$$ IEEE64_VERSION_CODE 1
$$ #
$$ # Shim currents 
$$ #
$$ SHIM_SETTING [1 ]  -171.43914087   
$$ SHIM_SETTING [2 ]  2037.74051726   
$$ SHIM_SETTING [3 ]  -1899.71450916  
$$ SHIM_SETTING [4 ]  -5345.99862639  
$$ SHIM_SETTING [5 ]  -2.00588951     
$$ SHIM_SETTING [6 ]  3300.67388809   
$$ SHIM_SETTING [7 ]  4546.21224334   
$$ SHIM_SETTING [8 ]  9965.47301539   
$$ SHIM_SETTING [9 ]  1605.32656312   
$$ SHIM_SETTING [10]  3771.23762283   
$$ SHIM_SETTING [11]  0.00000000      
$$ SHIM_SETTING [12]  -2767.60200000  
$$ SHIM_SETTING [13]  11181.60200000  
$$ SHIM_SETTING [14]  4131.70300000   
$$ SHIM_SETTING [15]  -3758.84575067  
$$ SHIM_SETTING [16]  10676.31135937  
$$ SHIM_SETTING [17]  5973.62003009   
$$ SHIM_SETTING [18]  -6469.93475223  
$$ SHIM_SETTING [19]  6243.52466273   
$$ SHIM_SETTING [20]  -3046.76597887  
$$ SHIM_SETTING [21]  3498.87400000   
$$ SHIM_SETTING [22]  15280.36800000  
$$ SHIM_SETTING [23]  -2539.12700000  
$$ SHIM_SETTING [24]  21570.70100000  
$$ SHIM_SETTING [25]  9539.37000000   
$$ SHIM_SETTING [26]  727.49000000    
$$ SHIM_SETTING [27]  -1827.95400000  
$$ SHIM_SETTING [28]  -11561.65544796 
$$ SHIM_SETTING [29]  -5065.22500000  
$$ SHIM_SETTING [30]  7022.84400000   
$$ SHIM_SETTING [31]  -4046.06693932  
$$ SHIM_SETTING [32]  10737.52530192  
$$ SHIM_SETTING [33]  -17506.44300000 
$$ SHIM_SETTING [34]  4873.22900000   
$$ SHIM_SETTING [35]  7752.75800000   
$$ SHIM_SETTING [36]  13742.15300000  
$$ SHIM_SETTING [37]  14552.96447897  
$$ SHIM_SETTING [38]  -8133.89043224  
$$ SHIM_SETTING [39]  17985.55139729  
$$ SHIM_SETTING [40]  0.00000000      
##$RELAX= 
##$BRUKER FILE EXP=uxnmr.par
$$ ##TITLE= Parameter file, TopSpin 3.5 pl 7
$$ ##JCAMPDX= 5.0
$$ ##DATATYPE= Parameter Values
$$ ##NPOINTS= 104	$$ modification sequence number
$$ ##ORIGIN= Bruker BioSpin GmbH
$$ ##OWNER= nmrsu
$$ $$ 2025-04-09 09:16:50.742 +0200  aci@chem-nmr500
$$ $$ /opt/topspin3.5pl7/conf/instr/spect/uxnmr.par
$$ $$ process /opt/topspin3.5pl7/prog/mod/cfserverav3
$$ ##$ACB= 0
$$ ##$ACBTAT= (0..23)
$$ 0 72 88 50 50 0 0 0 0 0 0 0 0 0 0 0 0 0 0 0 0 0 0 0
$$ ##$ACBTBA= (0..23)
$$ 0 0 0 0 0 0 0 0 0 0 0 0 0 0 0 0 0 0 0 0 0 0 0 0
$$ ##$ACBTBLK= (0..23)
$$ 0 34 33 36 1 0 0 0 0 0 0 0 0 0 0 0 0 0 0 0 0 0 0 0
$$ ##$ACBTCTL= (0..23)
$$ 0 6 6 6 6 0 0 0 0 0 0 0 0 0 0 0 0 0 0 0 0 0 0 0
$$ ##$ACBTDI= (0..23)
$$ 0 -1779670023 -1779670023 -1779670023 -1779670252 0 0 0 0 0 0 0 0 0 0 0
$$ 0 0 0 0 0 0 0 0
$$ ##$ACBTDM= (0..23)
$$ 0 25 6 10 10 0 0 0 0 0 0 0 0 0 0 0 0 0 0 0 0 0 0 0
$$ ##$ACBTFHI= (0..23)
$$ 0 600 365 92 78 0 0 0 0 0 0 0 0 0 0 0 0 0 0 0 0 0 0 0
$$ ##$ACBTFL= (0..23)
$$ 0 248 248 88 8 0 0 0 0 0 0 0 0 0 0 0 0 0 0 0 0 0 0 0
$$ ##$ACBTFLO= (0..23)
$$ 0 180 6 30 76 0 0 0 0 0 0 0 0 0 0 0 0 0 0 0 0 0 0 0
$$ ##$ACBTINP= (0..23)
$$ 0 2 1 4 0 0 0 0 0 0 0 0 0 0 0 0 0 0 0 0 0 0 0 0
$$ ##$ACBTOUT= (0..23)
$$ 0 1 2 3 1 0 0 0 0 0 0 0 0 0 0 0 0 0 0 0 0 0 0 0
$$ ##$ACBTPO= (0..23)
$$ 0 100000 500000 150000 5000 0 0 0 0 0 0 0 0 0 0 0 0 0 0 0 0 0 0 0
$$ ##$ACBTPW= (0..23)
$$ 0 100 60 5 1000 0 0 0 0 0 0 0 0 0 0 0 0 0 0 0 0 0 0 0
$$ ##$ACBTSB= (0..23)
$$ 0 103 99 16 0 0 0 0 0 0 0 0 0 0 0 0 0 0 0 0 0 0 0 0
$$ ##$ACBTSDT= (0..23)
$$ 0 2 2 2 2 0 0 0 0 0 0 0 0 0 0 0 0 0 0 0 0 0 0 0
$$ ##$ACBTY= <no>
$$ ##$AMPDFLT= no
$$ ##$AQSBDCH= (0..95)
$$ 0 0 0 0 0 0 0 0 0 0 255 255 255 255 255 255 255 255 255 255 255 255 255
$$ 255 255 255 255 255 255 255 255 255 255 255 255 255 255 255 255 255 255
$$ 255 255 255 255 255 255 255 255 255 255 255 255 255 255 255 255 255 255
$$ 255 255 255 255 255 255 255 255 255 255 255 255 255 255 255 255 255 255
$$ 255 255 255 255 255 255 255 255 255 255 255 255 255 255 255 255 255 255
$$ 255
$$ ##$AQSBDHW= (0..95)
$$ 5 1 0 0 0 0 0 0 0 0 255 255 255 255 255 255 255 255 255 255 255 255 255
$$ 255 255 255 255 255 255 255 255 255 255 255 255 255 255 255 255 255 255
$$ 255 255 255 255 255 255 255 255 255 255 255 255 255 255 255 255 255 255
$$ 255 255 255 255 255 255 255 255 255 255 255 255 255 255 255 255 255 255
$$ 255 255 255 255 255 255 255 255 255 255 255 255 255 255 255 255 255 255
$$ 255
$$ ##$AQSBDID= (0..95)
$$ 82 88 83 83 83 83 86 86 66 66 255 255 255 255 255 255 255 255 255 255 255
$$ 255 255 255 255 255 255 255 255 255 255 255 255 255 255 255 255 255 255
$$ 255 255 255 255 255 255 255 255 255 255 255 255 255 255 255 255 255 255
$$ 255 255 255 255 255 255 255 255 255 255 255 255 255 255 255 255 255 255
$$ 255 255 255 255 255 255 255 255 255 255 255 255 255 255 255 255 255 255
$$ 255 255 255
$$ ##$AQSBDNO= (0..95)
$$ 1 1 1 2 3 4 1 2 1 1 255 255 255 255 255 255 255 255 255 255 255 255 255
$$ 255 255 255 255 255 255 255 255 255 255 255 255 255 255 255 255 255 255
$$ 255 255 255 255 255 255 255 255 255 255 255 255 255 255 255 255 255 255
$$ 255 255 255 255 255 255 255 255 255 255 255 255 255 255 255 255 255 255
$$ 255 255 255 255 255 255 255 255 255 255 255 255 255 255 255 255 255 255
$$ 255
$$ ##$AQSBDSL= (0..95)
$$ 2 3 4 4 5 5 13 14 255 1 255 255 255 255 255 255 255 255 255 255 255 255
$$ 255 255 255 255 255 255 255 255 255 255 255 255 255 255 255 255 255 255
$$ 255 255 255 255 255 255 255 255 255 255 255 255 255 255 255 255 255 255
$$ 255 255 255 255 255 255 255 255 255 255 255 255 255 255 255 255 255 255
$$ 255 255 255 255 255 255 255 255 255 255 255 255 255 255 255 255 255 255
$$ 255 255
$$ ##$AQSBDTY= (0..95)
$$ 67 214 50 50 50 50 147 145 216 7 255 255 255 255 255 255 255 255 255 255
$$ 255 255 255 255 255 255 255 255 255 255 255 255 255 255 255 255 255 255
$$ 255 255 255 255 255 255 255 255 255 255 255 255 255 255 255 255 255 255
$$ 255 255 255 255 255 255 255 255 255 255 255 255 255 255 255 255 255 255
$$ 255 255 255 255 255 255 255 255 255 255 255 255 255 255 255 255 255 255
$$ 255 255 255 255
$$ ##$AQSBUAD= (0..95)
$$ 16 52 36 37 38 39 160 161 32 32 255 255 255 255 255 255 255 255 255 255
$$ 255 255 255 255 255 255 255 255 255 255 255 255 255 255 255 255 255 255
$$ 255 255 255 255 255 255 255 255 255 255 255 255 255 255 255 255 255 255
$$ 255 255 255 255 255 255 255 255 255 255 255 255 255 255 255 255 255 255
$$ 255 255 255 255 255 255 255 255 255 255 255 255 255 255 255 255 255 255
$$ 255 255 255 255
$$ ##$AQSECL= (0..95)
$$ 0 2 2 2 2 2 0 1 1 255 255 255 255 255 255 255 255 255 255 255 255 255 255
$$ 255 255 255 255 255 255 255 255 255 255 255 255 255 255 255 255 255 255
$$ 255 255 255 255 255 255 255 255 255 255 255 255 255 255 255 255 255 255
$$ 255 255 255 255 255 255 255 255 255 255 255 255 255 255 255 255 255 255
$$ 255 255 255 255 255 255 255 255 255 255 255 255 255 255 255 255 255 255
$$ 255
$$ ##$AQSECLS= (0..95)
$$ 2 0 2 2 2 2 1 2 1 255 255 255 255 255 255 255 255 255 255 255 255 255 255
$$ 255 255 255 255 255 255 255 255 255 255 255 255 255 255 255 255 255 255
$$ 255 255 255 255 255 255 255 255 255 255 255 255 255 255 255 255 255 255
$$ 255 255 255 255 255 255 255 255 255 255 255 255 255 255 255 255 255 255
$$ 255 255 255 255 255 255 255 255 255 255 255 255 255 255 255 255 255 255
$$ 255
$$ ##$AQSETH1= <no>
$$ ##$AQSETH2= <no>
$$ ##$AQSSPLT= no
$$ ##$ATT19F= (0..1)
$$ 0 0
$$ ##$ATT1H= (0..1)
$$ 0 0
$$ ##$ATT3H= (0..1)
$$ 0 0
$$ ##$ATTX= (0..1)
$$ 0 0
$$ ##$ATTY= (0..1)
$$ 0 0
$$ ##$ATTZ= (0..1)
$$ 0 0
$$ ##$BACSAIR= yes
$$ ##$BACSCAP= 0
$$ ##$BACSDEL= 1
$$ ##$BACSFCM= no
$$ ##$BACSOPT= <>
$$ ##$BACSTY= <no>
$$ ##$BARPTY= <no>
$$ ##$BFREQ= 500.25
$$ ##$BGAETH= (0..9)
$$ <no> <no> <no> <no> <no> <no> <no> <no> <no> <no>
$$ ##$BIRDS= yes
$$ ##$BMPC= 0
$$ ##$BMPCTY= <no>
$$ ##$BPSUTY= <no>
$$ ##$BSMS= 2
$$ ##$BSMS19FLock= no
$$ ##$BSMSETH= <149.236.99.20>
$$ ##$BSMSTY= <no>
$$ ##$BgaChFac2= (0..7)
$$ 0 0 0 0 0 0 0 0
$$ ##$BgaChMap= (0..7)
$$ 0 0 0 0 0 0 0 0
$$ ##$BgaChMaxv= (0..7)
$$ 0 0 0 0 0 0 0 0
$$ ##$BgaChRouting= (0..63)
$$ 0 0 0 0 0 0 0 0 0 0 0 0 0 0 0 0 0 0 0 0 0 0 0 0 0 0 0 0 0 0 0 0 0 0 0 0
$$ 0 0 0 0 0 0 0 0 0 0 0 0 0 0 0 0 0 0 0 0 0 0 0 0 0 0 0 0
$$ ##$BgaChShimMap= (0..7)
$$ 0 0 0 0 0 0 0 0
$$ ##$BgaChShimMaxv= (0..7)
$$ 0 0 0 0 0 0 0 0
$$ ##$Bla01Eth= <149.236.99.254>
$$ ##$Bla01Nam= <BLAXH2H500/100/150 E 200-600MHZ>
$$ ##$Bla01PN= <W1345099>
$$ ##$Bla01SN= <0190>
$$ ##$Bla02Eth= <149.236.99.20>
$$ ##$Bla02Nam= <BSMS/2 LOCK TRANSCEIVER 500>
$$ ##$Bla02PN= <Z109889>
$$ ##$Bla02SN= <00456>
$$ ##$Bla03Eth= <no>
$$ ##$Bla03Nam= <>
$$ ##$Bla03PN= <>
$$ ##$Bla03SN= <>
$$ ##$Bla04Eth= <no>
$$ ##$Bla04Nam= <>
$$ ##$Bla04PN= <>
$$ ##$Bla04SN= <>
$$ ##$Bla05Eth= <no>
$$ ##$Bla05Nam= <>
$$ ##$Bla05PN= <>
$$ ##$Bla05SN= <>
$$ ##$Bla06Eth= <no>
$$ ##$Bla06Nam= <>
$$ ##$Bla06PN= <>
$$ ##$Bla06SN= <>
$$ ##$Bla07Eth= <no>
$$ ##$Bla07Nam= <>
$$ ##$Bla07PN= <>
$$ ##$Bla07SN= <>
$$ ##$Bla08Eth= <no>
$$ ##$Bla08Nam= <>
$$ ##$Bla08PN= <>
$$ ##$Bla08SN= <>
$$ ##$BlaEth= (0..9)
$$ <149.236.99.249> <149.236.99.20> <no> <no> <no> <no> <no> <no> <> <>
$$ ##$BlaNam= (0..9)
$$ <BLAXH2H500/100/150 E 200-600MHZ > <BSMS/2 LOCK TRANSCEIVER 500> <> <>
$$ <> <> <> <> <> <>
$$ ##$BlaPN= (0..9)
$$ <W1345099> <Z109889> <> <> <> <> <> <> <> <>
$$ ##$BlaSN= (0..9)
$$ <0187> <00456> <> <> <> <> <> <> <> <>
$$ ##$BsmsAuxEth= <no>
$$ ##$CFASMOD= (0..7)
$$ 1 1 1 1 1 1 1 1
$$ ##$CFASMUL= (0..7)
$$ 1 1 1 1 1 1 1 1
$$ ##$CNFTXDR= (0..7)
$$ 6 6 6 0 0 0 0 0
$$ ##$COMDIG2= 0
$$ ##$CPDBTY= <no>
$$ ##$CRCOTY= <no>
$$ ##$CSW1= (0..31)
$$ 2 2 2 4 0 0 0 0 0 0 0 0 0 0 0 0 0 0 0 0 0 0 0 0 0 0 0 0 0 0 0 0
$$ ##$CSW2= (0..31)
$$ 1 1 1 0 0 0 0 0 0 0 0 0 0 0 0 0 0 0 0 0 0 0 0 0 0 0 0 0 0 0 0 0
$$ ##$CSWNUM= (0..7)
$$ 4 1 0 0 0 0 0 0
$$ ##$ConsolePnSn= <>
$$ ##$CryoProAccPnSn= <>
$$ ##$Ctb1Eth= <no>
$$ ##$CubeEth= (0..7)
$$ <no> <no> <no> <no> <no> <no> <no> <no>
$$ ##$CustRegisterNo= <>
$$ ##$DATSTAT= no
$$ ##$DIGI140= (0..7)
$$ 0 0 0 0 0 0 0 0
$$ ##$DIGIB12= (0..7)
$$ 0 0 0 0 0 0 0 0
$$ ##$DIGIB16= (0..7)
$$ 0 0 0 0 0 0 0 0
$$ ##$DIGIFA= (0..7)
$$ 0 0 0 0 0 0 0 0
$$ ##$DIGIFOURIER= 0
$$ ##$DIGIHA= (0..7)
$$ 0 0 0 0 0 0 0 0
$$ ##$DIGIHAF= (0..7)
$$ 0 0 0 0 0 0 0 0
$$ ##$DIGIHRD= (0..7)
$$ 0 0 0 0 0 0 0 0
$$ ##$DIGIIA= (0..7)
$$ 0 0 0 0 0 0 0 0
$$ ##$DIGIO16= (0..7)
$$ 0 0 0 0 0 0 0 0
$$ ##$DIGISA= (0..7)
$$ 0 0 0 0 0 0 0 0
$$ ##$DIGISAF= (0..7)
$$ 0 0 0 0 0 0 0 0
$$ ##$DIGISL= (0..7)
$$ 0 0 0 0 0 0 0 0
$$ ##$DIGITYI= (0..7)
$$ 0 0 0 0 0 0 0 0
$$ ##$DIGITYP= (0..7)
$$ 0 0 0 0 0 0 0 0
$$ ##$DIGITZ= 0
$$ ##$DPPFAC= 1
$$ ##$DRMSETH= <no>
$$ ##$DRU= yes
$$ ##$DRUETH= (0..33)
$$ <no> <149.236.99.89> <no> <no> <no> <no> <no> <no> <no> <no> <no> <no>
$$ <no> <no> <no> <no> <no> <no> <no> <no> <no> <no> <no> <no> <no> <no> <no>
$$ <no> <no> <no> <no> <no> <no> <>
$$ ##$Description= <AVHD500>
$$ ##$DppType= 0
$$ ##$FCUMEM= (0..7)
$$ 16777208 16777208 16777208 0 0 0 0 0
$$ ##$FCUPAL= (0..7)
$$ 0 0 0 0 0 0 0 0
$$ ##$FGSVTY= <no>
$$ ##$FQMIX= 0
$$ ##$FUNCMOD= <>
$$ ##$FourPeriBdEth= <no>
$$ ##$FourShimBdEth= <no>
$$ ##$FourierPicsCon= no
$$ ##$GCUTYPE= 10
$$ ##$GCUTYPE2= 0
$$ ##$GPREDEL= 0
$$ ##$GPSCUTY= <no>
$$ ##$GRADRES= 5
$$ ##$GTUTY= <no>
$$ ##$GcConn= (0..1)
$$ 1 0
$$ ##$GradAmpGain= (0..7)
$$ 0 0 0 0 0 0 0 0
$$ ##$GradAmpMaxCurX= (0..7)
$$ 0 0 0 0 0 0 0 0
$$ ##$GradAmpMaxCurY= (0..7)
$$ 0 0 0 0 0 0 0 0
$$ ##$GradAmpMaxCurZ= (0..7)
$$ 9.99999904632568 0 0 0 0 0 0 0
$$ ##$GradAmpName= (0..7)
$$ <GAB in BSMS> <> <> <> <> <> <> <>
$$ ##$GradAmpPN= (0..7)
$$ <> <> <> <> <> <> <> <>
$$ ##$GradAmpSN= (0..7)
$$ <> <> <> <> <> <> <> <>
$$ ##$GradAmpType= (0..7)
$$ 2 0 0 0 0 0 0 0
$$ ##$GradPowClkCtrl= 0
$$ ##$GradPowClkTime= 0
$$ ##$GradPowImax= 0
$$ ##$GradPowType= 0
$$ ##$GradPowVmax= 0
$$ ##$HDIETH= (0..5)
$$ <> <no> <no> <no> <no> <>
$$ ##$HFAC= 3
$$ ##$HPCU= 0
$$ ##$HPCUTY= <no>
$$ ##$HPTXLP= (0..3)
$$ -1 -1 -1 -1
$$ ##$HPTXPI= (0..3)
$$ 0 0 0 0
$$ ##$HPTXPO= (0..3)
$$ 0 0 0 0
$$ ##$HPTXTY= (0..3)
$$ 0 0 0 0
$$ ##$HpprCoverType= 2
$$ ##$IF451= 0
$$ ##$IFREQ= 1
$$ ##$INJPTY= <no>
$$ ##$INTFPR= 0
$$ ##$IPSOETH= <149.236.99.253>
$$ ##$IPSOTYPE= 1
$$ ##$LDUETH= (0..0)
$$ <no>
$$ ##$LOCKCONF= <DLM>
$$ ##$LOCKTY= <no>
$$ ##$LOCSWID= 0
$$ ##$LOCSWIF= 0
$$ ##$LVDSSPLITETH= (0..5)
$$ <> <no> <no> <no> <no> <>
$$ ##$Location= <Universitaet Zuerich Irchel>
$$ ##$M2FAC= 0
$$ ##$MAS= 2
$$ ##$MASETIME= 10
$$ ##$MASITIME= 10
$$ ##$MASTY= <tty01>
$$ ##$MAS_CT= 10
$$ ##$MAS_SG= 0
$$ ##$MAS_TO= 0
$$ ##$MEMPRM= 0
$$ ##$MHFAC= 0
$$ ##$MXFAC= 0
$$ ##$MagnCoilPnSn= <>
$$ ##$MagnDewarPnSn= <>
$$ ##$MasEth= <no>
$$ ##$NAMPD= (0..17)
$$ <> <HPLNA 19F1H> <2H> <XBB19F 2HP> <> <> <> <> <> <> <> <> <> <> <> <>
$$ <> <>
$$ ##$NFCU= 3
$$ ##$NFRED= 0
$$ ##$NMRCH= 2
$$ ##$NMRMEM= 16384
$$ ##$NPSGU= 0
$$ ##$NRCU= 1
$$ ##$NROUT= 0
$$ ##$NSGU= 4
$$ ##$OrderNo= <10088890>
$$ ##$PAMPF1= (0..15)
$$ 75 56 96 64 0 0 0 0 0 0 0 0 0 0 0 0
$$ ##$PAMPF2= (0..15)
$$ 0 0 0 0 0 0 0 0 0 0 0 0 0 0 0 0
$$ ##$PAMPF3= (0..15)
$$ 0 0 0 0 0 0 0 0 0 0 0 0 0 0 0 0
$$ ##$PAMPF4= (0..15)
$$ 0 0 0 0 0 0 0 0 0 0 0 0 0 0 0 0
$$ ##$PAMPF5= (0..15)
$$ 0 0 0 0 0 0 0 0 0 0 0 0 0 0 0 0
$$ ##$PAMPF6= (0..15)
$$ 0 0 0 0 0 0 0 0 0 0 0 0 0 0 0 0
$$ ##$PAMPF7= (0..15)
$$ 0 0 0 0 0 0 0 0 0 0 0 0 0 0 0 0
$$ ##$PAMPF8= (0..15)
$$ 0 0 0 0 0 0 0 0 0 0 0 0 0 0 0 0
$$ ##$PH4= 0
$$ ##$PHF4TY= <no>
$$ ##$POWCHK= yes
$$ ##$PRAMD1= (0..7)
$$ 6 0 0 1610612736 0 0 0 0
$$ ##$PRAMD10= (0..7)
$$ 0 0 0 0 0 0 0 0
$$ ##$PRAMD11= (0..7)
$$ 0 0 0 0 0 0 0 0
$$ ##$PRAMD12= (0..7)
$$ 0 0 0 0 0 0 0 0
$$ ##$PRAMD13= (0..7)
$$ 0 0 0 0 0 0 0 0
$$ ##$PRAMD14= (0..7)
$$ 0 0 0 0 0 0 0 0
$$ ##$PRAMD15= (0..7)
$$ 0 0 0 0 0 0 0 0
$$ ##$PRAMD16= (0..7)
$$ 0 0 0 0 0 0 0 0
$$ ##$PRAMD17= (0..7)
$$ 0 0 0 0 0 0 0 0
$$ ##$PRAMD18= (0..7)
$$ 0 0 0 0 0 0 0 0
$$ ##$PRAMD19= (0..7)
$$ 0 0 0 0 0 0 0 0
$$ ##$PRAMD2= (0..7)
$$ 0 1048576 0 536870912 0 1048576 0 536870912
$$ ##$PRAMD20= (0..7)
$$ 0 0 0 0 0 0 0 0
$$ ##$PRAMD21= (0..7)
$$ 0 0 0 0 0 0 0 0
$$ ##$PRAMD3= (0..7)
$$ 2147483644 2147483647 2147483647 603979775 0 0 0 0
$$ ##$PRAMD4= (0..7)
$$ 0 0 0 0 0 0 0 0
$$ ##$PRAMD5= (0..7)
$$ 0 0 0 0 0 0 0 0
$$ ##$PRAMD6= (0..7)
$$ 0 0 0 0 0 0 0 0
$$ ##$PRAMD7= (0..7)
$$ 0 0 0 0 0 0 0 0
$$ ##$PRAMD8= (0..7)
$$ 0 0 0 0 0 0 0 0
$$ ##$PRAMD9= (0..7)
$$ 0 0 0 0 0 0 0 0
$$ ##$PRAMLED= (0..1)
$$ 0 0
$$ ##$PRAMP= (0..9)
$$ <> <tty10> <no> <no> <no> <no> <no> <no> <no> <>
$$ ##$PRAMPTP= 1
$$ ##$PREEMPTYPE= 0
$$ ##$PREPTY= <no>
$$ ##$PREREC= (0..15)
$$ 0 1 1 1 0 0 0 0 0 0 0 0 0 0 0 0
$$ ##$PRESHLD= 0
$$ ##$PTS160= -1
$$ ##$PTSA2X= (0..7)
$$ 0 0 0 0 0 0 0 0
$$ ##$PTSF2X= (0..7)
$$ 0 0 0 0 0 0 0 0
$$ ##$PTSFMX= (0..19)
$$ 649.9 649.9 649.9 649.9 0 0 0 0 0 0 0 0 0 0 0 0 0 0 0 0
$$ ##$PULCHK= no
$$ ##$PerMagATempSens= no
$$ ##$PerMagEth= <no>
$$ ##$PerMagFluxSens= no
$$ ##$PerMagMTempSens= no
$$ ##$PramDutyCycPerc= (0..15)
$$ 4 2 2 0 0 0 0 0 0 0 0 0 0 0 0 0
$$ ##$PramPeakPowerW= (0..15)
$$ 4000 500 500 0 0 0 0 0 0 0 0 0 0 0 0 0
$$ ##$PramPowerSwitch= (0..15)
$$ 0 0 0 0 0 0 0 0 0 0 0 0 0 0 0 0
$$ ##$PramPulWidthMs= (0..15)
$$ 10 0.1 0.1 0 0 0 0 0 0 0 0 0 0 0 0 0
$$ ##$PreampMod01PN= <Z103204>
$$ ##$PreampMod01SN= <00273>
$$ ##$PreampMod02PN= <Z003472>
$$ ##$PreampMod02SN= <01157>
$$ ##$PreampMod03PN= <Z102026>
$$ ##$PreampMod03SN= <00013>
$$ ##$PreampMod04PN= <>
$$ ##$PreampMod04SN= <>
$$ ##$PreampMod05PN= <>
$$ ##$PreampMod05SN= <>
$$ ##$PreampMod06PN= <>
$$ ##$PreampMod06SN= <>
$$ ##$PreampMod07PN= <>
$$ ##$PreampMod07SN= <>
$$ ##$PreampMod08PN= <>
$$ ##$PreampMod08SN= <>
$$ ##$PreampMod09PN= <>
$$ ##$PreampMod09SN= <>
$$ ##$PreampMod10PN= <>
$$ ##$PreampMod10SN= <>
$$ ##$PreampMod11PN= <>
$$ ##$PreampMod11SN= <>
$$ ##$PreampMod12PN= <>
$$ ##$PreampMod12SN= <>
$$ ##$PreampMod13PN= <>
$$ ##$PreampMod13SN= <>
$$ ##$PreampMod14PN= <>
$$ ##$PreampMod14SN= <>
$$ ##$PreampMod15PN= <>
$$ ##$PreampMod15SN= <>
$$ ##$PreampMod16PN= <>
$$ ##$PreampMod16SN= <>
$$ ##$PreampModBisDat= (0..15)
$$ 20130502 20130412 20130626 0 0 0 0 0 0 0 0 0 0 0 0 0
$$ ##$PreampModPN= (0..17)
$$ <Z103204> <Z003472> <Z102026> <> <> <> <> <> <> <> <> <> <> <> <> <> <>
$$ <>
$$ ##$PreampModSN= (0..17)
$$ <00273> <01157> <00013> <> <> <> <> <> <> <> <> <> <> <> <> <> <> <>
$$ ##$ProdigyEth= <no>
$$ ##$RCUCDS= (0..7)
$$ 0 0 0 0 0 0 0 0
$$ ##$RCUCFS= (0..7)
$$ 0 0 0 0 0 0 0 0
$$ ##$RCUCSS= (0..7)
$$ 0 0 0 0 0 0 0 0
$$ ##$RCUI2C1= (0..7)
$$ 0 0 0 0 0 0 0 0
$$ ##$RCUI2C2= (0..7)
$$ 0 0 0 0 0 0 0 0
$$ ##$RCUI2C3= (0..7)
$$ 0 0 0 0 0 0 0 0
$$ ##$RCUI2C4= (0..7)
$$ 0 0 0 0 0 0 0 0
$$ ##$RCUI2C5= (0..7)
$$ 0 0 0 0 0 0 0 0
$$ ##$RCUI2C6= (0..7)
$$ 0 0 0 0 0 0 0 0
$$ ##$RCUI2C7= (0..7)
$$ 0 0 0 0 0 0 0 0
$$ ##$RCUI2C8= (0..7)
$$ 0 0 0 0 0 0 0 0
$$ ##$RDCU= 0
$$ ##$RFSINPUT= (0..1)
$$ 0 0
$$ ##$RFSVTY= <no>
$$ ##$RGTYPE= (0..31)
$$ 9 0 0 0 0 0 0 0 0 0 0 0 0 0 0 0 0 0 0 0 0 0 0 0 0 0 0 0 0 0 0 0
$$ ##$RG_max= (0..31)
$$ 203 -1 -1 -1 -1 -1 -1 -1 -1 -1 -1 -1 -1 -1 -1 -1 -1 -1 -1 -1 -1 -1 -1 -1
$$ -1 -1 -1 -1 -1 -1 -1 -1
$$ ##$RG_min= (0..31)
$$ 0.25 -1 -1 -1 -1 -1 -1 -1 -1 -1 -1 -1 -1 -1 -1 -1 -1 -1 -1 -1 -1 -1 -1
$$ -1 -1 -1 -1 -1 -1 -1 -1 -1
$$ ##$RG_tab1= (0..255)
$$ 0.25 0.28 0.32 0.35 0.4 0.44 0.5 0.56 0.64 0.7 0.8 0.89 1 1.12 1.28 1.4
$$ 1.6 1.78 2 2.25 2.56 2.8 3.2 3.56 4 4.5 5 5.6 6.35 7.12 8 9 10 11.3 12.7
$$ 14.2 16 18 20.2 22.6 25.4 28.5 32 36 40.3 45.2 50.8 57 64 71.8 80.6 90.5
$$ 101 114 128 144 161 181 203 -1 -1 -1 -1 -1 -1 -1 -1 -1 -1 -1 -1 -1 -1 -1
$$ -1 -1 -1 -1 -1 -1 -1 -1 -1 -1 -1 -1 -1 -1 -1 -1 -1 -1 -1 -1 -1 -1 -1 -1
$$ -1 -1 -1 -1 -1 -1 -1 -1 -1 -1 -1 -1 -1 -1 -1 -1 -1 -1 -1 -1 -1 -1 -1 -1
$$ -1 -1 -1 -1 -1 -1 -1 -1 -1 -1 -1 -1 -1 -1 -1 -1 -1 -1 -1 -1 -1 -1 -1 -1
$$ -1 -1 -1 -1 -1 -1 -1 -1 -1 -1 -1 -1 -1 -1 -1 -1 -1 -1 -1 -1 -1 -1 -1 -1
$$ -1 -1 -1 -1 -1 -1 -1 -1 -1 -1 -1 -1 -1 -1 -1 -1 -1 -1 -1 -1 -1 -1 -1 -1
$$ -1 -1 -1 -1 -1 -1 -1 -1 -1 -1 -1 -1 -1 -1 -1 -1 -1 -1 -1 -1 -1 -1 -1 -1
$$ -1 -1 -1 -1 -1 -1 -1 -1 -1 -1 -1 -1 -1 -1 -1 -1 -1 -1 -1 -1 -1 -1 -1 -1
$$ -1 -1 -1 -1 -1 -1 -1 -1 -1 -1 -1 -1 -1 -1
$$ ##$RG_tab2= (0..255)
$$ -1 -1 -1 -1 -1 -1 -1 -1 -1 -1 -1 -1 -1 -1 -1 -1 -1 -1 -1 -1 -1 -1 -1 -1
$$ -1 -1 -1 -1 -1 -1 -1 -1 -1 -1 -1 -1 -1 -1 -1 -1 -1 -1 -1 -1 -1 -1 -1 -1
$$ -1 -1 -1 -1 -1 -1 -1 -1 -1 -1 -1 -1 -1 -1 -1 -1 -1 -1 -1 -1 -1 -1 -1 -1
$$ -1 -1 -1 -1 -1 -1 -1 -1 -1 -1 -1 -1 -1 -1 -1 -1 -1 -1 -1 -1 -1 -1 -1 -1
$$ -1 -1 -1 -1 -1 -1 -1 -1 -1 -1 -1 -1 -1 -1 -1 -1 -1 -1 -1 -1 -1 -1 -1 -1
$$ -1 -1 -1 -1 -1 -1 -1 -1 -1 -1 -1 -1 -1 -1 -1 -1 -1 -1 -1 -1 -1 -1 -1 -1
$$ -1 -1 -1 -1 -1 -1 -1 -1 -1 -1 -1 -1 -1 -1 -1 -1 -1 -1 -1 -1 -1 -1 -1 -1
$$ -1 -1 -1 -1 -1 -1 -1 -1 -1 -1 -1 -1 -1 -1 -1 -1 -1 -1 -1 -1 -1 -1 -1 -1
$$ -1 -1 -1 -1 -1 -1 -1 -1 -1 -1 -1 -1 -1 -1 -1 -1 -1 -1 -1 -1 -1 -1 -1 -1
$$ -1 -1 -1 -1 -1 -1 -1 -1 -1 -1 -1 -1 -1 -1 -1 -1 -1 -1 -1 -1 -1 -1 -1 -1
$$ -1 -1 -1 -1 -1 -1 -1 -1 -1 -1 -1 -1 -1 -1 -1 -1
$$ ##$RG_tab3= (0..255)
$$ -1 -1 -1 -1 -1 -1 -1 -1 -1 -1 -1 -1 -1 -1 -1 -1 -1 -1 -1 -1 -1 -1 -1 -1
$$ -1 -1 -1 -1 -1 -1 -1 -1 -1 -1 -1 -1 -1 -1 -1 -1 -1 -1 -1 -1 -1 -1 -1 -1
$$ -1 -1 -1 -1 -1 -1 -1 -1 -1 -1 -1 -1 -1 -1 -1 -1 -1 -1 -1 -1 -1 -1 -1 -1
$$ -1 -1 -1 -1 -1 -1 -1 -1 -1 -1 -1 -1 -1 -1 -1 -1 -1 -1 -1 -1 -1 -1 -1 -1
$$ -1 -1 -1 -1 -1 -1 -1 -1 -1 -1 -1 -1 -1 -1 -1 -1 -1 -1 -1 -1 -1 -1 -1 -1
$$ -1 -1 -1 -1 -1 -1 -1 -1 -1 -1 -1 -1 -1 -1 -1 -1 -1 -1 -1 -1 -1 -1 -1 -1
$$ -1 -1 -1 -1 -1 -1 -1 -1 -1 -1 -1 -1 -1 -1 -1 -1 -1 -1 -1 -1 -1 -1 -1 -1
$$ -1 -1 -1 -1 -1 -1 -1 -1 -1 -1 -1 -1 -1 -1 -1 -1 -1 -1 -1 -1 -1 -1 -1 -1
$$ -1 -1 -1 -1 -1 -1 -1 -1 -1 -1 -1 -1 -1 -1 -1 -1 -1 -1 -1 -1 -1 -1 -1 -1
$$ -1 -1 -1 -1 -1 -1 -1 -1 -1 -1 -1 -1 -1 -1 -1 -1 -1 -1 -1 -1 -1 -1 -1 -1
$$ -1 -1 -1 -1 -1 -1 -1 -1 -1 -1 -1 -1 -1 -1 -1 -1
$$ ##$RG_tab4= (0..255)
$$ -1 -1 -1 -1 -1 -1 -1 -1 -1 -1 -1 -1 -1 -1 -1 -1 -1 -1 -1 -1 -1 -1 -1 -1
$$ -1 -1 -1 -1 -1 -1 -1 -1 -1 -1 -1 -1 -1 -1 -1 -1 -1 -1 -1 -1 -1 -1 -1 -1
$$ -1 -1 -1 -1 -1 -1 -1 -1 -1 -1 -1 -1 -1 -1 -1 -1 -1 -1 -1 -1 -1 -1 -1 -1
$$ -1 -1 -1 -1 -1 -1 -1 -1 -1 -1 -1 -1 -1 -1 -1 -1 -1 -1 -1 -1 -1 -1 -1 -1
$$ -1 -1 -1 -1 -1 -1 -1 -1 -1 -1 -1 -1 -1 -1 -1 -1 -1 -1 -1 -1 -1 -1 -1 -1
$$ -1 -1 -1 -1 -1 -1 -1 -1 -1 -1 -1 -1 -1 -1 -1 -1 -1 -1 -1 -1 -1 -1 -1 -1
$$ -1 -1 -1 -1 -1 -1 -1 -1 -1 -1 -1 -1 -1 -1 -1 -1 -1 -1 -1 -1 -1 -1 -1 -1
$$ -1 -1 -1 -1 -1 -1 -1 -1 -1 -1 -1 -1 -1 -1 -1 -1 -1 -1 -1 -1 -1 -1 -1 -1
$$ -1 -1 -1 -1 -1 -1 -1 -1 -1 -1 -1 -1 -1 -1 -1 -1 -1 -1 -1 -1 -1 -1 -1 -1
$$ -1 -1 -1 -1 -1 -1 -1 -1 -1 -1 -1 -1 -1 -1 -1 -1 -1 -1 -1 -1 -1 -1 -1 -1
$$ -1 -1 -1 -1 -1 -1 -1 -1 -1 -1 -1 -1 -1 -1 -1 -1
$$ ##$RG_tab5= (0..255)
$$ -1 -1 -1 -1 -1 -1 -1 -1 -1 -1 -1 -1 -1 -1 -1 -1 -1 -1 -1 -1 -1 -1 -1 -1
$$ -1 -1 -1 -1 -1 -1 -1 -1 -1 -1 -1 -1 -1 -1 -1 -1 -1 -1 -1 -1 -1 -1 -1 -1
$$ -1 -1 -1 -1 -1 -1 -1 -1 -1 -1 -1 -1 -1 -1 -1 -1 -1 -1 -1 -1 -1 -1 -1 -1
$$ -1 -1 -1 -1 -1 -1 -1 -1 -1 -1 -1 -1 -1 -1 -1 -1 -1 -1 -1 -1 -1 -1 -1 -1
$$ -1 -1 -1 -1 -1 -1 -1 -1 -1 -1 -1 -1 -1 -1 -1 -1 -1 -1 -1 -1 -1 -1 -1 -1
$$ -1 -1 -1 -1 -1 -1 -1 -1 -1 -1 -1 -1 -1 -1 -1 -1 -1 -1 -1 -1 -1 -1 -1 -1
$$ -1 -1 -1 -1 -1 -1 -1 -1 -1 -1 -1 -1 -1 -1 -1 -1 -1 -1 -1 -1 -1 -1 -1 -1
$$ -1 -1 -1 -1 -1 -1 -1 -1 -1 -1 -1 -1 -1 -1 -1 -1 -1 -1 -1 -1 -1 -1 -1 -1
$$ -1 -1 -1 -1 -1 -1 -1 -1 -1 -1 -1 -1 -1 -1 -1 -1 -1 -1 -1 -1 -1 -1 -1 -1
$$ -1 -1 -1 -1 -1 -1 -1 -1 -1 -1 -1 -1 -1 -1 -1 -1 -1 -1 -1 -1 -1 -1 -1 -1
$$ -1 -1 -1 -1 -1 -1 -1 -1 -1 -1 -1 -1 -1 -1 -1 -1
$$ ##$RG_tab6= (0..255)
$$ -1 -1 -1 -1 -1 -1 -1 -1 -1 -1 -1 -1 -1 -1 -1 -1 -1 -1 -1 -1 -1 -1 -1 -1
$$ -1 -1 -1 -1 -1 -1 -1 -1 -1 -1 -1 -1 -1 -1 -1 -1 -1 -1 -1 -1 -1 -1 -1 -1
$$ -1 -1 -1 -1 -1 -1 -1 -1 -1 -1 -1 -1 -1 -1 -1 -1 -1 -1 -1 -1 -1 -1 -1 -1
$$ -1 -1 -1 -1 -1 -1 -1 -1 -1 -1 -1 -1 -1 -1 -1 -1 -1 -1 -1 -1 -1 -1 -1 -1
$$ -1 -1 -1 -1 -1 -1 -1 -1 -1 -1 -1 -1 -1 -1 -1 -1 -1 -1 -1 -1 -1 -1 -1 -1
$$ -1 -1 -1 -1 -1 -1 -1 -1 -1 -1 -1 -1 -1 -1 -1 -1 -1 -1 -1 -1 -1 -1 -1 -1
$$ -1 -1 -1 -1 -1 -1 -1 -1 -1 -1 -1 -1 -1 -1 -1 -1 -1 -1 -1 -1 -1 -1 -1 -1
$$ -1 -1 -1 -1 -1 -1 -1 -1 -1 -1 -1 -1 -1 -1 -1 -1 -1 -1 -1 -1 -1 -1 -1 -1
$$ -1 -1 -1 -1 -1 -1 -1 -1 -1 -1 -1 -1 -1 -1 -1 -1 -1 -1 -1 -1 -1 -1 -1 -1
$$ -1 -1 -1 -1 -1 -1 -1 -1 -1 -1 -1 -1 -1 -1 -1 -1 -1 -1 -1 -1 -1 -1 -1 -1
$$ -1 -1 -1 -1 -1 -1 -1 -1 -1 -1 -1 -1 -1 -1 -1 -1
$$ ##$RG_tab7= (0..255)
$$ -1 -1 -1 -1 -1 -1 -1 -1 -1 -1 -1 -1 -1 -1 -1 -1 -1 -1 -1 -1 -1 -1 -1 -1
$$ -1 -1 -1 -1 -1 -1 -1 -1 -1 -1 -1 -1 -1 -1 -1 -1 -1 -1 -1 -1 -1 -1 -1 -1
$$ -1 -1 -1 -1 -1 -1 -1 -1 -1 -1 -1 -1 -1 -1 -1 -1 -1 -1 -1 -1 -1 -1 -1 -1
$$ -1 -1 -1 -1 -1 -1 -1 -1 -1 -1 -1 -1 -1 -1 -1 -1 -1 -1 -1 -1 -1 -1 -1 -1
$$ -1 -1 -1 -1 -1 -1 -1 -1 -1 -1 -1 -1 -1 -1 -1 -1 -1 -1 -1 -1 -1 -1 -1 -1
$$ -1 -1 -1 -1 -1 -1 -1 -1 -1 -1 -1 -1 -1 -1 -1 -1 -1 -1 -1 -1 -1 -1 -1 -1
$$ -1 -1 -1 -1 -1 -1 -1 -1 -1 -1 -1 -1 -1 -1 -1 -1 -1 -1 -1 -1 -1 -1 -1 -1
$$ -1 -1 -1 -1 -1 -1 -1 -1 -1 -1 -1 -1 -1 -1 -1 -1 -1 -1 -1 -1 -1 -1 -1 -1
$$ -1 -1 -1 -1 -1 -1 -1 -1 -1 -1 -1 -1 -1 -1 -1 -1 -1 -1 -1 -1 -1 -1 -1 -1
$$ -1 -1 -1 -1 -1 -1 -1 -1 -1 -1 -1 -1 -1 -1 -1 -1 -1 -1 -1 -1 -1 -1 -1 -1
$$ -1 -1 -1 -1 -1 -1 -1 -1 -1 -1 -1 -1 -1 -1 -1 -1
$$ ##$RG_tab8= (0..255)
$$ -1 -1 -1 -1 -1 -1 -1 -1 -1 -1 -1 -1 -1 -1 -1 -1 -1 -1 -1 -1 -1 -1 -1 -1
$$ -1 -1 -1 -1 -1 -1 -1 -1 -1 -1 -1 -1 -1 -1 -1 -1 -1 -1 -1 -1 -1 -1 -1 -1
$$ -1 -1 -1 -1 -1 -1 -1 -1 -1 -1 -1 -1 -1 -1 -1 -1 -1 -1 -1 -1 -1 -1 -1 -1
$$ -1 -1 -1 -1 -1 -1 -1 -1 -1 -1 -1 -1 -1 -1 -1 -1 -1 -1 -1 -1 -1 -1 -1 -1
$$ -1 -1 -1 -1 -1 -1 -1 -1 -1 -1 -1 -1 -1 -1 -1 -1 -1 -1 -1 -1 -1 -1 -1 -1
$$ -1 -1 -1 -1 -1 -1 -1 -1 -1 -1 -1 -1 -1 -1 -1 -1 -1 -1 -1 -1 -1 -1 -1 -1
$$ -1 -1 -1 -1 -1 -1 -1 -1 -1 -1 -1 -1 -1 -1 -1 -1 -1 -1 -1 -1 -1 -1 -1 -1
$$ -1 -1 -1 -1 -1 -1 -1 -1 -1 -1 -1 -1 -1 -1 -1 -1 -1 -1 -1 -1 -1 -1 -1 -1
$$ -1 -1 -1 -1 -1 -1 -1 -1 -1 -1 -1 -1 -1 -1 -1 -1 -1 -1 -1 -1 -1 -1 -1 -1
$$ -1 -1 -1 -1 -1 -1 -1 -1 -1 -1 -1 -1 -1 -1 -1 -1 -1 -1 -1 -1 -1 -1 -1 -1
$$ -1 -1 -1 -1 -1 -1 -1 -1 -1 -1 -1 -1 -1 -1 -1 -1
$$ ##$RG_tabA= (0..255)
$$ 0.25 0.28 0.32 0.35 0.4 0.44 0.5 0.56 0.64 0.7 0.8 0.89 1 1.12 1.28 1.4
$$ 1.6 1.78 2 2.25 2.56 2.8 3.2 3.56 4 4.5 5 5.6 6.35 7.12 8 9 10 11.3 12.7
$$ 14.2 16 18 20.2 22.6 25.4 28.5 32 36 40.3 45.2 50.8 57 64 71.8 80.6 90.5
$$ 101 114 128 144 161 181 203 -1 -1 -1 -1 -1 -1 -1 -1 -1 -1 -1 -1 -1 -1 -1
$$ -1 -1 -1 -1 -1 -1 -1 -1 -1 -1 -1 -1 -1 -1 -1 -1 -1 -1 -1 -1 -1 -1 -1 -1
$$ -1 -1 -1 -1 -1 -1 -1 -1 -1 -1 -1 -1 -1 -1 -1 -1 -1 -1 -1 -1 -1 -1 -1 -1
$$ -1 -1 -1 -1 -1 -1 -1 -1 -1 -1 -1 -1 -1 -1 -1 -1 -1 -1 -1 -1 -1 -1 -1 -1
$$ -1 -1 -1 -1 -1 -1 -1 -1 -1 -1 -1 -1 -1 -1 -1 -1 -1 -1 -1 -1 -1 -1 -1 -1
$$ -1 -1 -1 -1 -1 -1 -1 -1 -1 -1 -1 -1 -1 -1 -1 -1 -1 -1 -1 -1 -1 -1 -1 -1
$$ -1 -1 -1 -1 -1 -1 -1 -1 -1 -1 -1 -1 -1 -1 -1 -1 -1 -1 -1 -1 -1 -1 -1 -1
$$ -1 -1 -1 -1 -1 -1 -1 -1 -1 -1 -1 -1 -1 -1 -1 -1 -1 -1 -1 -1 -1 -1 -1 -1
$$ -1 -1 -1 -1 -1 -1 -1 -1 -1 -1 -1 -1 -1 -1
$$ ##$ROBOTTY= <no>
$$ ##$ROUT14= (0..7)
$$ 0 0 0 0 0 0 0 0
$$ ##$ROUTER= -1
$$ ##$RX22TY= <no>
$$ ##$RXFMAX= (0..7)
$$ 647.5 -1 -1 -1 -1 -1 -1 -1
$$ ##$RXFMIN= (0..7)
$$ 5 -1 -1 -1 -1 -1 -1 -1
$$ ##$RXINTLV= (0..7)
$$ 1 0 0 0 0 0 0 0
$$ ##$RXMSTY= <no>
$$ ##$RockSwitchEth= <no>
$$ ##$SCMTY= <no>
$$ ##$SGUC1= (0..15)
$$ 17 20 19 0 0 0 0 0 0 0 0 0 0 0 0 0
$$ ##$SGUC2= (0..15)
$$ 0 256 18 0 0 0 0 0 0 0 0 0 0 0 0 0
$$ ##$SLCBCONF= <SHNV>
$$ ##$SPECTR= 10
$$ ##$SY2FLAG= 0
$$ ##$SYNCTRIG= 11
$$ ##$SamChgEth= (0..3)
$$ <no> <no> <no> <no>
$$ ##$ServiceNo= <>
$$ ##$Sgu1PowerLevels= (0..7)
$$ 90 74 58 42 26 10 0 0
$$ ##$Sgu2PowerLevels= (0..7)
$$ 90 74 58 42 26 10 0 0
$$ ##$Sgu3PowerLevels= (0..7)
$$ 90 74 58 42 26 10 0 0
$$ ##$Sgu4PowerLevels= (0..7)
$$ 90 74 58 42 26 10 0 0
$$ ##$Sgu5PowerLevels= (0..7)
$$ 0 0 0 0 0 0 0 0
$$ ##$Sgu6PowerLevels= (0..7)
$$ 0 0 0 0 0 0 0 0
$$ ##$Sgu7PowerLevels= (0..7)
$$ 0 0 0 0 0 0 0 0
$$ ##$Sgu8PowerLevels= (0..7)
$$ 0 0 0 0 0 0 0 0
$$ ##$SguType= 3
$$ ##$ShimMaxVal= 32760
$$ ##$ShimPow1Ch2Sh= (0..38)
$$ 0 0 0 0 0 0 0 0 0 0 0 0 0 0 0 0 0 0 0 0 0 0 0 0 0 0 0 0 0 0 0 0 0 0 0 0
$$ 0 0 0
$$ ##$ShimPow1Imax= (0..38)
$$ 0 0 0 0 0 0 0 0 0 0 0 0 0 0 0 0 0 0 0 0 0 0 0 0 0 0 0 0 0 0 0 0 0 0 0 0
$$ 0 0 0
$$ ##$ShimPow1NChan= 0
$$ ##$ShimPow1TotIMax= 0
$$ ##$ShimPow1Vmax= (0..38)
$$ 0 0 0 0 0 0 0 0 0 0 0 0 0 0 0 0 0 0 0 0 0 0 0 0 0 0 0 0 0 0 0 0 0 0 0 0
$$ 0 0 0
$$ ##$ShimPow2Ch2Sh= (0..38)
$$ 0 0 0 0 0 0 0 0 0 0 0 0 0 0 0 0 0 0 0 0 0 0 0 0 0 0 0 0 0 0 0 0 0 0 0 0
$$ 0 0 0
$$ ##$ShimPow2Imax= (0..38)
$$ 0 0 0 0 0 0 0 0 0 0 0 0 0 0 0 0 0 0 0 0 0 0 0 0 0 0 0 0 0 0 0 0 0 0 0 0
$$ 0 0 0
$$ ##$ShimPow2NChan= 0
$$ ##$ShimPow2TotIMax= 0
$$ ##$ShimPow2Vmax= (0..38)
$$ 0 0 0 0 0 0 0 0 0 0 0 0 0 0 0 0 0 0 0 0 0 0 0 0 0 0 0 0 0 0 0 0 0 0 0 0
$$ 0 0 0
$$ ##$ShimPow3Ch2Sh= (0..38)
$$ 0 0 0 0 0 0 0 0 0 0 0 0 0 0 0 0 0 0 0 0 0 0 0 0 0 0 0 0 0 0 0 0 0 0 0 0
$$ 0 0 0
$$ ##$ShimPow3Imax= (0..38)
$$ 0 0 0 0 0 0 0 0 0 0 0 0 0 0 0 0 0 0 0 0 0 0 0 0 0 0 0 0 0 0 0 0 0 0 0 0
$$ 0 0 0
$$ ##$ShimPow3NChan= 0
$$ ##$ShimPow3TotIMax= 0
$$ ##$ShimPow3Vmax= (0..38)
$$ 0 0 0 0 0 0 0 0 0 0 0 0 0 0 0 0 0 0 0 0 0 0 0 0 0 0 0 0 0 0 0 0 0 0 0 0
$$ 0 0 0
$$ ##$ShimPow4Ch2Sh= (0..38)
$$ 0 0 0 0 0 0 0 0 0 0 0 0 0 0 0 0 0 0 0 0 0 0 0 0 0 0 0 0 0 0 0 0 0 0 0 0
$$ 0 0 0
$$ ##$ShimPow4Imax= (0..38)
$$ 0 0 0 0 0 0 0 0 0 0 0 0 0 0 0 0 0 0 0 0 0 0 0 0 0 0 0 0 0 0 0 0 0 0 0 0
$$ 0 0 0
$$ ##$ShimPow4NChan= 0
$$ ##$ShimPow4TotIMax= 0
$$ ##$ShimPow4Vmax= (0..38)
$$ 0 0 0 0 0 0 0 0 0 0 0 0 0 0 0 0 0 0 0 0 0 0 0 0 0 0 0 0 0 0 0 0 0 0 0 0
$$ 0 0 0
$$ ##$ShimPowMaxUA= (0..63)
$$ 130000 130000 130000 130000 130000 130000 130000 130000 130000 130000 130000
$$ 130000 130000 130000 130000 130000 130000 130000 130000 130000 130000 130000
$$ 130000 130000 130000 130000 130000 130000 130000 130000 130000 130000 130000
$$ 130000 130000 130000 130000 130000 130000 130000 0 0 0 0 0 0 0 0 0 0 0
$$ 0 0 0 0 0 0 0 0 0 0 0 0 0
$$ ##$ShimPowMaxUC= (0..63)
$$ 130000 130000 130000 130000 130000 130000 130000 130000 130000 130000 130000
$$ 130000 130000 130000 130000 130000 130000 130000 130000 130000 130000 130000
$$ 130000 130000 130000 130000 130000 130000 130000 130000 130000 130000 130000
$$ 130000 130000 130000 130000 130000 130000 130000 0 0 0 0 0 0 0 0 0 0 0
$$ 0 0 0 0 0 0 0 0 0 0 0 0 0
$$ ##$ShimPowMaxUG= (0..63)
$$ 1000000 1000000 1000000 1000000 1000000 1000000 1000000 1000000 1000000
$$ 1000000 1000000 1000000 1000000 1000000 1000000 1000000 1000000 1000000
$$ 1000000 1000000 1000000 1000000 1000000 1000000 1000000 1000000 1000000
$$ 1000000 1000000 1000000 1000000 1000000 1000000 1000000 1000000 1000000
$$ 1000000 1000000 1000000 0 0 0 0 0 0 0 0 0 0 0 0 0 0 0 0 0 0 0 0 0 0 0 0
$$ 0
$$ ##$ShimPowNum= 0
$$ ##$ShimPowRcbType= 3
$$ ##$ShimPowRes= (0..63)
$$ 1e-20 1e-20 1e-20 1e-20 1e-20 1e-20 1e-20 1e-20 1e-20 1e-20 1e-20 1e-20
$$ 1e-20 1e-20 1e-20 1e-20 1e-20 1e-20 1e-20 1e-20 1e-20 1e-20 1e-20 1e-20
$$ 1e-20 1e-20 1e-20 1e-20 1e-20 1e-20 1e-20 1e-20 1e-20 1e-20 1e-20 1e-20
$$ 1e-20 1e-20 1e-20 1e-20 0 0 0 0 0 0 0 0 0 0 0 0 0 0 0 0 0 0 0 0 0 0 0 0
$$ ##$ShimPowRng0= (0..63)
$$ 1 1 1 1 1 1 1 1 1 1 1 1 1 1 1 1 1 1 1 1 1 1 1 1 1 1 1 1 1 1 1 1 1 1 1 1
$$ 1 1 1 1 0 0 0 0 0 0 0 0 0 0 0 0 0 0 0 0 0 0 0 0 0 0 0 0
$$ ##$ShimPowRng1= (0..63)
$$ 1 1 1 1 1 1 1 1 1 1 1 1 1 1 1 1 1 1 1 1 1 1 1 1 1 1 1 1 1 1 1 1 1 1 1 1
$$ 1 1 1 1 0 0 0 0 0 0 0 0 0 0 0 0 0 0 0 0 0 0 0 0 0 0 0 0
$$ ##$ShimPowRng2= (0..63)
$$ 1 1 1 1 1 1 1 1 1 1 1 1 1 1 1 1 1 1 1 1 1 1 1 1 1 1 1 1 1 1 1 1 1 1 1 1
$$ 1 1 1 1 0 0 0 0 0 0 0 0 0 0 0 0 0 0 0 0 0 0 0 0 0 0 0 0
$$ ##$ShimPowRng3= (0..63)
$$ 1 1 1 1 1 1 1 1 1 1 1 1 1 1 1 1 1 1 1 1 1 1 1 1 1 1 1 1 1 1 1 1 1 1 1 1
$$ 1 1 1 1 0 0 0 0 0 0 0 0 0 0 0 0 0 0 0 0 0 0 0 0 0 0 0 0
$$ ##$ShimPowType1= 0
$$ ##$ShimPowType2= 0
$$ ##$ShimPowType3= 0
$$ ##$ShimPowType4= 0
$$ ##$ShimSysAngle= <>
$$ ##$ShimSysFunc= (0..63)
$$ 1 2 3 4 5 6 7 8 9 10 0 37 38 35 16 15 14 13 12 11 28 27 26 25 24 23 36
$$ 22 30 29 20 21 34 33 32 31 17 18 19 0 0 0 0 0 0 0 0 0 0 0 0 0 0 0 0 0 0
$$ 0 0 0 0 0 0 0
$$ ##$ShimSysMatId= <no>
$$ ##$ShimSysMatrix= 1
$$ ##$ShimSysOffset= <56mm>
$$ ##$ShimSysType= 4
$$ ##$ShimUnit= 0
$$ ##$TFXNUM= 0
$$ ##$TOSITY= <no>
$$ ##$TRIPLO2= 0
$$ ##$VTU= 2
$$ ##$VTUETH= <149.236.99.20>
$$ ##$VTUTY= <no>
$$ ##$WBREFAM= (0..15)
$$ 100 100 100 100 100 100 100 100 100 100 100 100 100 100 100 100
$$ ##$WBREFLM= (0..15)
$$ 1 0 0 0 0 0 0 0 0 0 0 0 0 0 0 0
$$ ##$WBREFPH= (0..15)
$$ 0.07 0 0 0 0 0 0 0 0 0 0 0 0 0 0 0
$$ ##$WBSGU= (0..15)
$$ 0 0 0 0 0 0 0 0 0 0 0 0 0 0 0 0
$$ ##$XFAC= 2
$$ ##END=
##$RELAX= 
$$ Bruker specific parameters
$$ --------------------------
##$DATPATH= </Users/matthias/Documents/NMR/NMR Spectra/Data Stuff>
##$EXPNO= 2
##$NAME= <Guvacine>
##$PROCNO= 1
##$ACQT0= -2.10084033613445
##$AMP= (0..31)
100 100 100 100 100 100 100 100 100 100 100 100 100 100 100 100 100 100
100 100 100 100 100 100 100 100 100 100 100 100 100 100
##$AMPCOIL= (0..32)
0 0 0 0 0 0 0 0 0 0 0 0 0 0 0 0 0 0 0 0 0 0 0 0 0 0 0 0 0 0 0 0 0
##$AQSEQ= 0
##$AQ_mod= 3
##$AUNM= <au_zg>
##$AUTOPOS= <>
##$BF1= 125.787963
##$BF2= 500.25
##$BF3= 500.25
##$BF4= 500.25
##$BF5= 500.25
##$BF6= 500.25
##$BF7= 500.25
##$BF8= 500.25
##$BWFAC= (0..63)
0 0 0 0 0 0 0 0 0 0 0 0 0 0 0 0 0 0 0 0 0 0 0 0 0 0 0 0 0 0 0 0 0 0 0 0
0 0 0 0 0 0 0 0 0 0 0 0 0 0 0 0 0 0 0 0 0 0 0 0 0 0 0 0
##$BYTORDA= 0
##$CHANFCU= (0..24)
0 0 0 0 0 0 0 0 0 0 0 0 0 0 0 0 0 0 0 0 0 0 0 0 0
##$CHANREC= (0..24)
0 0 0 0 0 0 0 0 0 0 0 0 0 0 0 0 0 0 0 0 0 0 0 0 0
##$CHEMSTR= <none>
##$CNST= (0..63)
1 1 1 1 1 1 1 1 1 1 1 1 1 1 1 1 1 1 1 1 1 1 1 1 1 1 1 1 1 1 1 1 1 1 1 1
1 1 1 1 1 1 1 1 1 1 1 1 1 1 1 1 1 1 1 1 1 1 1 1 1 1 1 1
##$CPDPRG= (0..8)
<> <> <waltz16> <> <> <> <> <> <>
##$D= (0..63)
0 4 0 0 0 0 0 0 0 0 0 0.03 0 0 0 0 0.0002 0 0 0 0 0 0 0 0 0 0 0 0 0 0 0
0 0 0 0 0 0 0 0 0 0 0 0 0 0 0 0 0 0 0 0 0 0 0 0 0 0 0 0 0 0 0 0
##$DATE= 1747651934
##$DATE_START= 0
##$DE= 10
##$DECIM= 608
##$DIGMOD= 1
##$DIGTYP= 12
##$DR= 21
##$DS= 4
##$DSPFIRM= 0
##$DSPFVS= 20
##$DTYPA= 0
##$EXP= <1_IfC_13C.1H>
##$ExpStatus= 0
##$FCUCHAN= (0..9)
0 1 3 0 0 0 0 0 0 0
##$FILCOR= 0
##$FL1= 0
##$FL2= 0
##$FL3= 0
##$FL4= 0
##$FN_INDIRECT= (0..7)
0 0 0 0 0 0 0 0
##$FOV= 0
##$FQ1LIST= <>
##$FQ2LIST= <>
##$FQ3LIST= <>
##$FQ4LIST= <>
##$FQ5LIST= <>
##$FQ6LIST= <>
##$FQ7LIST= <>
##$FQ8LIST= <>
##$FS= (0..7)
83 83 83 83 83 83 83 83
##$FW= 4032000
##$FnILOOP= 0
##$FnMODE= 0
##$FnTYPE= 0
##$GPNAM= (0..31)
<> <> <> <> <> <> <> <> <> <> <> <> <> <> <> <> <> <> <> <> <> <> <> <>
<> <> <> <> <> <> <> <>
##$GPX= (0..31)
0 0 0 0 0 0 0 0 0 0 0 0 0 0 0 0 0 0 0 0 0 0 0 0 0 0 0 0 0 0 0 0
##$GPY= (0..31)
0 0 0 0 0 0 0 0 0 0 0 0 0 0 0 0 0 0 0 0 0 0 0 0 0 0 0 0 0 0 0 0
##$GPZ= (0..31)
0 0 0 0 0 0 0 0 0 0 0 0 0 0 0 0 0 0 0 0 0 0 0 0 0 0 0 0 0 0 0 0
##$GRPDLY= 67.9837646484375
##$GrpdlyHandling= 0
##$HDDUTY= 20
##$HDRATE= 1
##$HOLDER= 0
##$HPMOD= (0..32)
0 0 0 0 0 0 0 0 0 0 0 0 0 0 0 0 0 0 0 0 0 0 0 0 0 0 0 0 0 0 0 0 0
##$IN= (0..63)
0 0 0 0 0 0 0 0 0 0 0 0 0 0 0 0 0 0 0 0 0 0 0 0 0 0 0 0 0 0 0 0 0 0 0 0
0 0 0 0 0 0 0 0 0 0 0 0 0 0 0 0 0 0 0 0 0 0 0 0 0 0 0 0
##$INF= (0..7)
0 0 0 0 0 0 0 0
##$INP= (0..63)
0 0 0 0 0 0 0 0 0 0 0 0 0 0 0 0 0 0 0 0 0 0 0 0 0 0 0 0 0 0 0 0 0 0 0 0
0 0 0 0 0 0 0 0 0 0 0 0 0 0 0 0 0 0 0 0 0 0 0 0 0 0 0 0
##$INSTRUM= <spect>
##$INTEGFAC= (0..63)
0 0 0 0 0 0 0 0 0 0 0 0 0 0 0 0 0 0 0 0 0 0 0 0 0 0 0 0 0 0 0 0 0 0 0 0
0 0 0 0 0 0 0 0 0 0 0 0 0 0 0 0 0 0 0 0 0 0 0 0 0 0 0 0
##$L= (0..31)
1 1 1 1 1 1 1 1 1 1 1 1 1 1 1 1 1 1 1 1 1 1 1 1 1 1 1 1 1 1 1 1
##$LFILTER= 500
##$LGAIN= 5
##$LINPSTP= 0
##$LOCKED= yes
##$LOCKFLD= 5539
##$LOCKGN= 118.199996948242
##$LOCKPOW= -39
##$LOCKPPM= 4.69999980926514
##$LOCNUC= <2H>
##$LOCPHAS= 8.269753
##$LOCSHFT= yes
##$LOCSW= 0
##$LTIME= 0.25
##$MASR= 4200
##$MULEXPNO= (0..15)
0 0 0 0 0 0 0 0 0 0 0 0 0 0 0 0
##$NBL= 1
##$NC= -5
##$NLOGCH= 3
##$NOVFLW= 0
##$NS= 50
##$NUC1= <13C>
##$NUC2= <1H>
##$NUC3= <off>
##$NUC4= <off>
##$NUC5= <off>
##$NUC6= <off>
##$NUC7= <off>
##$NUC8= <off>
##$NUCLEUS= <off>
##$NUSLIST= <automatic>
##$NusAMOUNT= 25
##$NusFPNZ= no
##$NusJSP= 0
##$NusSEED= 54321
##$NusSPTYPE= 0
##$NusT2= 1
##$NusTD= 0
##$O1= 15094.56
##$O2= 2001
##$O3= 12577.75
##$O4= 12577.75
##$O5= 12577.75
##$O6= 12577.75
##$O7= 12577.75
##$O8= 12577.75
##$OVERFLW= 0
##$P= (0..63)
10 10 20 15 30 16.5 25 50 420 30 60 40000 40000 2000 0 0 1000 2000 500
600 2500 0 0 0 1000 0 500 10 0.1 2000 0 0 4440 0 0 0 80000 0 0 2040 4000
0 0 10000 888 0 40000 1260 2400 0 40000 0 0 0 0 0 0 0 0 0 0 0 0 1680
##$PACOIL= (0..32)
0 0 0 0 0 0 0 0 0 0 0 0 0 0 0 0 0 0 0 0 0 0 0 0 0 0 0 0 0 0 0 0 0
##$PARMODE= 0
##$PCPD= (0..9)
0 70 80 0 0 0 0 0 0 0
##$PEXSEL= (0..9)
1 1 1 1 1 1 1 1 1 1
##$PHCOR= (0..31)
0 0 0 0 0 0 0 0 0 0 0 0 0 0 0 0 0 0 0 0 0 0 0 0 0 0 0 0 0 0 0 0
##$PHLIST= <>
##$PH_ref= 0
##$PL= (0..63)
120 120 120 120 120 120 120 120 120 120 120 120 120 120 120 120 120 120
120 120 120 120 120 120 120 120 120 120 120 120 120 120 120 120 120 120
120 120 120 120 120 120 120 120 120 120 120 120 120 120 120 120 120 120
120 120 120 120 120 120 120 120 120 120
##$PLSTEP= 0.1
##$PLSTRT= -6
##$PLW= (0..63)
0 50.927 13.91 0 0 0 0 0 0 0 8.1483 0.32593 0.48904 0.24559 0 3.4776 0
0 50.927 1.0393 0 0.00012519 0 0 0.0020031 0 0.12226 0 0 8.1483 0.48904
1.9562 0 0 0 0 0 0 0 0 0 0 0 0 0 0 0 0 0 0 0 0 0 0 0 0 0 0 0 0 0 0 0 0
##$PLWMAX= (0..7)
452.7 102.8 0 0 0 0 0 0
##$PR= 1
##$PRECHAN= (0..32)
-1 2 -1 0 -1 1 -1 -1 -1 -1 -1 -1 -1 -1 -1 -1 -1 -1 -1 -1 -1 -1 -1 -1 -1
-1 -1 -1 -1 -1 -1 -1 -1
##$PROBHD= <Z800701_0081 (PA BBO 500S2 BB-H-D-05 Z)>
##$PROBINPUTS= (0..15)
<> <> <> <> <> <> <> <> <> <> <> <> <> <> <> <>
##$PULPROG= <zgpg30>
##$PW= 0
##$PYNM= <>
##$ProbeDescription= <>
##$ProjAngle= 0
##$RECCHAN= (0..9)
0 1 0 0 0 0 0 0 0 0
##$RECPH= 0
##$RECPRE= (0..24)
-1 2 -1 -1 -1 -1 -1 -1 -1 -1 -1 -1 -1 -1 -1 -1 -1 -1 -1 -1 -1 -1 -1 -1
-1
##$RECPRFX= (0..32)
1 0 0 0 0 0 0 0 0 0 0 0 0 0 0 0 -1 -1 -1 -1 -1 -1 -1 -1 -1 -1 -1 -1 -1
-1 -1 -1 -1
##$RG= 203
##$RO= 0
##$RSEL= (0..24)
0 1 0 2 0 0 0 0 0 0 0 0 0 0 0 0 0 0 0 0 0 0 0 0 0
##$SAMPLEID= <>
##$SFO1= 125.80305756
##$SFO2= 500.252001
##$SFO3= 500.26257775
##$SFO4= 500.26257775
##$SFO5= 500.26257775
##$SFO6= 500.26257775
##$SFO7= 500.26257775
##$SFO8= 500.26257775
##$SOLVENT= <D2O>
##$SOLVOLD= <off>
##$SP= (0..63)
120 120 120 120 120 120 120 120 120 120 120 120 120 120 120 120 120 120
120 120 120 120 120 120 120 120 120 120 120 120 120 120 120 120 120 120
120 120 120 120 120 120 120 120 120 120 120 120 120 120 120 120 120 120
120 120 120 120 120 120 120 120 120 120
##$SPECTR= 0
##$SPINCNT= 0
##$SPNAM= (0..63)
<> <Q5.1000> <Q3_surbop.1> <0.0> <Eburp2tr.1000> <Crp60comp.4> <Crp60,0.5,20.1>
<Sinc1.1000> <Crp60,0.5,20.1> <> <Crp60comp.4> <Crp60comp.4> <> <> <Eburp2.1000>
<> <> <> <0.0> <Q5tr_sebop.1> <Q5tr_sebop.1> <Q5tr_sebop.1> <Q5tr_sebop.1>
<> <> <> <Gaus1_180r.1000> <> <> <Q5tr.1000> <Q3_surbop.1> <Reburp.1000>
<Q3.1000> <> <Q3_surbop.1> <Q3_surbop.1> <Q5.1000> <> <> <> <Q3_surbop.1>
<Crp60,0.5,20.1> <> <> <> <> <> <> <> <> <> <> <> <> <> <> <> <> <> <>
<> <> <> <>
##$SPOAL= (0..63)
0.5 1 0.5 0.5 0 0.5 0.5 0.5 0.5 0.5 0.5 0.5 0.5 0.5 1 0.5 0.5 0.5 0.5 0
0 0 0 0.5 0.5 0.5 0.5 0.5 0.5 0 0.5 0.5 0.5 0.5 0.5 0.5 1 0.5 0.5 0.5 0.5
0.5 0.5 0.5 0.5 0.5 0.5 0.5 0.5 0.5 0.5 0.5 0.5 0.5 0.5 0.5 0.5 0.5 0.5
0.5 0.5 0.5 0.5 0.5
##$SPOFFS= (0..63)
0 0 0 0 0 0 0 0 0 0 0 0 0 0 0 0 0 0 0 0 0 0 0 0 0 0 0 0 0 0 0 0 0 0 0 0
0 0 0 0 0 0 0 0 0 0 0 0 0 0 0 0 0 0 0 0 0 0 0 0 0 0 0 0
##$SPPEX= (0..63)
0 0 0 0 0 0 0 0 0 0 0 0 0 0 0 0 0 0 0 0 0 0 0 0 0 0 0 0 0 0 0 0 0 0 0 0
0 0 0 0 0 0 0 0 0 0 0 0 0 0 0 0 0 0 0 0 0 0 0 0 0 0 0 0
##$SPW= (0..63)
0 0.0010712 0.00087704 0 0.20192 7.781 0 0.0090249 7.781 0 7.781 7.781
0 0 0.20192 0 0 0 0 10.5295 16.36776 7.642584 41.21582 0 0 0 1.1548e-05
0 0 0.086942 1.7796 0.69638 0.005456 0 0.88389 0.00087704 0.29756 0 0 0
0.00087704 7.781 0 0 0 0 0 0 0 0 0 0 0 0 0 0 0 0 0 0 0 0 0 0
##$SUBNAM= (0..9)
<> <> <> <> <> <> <> <> <> <>
##$SW= 261.478039406289
##$SWIBOX= (0..32)
0 1 3 0 0 0 0 0 0 0 0 0 0 0 0 0 0 0 0 0 0 0 0 0 0 0 0 0 0 0 0 0 0
##$SW_h= 32894.7368421053
##$SWfinal= 0
##$SigLockShift= 0
##$TD= 65786
##$TD0= 1
##$TD_INDIRECT= (0..7)
0 0 0 0 0 0 0 0
##$TDav= 1
##$TE= 298.0233
##$TE1= 298.0233
##$TE2= 0
##$TE3= 0
##$TE4= 0
##$TEG= 300
##$TE_MAGNET= 0
##$TE_PIDX= 1
##$TE_RAW= 300
##$TE_STAB= (0..9)
2 2 0 0 0 0 0 0 0 0
##$TOTROT= (0..63)
0 0 0 0 0 0 0 0 0 0 0 0 0 0 0 0 0 0 0 0 0 0 0 0 0 0 0 0 0 0 0 0 0 0 0 0
0 0 0 0 0 0 0 0 0 0 0 0 0 0 0 0 0 0 0 0 0 0 0 0 0 0 0 0
##$TUBE_TYPE= <>
##$USERA1= <>
##$USERA10= <>
##$USERA2= <>
##$USERA3= <>
##$USERA4= <>
##$USERA5= <>
##$USERA6= <>
##$USERA7= <>
##$USERA8= <>
##$USERA9= <>
##$UUID= <>
##$VALIDCODE= -1
##$VALIST= <>
##$VCLIST= <>
##$VDLIST= <>
##$VPLIST= <>
##$VTLIST= <>
##$VtChillPowType= 0
##$VtChillPowVal= 0
##$VtChillType= 0
##$VtGasFlow= 0
##$WAVEMAKER= (0..7)
<> <> <> <> <> <> <> <>
##$WBST= 1024
##$WBSW= (0..7)
4 10 10 10 10 10 10 10
##$XL= 0
##$YL= 0
##$YMAX_a= 13746
##$YMIN_a= -11082
##$ZGOPTNS= <>
##$scaledByNS= no
##$scaledByRG= no
##$shimCoilTempK= 300
##$ABSF1= 250.754743687573
##$ABSF2= -10.7546730926741
##$ABSG= 5
##$ABSL= 3
##$ALPHA= 0
##$AQORDER= 0
##$ASSFAC= 0
##$ASSFACI= 0
##$ASSFACX= 0
##$ASSWID= 0
##$AUNMP= <proc_1d>
##$AXLEFT= 0
##$AXNAME= <>
##$AXNUC= <13C>
##$AXRIGHT= 0
##$AXTYPE= 0
##$AXUNIT= <>
##$AZFE= 0.1
##$AZFW= 0.5
##$BCFW= 0
##$BC_mod= 0
##$BYTORDP= 0
##$COROFFS= 0
##$CY= 15
##$DATMOD= 1
##$DC= 0
##$DFILT= <>
##$DTYPP= 0
##$ERETIC= no
##$F1P= 240
##$F2P= -10
##$FCOR= 1
##$FTSIZE= 65536
##$FT_mod= 6
##$GAMMA= 0
##$GB= 0
##$INTBC= 1
##$INTSCL= 1
##$ISEN= 30
##$LB= 1
##$LEV0= 0
##$LPBIN= 0
##$MAXI= 10000
##$MC2= 0
##$MEAN= 0
##$ME_mod= 0
##$MI= 0
##$MddCEXP= no
##$MddCT_SP= no
##$MddF180= no
##$MddLAMBDA= 0
##$MddMEMORY= 0
##$MddMERGE= 0
##$MddNCOMP= 0
##$MddNITER= 0
##$MddNOISE= 0
##$MddPHASE= 0
##$MddSEED= 0
##$MddSRSIZE= 0
##$Mdd_CsALG= 0
##$Mdd_CsLAMBDA= 0
##$Mdd_CsNITER= 0
##$Mdd_CsNORM= 0
##$Mdd_CsVE= no
##$Mdd_CsZF= 0
##$Mdd_LrLAMBDA= 0
##$Mdd_LrNITER= 0
##$Mdd_LrRANK= 0
##$Mdd_LrZF= 0
##$Mdd_mod= 0
##$NCOEF= 0
##$NC_proc= -10
##$NLEV= 6
##$NOISF1= 0
##$NOISF2= 0
##$NSP= 0
##$NTH_PI= 0
##$NZP= 0
##$OFFSET= 250.754743687573
##$PC= 1.4
##$PHC0= 85.0840387358616
##$PHC1= -124.653919796951
##$PH_mod= 1
##$PKNL= yes
##$PPARMOD= 0
##$PPDIAG= 0
##$PPIPTYP= 0
##$PPMPNUM= 2147483647
##$PPRESOL= 1
##$PSCAL= 4
##$PSIGN= 0
##$PYNMP= <proc.py>
##$RDF1= 0
##$RDF2= 0
##$RDFWHM= 0
##$RDINT= 0
##$RDPOS= 0
##$REVERSE= no
##$SF= 125.787963
##$SI= 65536
##$SIGF1= 0
##$SIGF2= 0
##$SINO= 0
##$SIOLD= 65536
##$SPECTYP= <>
##$SREF_mod= 1
##$SREGLST= <13C.CDCl3>
##$SSB= 0
##$STSI= 65536
##$STSR= 0
##$SW_p= 32894.7368421053
##$SYMM= 0
##$S_DEV= 0
##$TDeff= 65786
##$TDoff= 0
##$TI= <>
##$TILT= no
##$TM1= 0
##$TM2= 0
##$TOPLEV= 0
##$USERP1= <>
##$USERP10= <>
##$USERP2= <>
##$USERP3= <>
##$USERP4= <>
##$USERP5= <>
##$USERP6= <>
##$USERP7= <>
##$USERP8= <>
##$USERP9= <>
##$WDW= 1
##$XDIM= 65536
##$YMAX_p= 393585480
##$YMIN_p= -16831212
##$CURPLOT= <C280>
##$CURPRIN= <$C280>
##$DFORMAT= <normdp>
##$LAYOUT= <+/1D_X.xwp>
##$LFORMAT= <normlp>
##$PFORMAT= <normpl>
$$ End of Bruker specific parameters
$$ ---------------------------------
##XUNITS= HZ
##YUNITS= ARBITRARY UNITS
##XFACTOR= 0.501933850740132
##YFACTOR= 1
##DELTAX= -0.501933850740132
##NPOINTS= 65536
##FIRSTX= 32894.2349082546
##FIRSTY= 524415
##LASTX= 0
##MAXY= 393585480
##MINY= -16831212
##XYDATA= (X++(Y..Y))
65535E24415g97022o49326j777384k36309j09723j352046k473164J027608K433782
65526c933584Q58935P27266p3170h57060q80301n09556J045811i0733G66382B60327
65515b00551A83997b575257n401474R60523J586345R31221l6682R04756P25541
65506b905027k43625M28265a178607l359851l049054K029258K619619O93968N56295
65497a688372d4512B082703O67207r13634J630839k2743J108289j97392o38790
65488C716479p31141l76375p75732h11282c54359j129653L67992M91307M5541
65479e79172G60787a088909j892427j083890Q12880J436180A907420n3385a092142
65469b502561k73686J290843c0115n31724q39129j625731g77888B340533C10027
65459a008061k337696o99292J378954n95398j98080Q52588J196651C06861e73603
65449a922959M70151o61217j397068h97374R7857k3395n28699o34624r7403j188783
65439c272421J006816f60916A353422R69159a668375j014653j80685j24309p66081
65430c754103k155939m36482Q4538K417854J291662k24620R669R30334l84845
65421b221932k392322p01970J093652L54949J023634C26396J595700e39298j863010
65412b402308k0238j735647N02652a184345E68423a422403l165902q7612M1896
65403d634021P39384M76398r33976J340355j28716k239340o17222K274860c71030
65393C46365q0763a56460A51114M51122i80439L86484j39916k952544r94557Q41094
65383c839878M94990k145556p09933J497975J644687N58292o76278g89335n54602
65374a343937a74201j324619k195619J780888q54585O2443m52688O21713l68583
65365b905251a328265C82292b456378j367960O52319K77888J44706j47652M15736
65356b481341N17377N83039F00311J684386c47120l012778M56803j879493p5156
65347d857744j71177K300430F16723j69210b169970p39315a33218G76780K11215
65338I87995R4264j83456b28969g9693p50581B12832a356642k602784L47552p41416
65328d353290K82610a333331k89371g4132m0160o4849F64414N30672B47535L76598
65318F24133l00091M44998K342635O51095Q9082A476121a248736j151299N22471
65309a877564K82175j398808c04233E42329f71296k993A179809b0618l253278
65300c273896J14960A414414J091874a362107l97904e957F74577n3153B03208
65290b132949p70148R84290j191285k993305r45815L80518J457502J837509o02888
65281c976571n14475k38474j326132K030770Q46750a218263F43980N56230a856936
65271f27524I62433a97221k644886m75315J415517I48202b75526j431038L06235
65262a400329p58178p42832a231260k70520r05935K07651N79399N68599O841k566589
65252c611814L77411J530612B43674K533593J184636A282638e00680A538483c89994
65242B23824j06235c06398k531985J170859H72457d37385j677309Q5596O03111
65233a425987m58357r30070j7989f12922A051472J167107a129689j020127j047084
65224c196900k59718Q20460A857840a105139k572055a525693q62232K96037f83171
65214g17995J84143m88927F92874O47861n27582i04210i0517B412183J432452
65205C844635A148781b073024k699276k132109k610018o93718n03686J701728
65197i010103K227192j18738b695007B107704B97008f34588k66653A46521b749049
65187c443237J632656j92723l515688j457889L365737r8811O8711J798268o99128
65178b542104j072721L94234J03264k497743Q48276Q77457o09437J073055N18853
65169b906866h71262l478899j423450J898694a922969I22828J92922R747a625599
65159h99738A022563A48871b203441k989009l27432J279891J578562c3977j187216
65150a221193l115895k036472j901955J135420K966524K66454r35712N48798K054342
65141b239689A814813J153297A380830b163913l243818q24687K770550A654798
65132D038827q58756A276126f19826K74957A798299o61336a22231A083765L592590
65123D676355j800649b23027k532116k970I40176J719741o3924K09154l61250
65114B443897q0365j076475a385362k500463a471794j965411j1339J268335a08105
65104C673206J222339k043480f83161k004592k797033q04558J481801J559115
65096c248428k266295l521779L903144K084627P18710L55135a88634A645050k62185
65087A382865b008984l79280A362257J223974M73291j081585a671351J60310H51936
65077B728844K419329k001634H20895L60439O65664g38031j322171r71875p961
65068c040038r05785M84425K69921r25470N2229M11574B322023J143376D35333
65058a931978R26013B200079k84057E5368i4800A765093J564543n12296d4055
65048c120569n02169a13170I77904c432556j603323J40965m71718l17748J071052
65039d613328J222593J146421A536562b593117k26272d52770j303734j274690
65031c031194k690352J616526J203635J434378C74072L755172J352241A764673
65022a234367F01080N2225a805905k774039K82416o04138N04334Q90933Q40061
65013b666338J067903k19668L13042e53077G23900J806811a978744l407842j567341
65004f953927j968430L245298a095097G25339j20825N26708J664261j59339D02070
64994C0623K62330a318412m70292d88335l79505k372998J330248N80806k997331
64985d327115k721322L85879c256334a264657j332220j022754J293002j612431
64977c939060l79125j677232r8512b811115J113752k67083K95095k680193J45356
64968d204188b004404b46052r09882A005536b41365r19934p68716n73027i75714
64958A202990h96373f4907D762769k136898a824498d27845r51641k523796j910158
64949e813440l126384J900782c466940j159335j819478l08112R35111r2518k93726
64940f204998c000030m70624k333350R4615J344647J462569j02108J072251C20381
64930C903651F73166d247818k096459l19491K797963J580154r4028k224060k197128
64921f800867J065733K251508O59958J362897j662701l009005P91590N9559J623778
64912c657550C22680b385757k807015K583152c08708C681552J297217r12444J784
64903D068109h28787n84096A989803L05971L96293K910529J18206n95066r79494
64894D146242Q27704M03143j762459O29519J233054J920931J515544j954033C398144
64884a772449j366639N08774j10603J68387p56331a138019N59958A579717n5298
64875A524419i92201n18373j746853n27016a810005P85918E31115J272337o32343
64866A171109a177568a65223G05476K904038J437685A888789a548186k012145
64858c560331J714633p31049m77772i16122A632434G19560f01388k650938j752045
64849e004371r54525J19821b203674B05864b768431j863808l171640N95060b988084
64839b9202k336353k249394O60778k135398j813733J491281b057021B852307O354
64830B858661A298777b136902k022226Q13685l989815k047617J357625R03064
64822g122186J502151j000120K181849a717386G17564N32114j44764C54774c134883
64812b942559j406784j655059a836736A47039a56326j733015q04531g67405A348628
64802A354013K183435J386178A194285a760625n23102g20684A272904a826426
64793b723245P89854k46945A191995N14171b50075k700062o215071J223250J142870
64784f799088J416052a683528A206406K401184j134004C81771b067645j734206
64776c801851R72277m51417j391419b258258f45512B43131b694122n80106a512930
64766c622169a592099j796390j145294a995080g6431p98240j955952g40212B562893
64756A747531d43484j291091m70853k515888k475094O06229P77069P18011k622168
64747g717269m52878J986078n45382k09023J123831j335048j116726J091745K091192
64738e083480K328927a274001k241340J059606b91238J16878F17306J640321H06421
64728b640117a18113l790252M35715r9623k068299a357608A606522b010090j196928
64719c207018k51479J058641E49994c410559j24541A253738i25071m443757k199600
64710g568428J247605b064395k028972l143933J467900R46199b359494E93189
64701b067611j960460J152576i87856o91383l496624l9684b366733A97478J414330
64692A611808i36757k503040j154638K22158N79666J60853j8811j149845J299747
64683c500667o39155l27309N24117J363369q29185r50330L48396J377872B362949
64673B310168r28322A74158b220107i12538d07201o31685n87414B118803m50605
64664A668198f23478C37685M035144N52505B118663I95002Ma41356k525775O24886
64654b042245h70416p43310P08054l73054G49468i69080k388110l146605K510799
64645c992996J943438l113633O12774r6209m01930a102081B145685O34691R71916
64636C752292K196636K512853o11397k646405H15843a016548j029188O76828K91656
64627a077252j733370k132193O70492l97605J514262q7938M64977b1833p20176
64618g42009E33044J427243c26494k122508a206793A749280J261373J540639k043289
64609B508003n80720N34337C67466a082968E14749J744139a846516j042940k013289
64600d902745r15000j505662o75496L470074J135432j444587l582612J911577
64592f509019O51744a659956A893369K32279H38655P10491J011957N66561D25929
64582c447816j592534a964478R50560E05168K90835J430096J231278A094985a011278
64572d150229j607446j550155m525265j647567J956231M00719m32275J804915
64564i751072K788995L039767G04327E0615b143182k230251l73311J816988j394998
64555d324754j126752k506036K178904I95234K069207F00636c01387f4646l0993
64546i5639l23268G74793a346303d26132j332455j530156a067395P5518n24437
64537a516314j380492J241185J45048A995494J507276M284711J441531j820085
64529G408927M70146k818627I96067m53797L59786N01846m37838q3625a61124
64519A462803F86132g53803A99144a733298O09282E26810J903431f12208m51385
64510a063593I44005a994046M06174c31584G39173R94021m23417b531396p13035
64501c244431A465671J560364m9484P62032A667343e48927j167797G74548G3786
64491b068279o39373k01381m90258j031348n75568n8860e09D476656j979853E3333
64480A693831a54412m932379k149180J641535j774754L5034L200494M14179J807933
64471a911550b79062j290521j393867L46198H82609f38621k334076k053685j205510
64462f231892J657565K271266j378255D86683M151863B311025b25659F435J25257
64453A31692J291180J988573r17677k83507Q88672R31270I64793l70607b089040
64443b776614a155782A378127J71603C52457J916372J660088B68670c008567n82104
64434c590671R58243P78634k49446j45730Q95861j880278d04270j397279m337469
64425f139018J858538M13507a422893I60504J605904f45181l177591g77127A197136
64415A911480J674276J944334J844428B716519E8309a156161B28263A6338J980304
64406A996642J80068I62433J862212m57560b787069m288417j686302P35789K059857
64397e966142b796824C3144a046659d34831C802697K98481q08720n34167D43666
64387a776594N82970E224317O93730k921008d56443j540940l375388M70785A954184
64377B631657A62058P66036f40638C644115J220826j946411G24418a2142j139165
64368a151307o673235j508579K506746K903277P93847A164939Q95444b127024
64359e808333J723838P93590o76065J306922m44354a430106q73801j232405K12576
64350c323736l056327K018459A37788J418135j67881a820564j498968A6981M280550
64341D297531J255347A04055d893967j357422K031734k056031o47553J010254
64333e912985K82598j49256r63714J926144L33690p73923m10825a780635q75147
64324b655782k562962M42122P20435J178484d71769k41700k274777p22085j976277
64315e686608k96728J447703a308428A713686i78804n312369j12872b025221F51888
64305D52529j89050b600030l040470l453557K036013b895203a192509m798933
64297e991442O42434K576858a343583A541156p51923b077116q94047a247396O2567
64288a184829m96448A207211k03970a941234h64487D59657a959816n08510j035019
64279c503345k159269j18260J981900j089046l52080a814488A458106J647694
64271C105800A4494d113145l435864J048725K549006J633702h87313j490250k420095
64262d797658J902549a043240E93625g18297G00146b32031B006389r44195m50418
64253F11776O150071j06049A946570C60935N21322L090610K386111o85881k188602
64244C484495A157489c255987j036936a800299L94576k108176k215990b806519
64235c460761O02442R61780o04875Q13085g04564h9370A037854J729222o5109
64226B701967A166047D66084j77818a142521B573643K494357K766422l287565
64218D546857A274476k88644B28893b17769j840986j066057k30454r5380j882460
64209e333106N4130m39331K428385c17506p71452q32007G81276K358525A249495
64199A142353R98979J445118M72429i3247l811139p12030J557143a059537I38592
64189A761838e58573C68652N983019N34449A290733f51041l6299G92700J293807
64180B086507q04967l42353J219996m60595a914635j039246r88172l116990J711495
64171e347548k798523j954263M986603F55695O77476l32051K915331K397750B941714
64161F68192c54544B861039J720012q07585I1842F018a09668m055419j809503
64152e974590P84475J233474A006250L35481M66259K636036j614590b288955o943257
64143i232212m27454d315843g85146L35771k50361k340556j608088a999192I09819
64133C940083J895648j701690D84637g54918q03647J43338j27073A119872P35016
64124A854888c839844k455166q94760n04205K497029b117005J34432n86119k316953
64115d885645P73379N696K56608P79851k44300j024600J412690k215630m697170
64106i839121L467915a459065o04493j627286k405052J912732l45248r24418b136443
64096i92201i0610A57142R12699J65512F15157a525667k278717j73570d01808
64086B484131H38156a332838O19186d8322j172481I81541P29545a661463g95330
64076a554552m259090k779577k438720e291660J839519k411248L34926j849555
64068g378018n28121K304795K422529j645003l725354l196839L804310J481877
64060f459824Q14942f06891l29039l824246J387170b37686j740132m860722o36326
64051g474866q7493k175339n23998L898553J227945o20997K134916B21947K357063
64042B579010i35240l385085K055594A885251k00276F22082c354571k838646b068758
64032A224110n75476b980356k136646M77058J847858a7657C54594Q93554Q92880
64023B141028H70895a312781C3430K633365b944507k417713b589854H41058J937534
64014B778592i02217M19151j99451k636262m660626M55474b792975b77560C5943
64004d33423o26884b58736D11895R64562a303922j852886a537381C80910J791429
63995B172339M348904r39084j794430j077K129759k274279f95792m504742o35565
63986e836099M27689J067417J208027J002475h27359b0294A786383J29811b421792
63976d495704J071511K94013Q12591C8838M223030j742317B48354N50646j29280
63967F69720K228797F4098c068126q86643a231809A294726K311952I57935a143763
63957a878469g53098A141225e2949a050j689609j408660j449325o81733R38359
63948d292018L90410Q05866P46543l79440m296787k928073L089572b025130A079761
63938C31716G5454c09284F20471J691320q19467l21296a289280k294561j799860
63929e383701k226132o16050c182458A419435J110959l98871r1711J385590K137794
63920E563196p30308Q32893J605014k809395A045307a440738j87630l629227q80839
63911f138434K157388J641667J044117B01268a446696L51547A929978b15064C40804
63901A48157a507146B697i97585J35162j078378n63588G9347a38837B746828L070078
63891E816906J028550l151799H90873A27967J34896a63210j584860j501805P4047
63882c175828J000450B16291K716327p77676f49713m96987j571247k767614b142247
63872b343610l170942K56090J053436D25168N131199r17067e9488k412956j011909
63863c484353a357533k488012k001167b657138k21806o53586j676526L18165j127396
63854f018287j719248j966108M535503e67716b04815n08422j633545a045471E65223
63844B735567h25195K8837p06072j96710o36864P66323k253237k492958N88884
63835e726992K0634O46564j045574k378649k42509K795500J680657R00011M18776
63826b931582j091711l985844J581050J050680m3536J148074b086542D278976
63817E082828M65126j05585k043492c27467j078253M19856A595051L103978J657879
63808F356908j537307B407136J512483K511534J376398l548309e20489m03278
63800i23767A05837d28633b7644B656286l76192H42304K206753J176878A116346
63790A66044M449364J145473j490799l80582k37421j770124d154180o58509K291181
63781b521508M6382k389769k733366K05754a867269A774712J138396l46528L25700
63772B892280R1504J616281l47604j592698F48425a06470r01702A419066M21073
63763A840139a412758p0201o23862j875025m42000K65165h23772B520907J639734
63754D160641P65209N2008B270540f54926I45643J587837J538692K015185J563972
63745G651329K464741k741850B544163c537344j955978a550977C191325J237995
63737D429320A676851J423322M486790L5104j099434k800915b136514j064447
63729c200961J195184o23688j054885j437833j813986J717613a220770l31107
63721a551877K7687A737302c80346m223988J181890a464216k013250r17592l551947
63712g947005k299102L668194b210323A206556A23805b287696K59290A649153
63703B096634a385769l279399a670623b25394k328043m564643Q22533a392982
63694h78469q07956g87865F7452K931110J450752p95267G209a918069d84040B855711
63683B10099e45348A392725g38984C27237J157706L095857o75276a21292q40134
63674i61426j688596n95893a70565I55279k80269b263918j440111b96993I88961
63664d747231m059489M319145f55813q69817k059142Q47743a056905B004866J799690
63655C804556C42608O02630K182848b687267j352030M21302K18509d77056A27597
63645e15586D46113K339088L377075J212981k061140k346911j470025c18222l929690
63636d247912k020384J879157B266181K637769k201101j020086J080850L9495
63628B803108I95584a934561k185813j146833J48395J808834B982935L013395
63620E996330j639669j562562b103630m493672J450099j156036o23825K581520
63612d345544a385012e28254j425529l31623N55540d12530r63424A15416b115860
63602d580125K194485A382785a131465m149714o83596P6189b699831A728859P11303
63593B440162o4896K112601J500620B592220a511811N85700q72610j03038m14674
63584b316433o1319b78839B106217K56748N01519I73666M7933M49287a804801
63574f242962M79340a525268A346917L060143K284020p21094k315481G83117g17410
63564a826809l161920J056494j701526p04677j258789J985883e31265A340203
63555A191164D24207K00574a53492l019886J041916A992358K937826q73113j389450
63546B667621r86281J416046H11893a26222B247584O34874O40743K147009A139893
63536g717648j079929d317456A135207f4237H23079L045952A715018F35864a033846
63526a077358K68273H59258L44747L725182O99501k702697e10648H23455l33185
63517D90270J15512J069767J38505m45046K50152e19011k596319a98127G74371
63507c852920a290147a45383o12961j823977m054156n78363K373824a922007j631694
63498c553701l401953b975083n89878q40901a404630a58261j78952A185008K2769
63489A207777d2714A061871J842980G71191A96466e62643j04680A27423c93344
63479c688841f96813B298646a0583l781861j594526J396099i72430r21869d55842
63469D156756K059150q85488n01831k351217n27106J534043j685894c003465n899651
63460h903116j028330J766711K796169b350081J24206Q52734j944652j6193J313272
63451b020714r19616j238618J065968p61625A554360O713722l2815l044271B207223
63441d19590m814014K397307K7663m91834B81147N42444P33768D08094R95003
63432A403097J730268o23824G3860O09631K105414j050347f09566B753683Q03084
63423C556767J118834K68565L91531L35104k479023f48952A848153J267090j259721
63414A855522l6192F29958N15603h35497k965970k31703m31041N8427J671339
63405b734445a165863k68471j458482j947800Q48721R91825B084101G75062j60372
63396F14690b637239N5420B22072J616233M78558D78889N80341L936199l67640
63387D627789j00727J2007O18173B271232a55401k625132j31571j776583p07046
63378e395733r57143J237434J877939J482418N87610c78127r93756m161194O45406
63369d887671j545086J319603K102592j279055J843249a117187j543598l033983
63361e694768J012538k31639j241209K365827g82233B9642R64780K458068F59660
63351a821733m04878d27568r84475l155142p6868m74941r97415b544479q07834
63342c352313j873706K561581A887567J254857R57851j365879a072271j218485
63334b290756i75223K44506a98034r12900r11438f92856A234209J793606A116514
63324A397797P61788E90825b524486c0708I64617j64223K1263h97138B166347
63314E105352M05682k572208G49157d02675m71719E96388c5814B409362P86875
63305C196237j520826d01537a62497B572541R64443I89393d15203j638979M06080
63296a648102f31710q36497B762210L036479j518370q65296A278388g32767j996558
63287b729325J1107g06956A687992a327610c10785A994184L29610r96338J465329
63278B792785J19769A210534j11343R64550R827a73751p94602m13385K35316j283795
63268b430217A946243J50567M51622O173519M844136K181611l180359E852996
63259D904078L334060K47526k812763b335098k511719K271851b9877A68906J822650
63250A991556J331713j436514b575821k922230j038646Q78214K070034a381430
63241F47504h29112A859695M957476j494269j604219b06539l503913j936718b770496
63231A414523J936528J81789r41894J564178K467330k703864a778199k605313
63223d383512K74425P86049N79620M52802A516079J365485M8062J502044q96347
63214C535323D37994i60943B129469j63769D2536J775007J911613f57987j102798
63205a760785h32547j213039A45306L147866R38242j411273j014640f16621m269841
63196d886462k46251j231348L55719K071872J680303N36991j014175k355147J028059
63187d060439a640290B841930K556064J281521K889508l92524m510324b087267
63178d343175J179638b75867c234l605120J132316P22363K43174j945291l845669
63169g301461J484782b600643g01147A578298A35402a335601j77694H23318R62290
63160A785608n22923l10224M43703K355141j161886A211481Q82004J929515A159817
63150a857688g23953j855653j482669d69471D040185J971935q12862o52859J633796
63141F180195l056795B46197J333827a792773l151254a949590H69211a992580
63132h74788A966392K323958r90611P48682J497121k645038b880172o98181N9674
63123c518679o64783J78942l05058o58771b169887C071669R75084j311582O29214
63114C364385K657885J980234K060683m718293a754347L04506j012013M34278
63106b027576f22437j89193E71518a006924M19418C71648b159091H01159o1876
63097G39283K790491J250913A517643a107870q54419f95133B644501A028974f6233
63087c041370k491663K205868f88747k943500m685420K344102J609805j980010
63079f343770K664209J6639R54364D25268h09935k064838J238084A444982K009390
63070C454372d7760A956884a0117l081647M11581A330822c22557j664067D8349
63060A01484O32620K32049m02056a76814B719817K590140A961217j98701M829298
63051F591814j835201A296340a932793j648662j379512r8299j079156n69530K384122
63042d323830k688513m651086K803261c654102o52436n77616l65844J846842l98222
63033c801378k84385a899412j954380J809447g39225j743073L70887j85830f69132
63023a18612C225018o9134h98434l147953j419898L5768J132047e02926E01980
63013A513869E73552J358479K790878k59364r98238R20896J771286j073603J42453
63004E226339P84729k011361A807303j19277K377761J108031J28446A572732B70478
62994F42037P72514C64911R17374j58398a211772k413256J362904e31066j119891
62985a650957O52160k120011j652161J54792J547244Q20043j92809p4487O58556
62976a857630j085824j79381Q29760j382316K59700a16429C945182J866194k377538
62967C433838I14554a05738k725764k970777k93946Q90013j36080l2479h16620
62957A372504d42940k2290l147914m655746L199422K382559r5058a210729k080510
62948c291239a093412A219326a32821n71888A215623L046848j243042a116372
62939c92685j029603o43410g77355k801498n66126J277519J323867o56778k349521
62930d549892L79431g1779C875018J039161I83646a103887r37922i84403k5753
62921a010156j247057D08498K709889J758271R37903k655979c91711o49425o45094
62912a686230J67514O07895l023777j615972L94499b018084A222864O03349q69462
62903I56751J872898N74002k91310K301451q19903A696986B20471K598798E65070
62893d361783N06292J378428a055104C24239J399086K095819A508877a873545
62884c67930C406998A307418m78642L347933j058074l28463j353689d32677n568672
62875f001349r51134J348589b510598e5844j40842j039625l94202n62425d28823
62865A113599c480874j354105f19381A839467g55599j32338L76643F65946N062362
62856E728308O63861k593018j378678a937A18507L884781L232291M75943k636996
62847E074526A958121J858890k67402H35407j68958q7491K046275l84616G13976
62837A968988m65573B02670N86993k39282f75715C149860J184589j118215A378928
62827B768459j156304c286495J430327E86398h54002k523910l31919L08537K64205
62818c137089l06212D54503K451655b02815A55336a270588c14583D869742L93146
62809E262888A022854d80388A674447K01613a714147j332594a363261B358369
62800B325620I52805h33435j203144F27280J840214F78366K448655J70930o70887
62791B627064O33848j228535D37382a203893E7254J510779J599871L956123K042839
62782I166866l533300k132962P75637b1986j556687G05365K104670J426498K878159
62773G114692L290847l322462B885034K150795p10496j123162k6213H09706e81131
62763c166380l209262j908822c847866J286801e74532k155953k984538r61741
62755f676764J673919b173024e97707C589011m94705j003605f04291A196345K131974
62746C328319a043323l96600E73988H9377a691762k691192J174143P40798D1767
62736A936598K212512j800499J459635K340029r99382k331162j171890o64845
62728I80996K148463A444744J26944J727726a002517j147362m45884j879424K216086
62719b259101d74061j841329R81635B433331E89710k89237J513123P68521Q39754
62710C421871o18747j049601o53788g67264B18505J000763m92719g5737j977439
62701b053176l39758j4279P19865P96203J76481L40815D47369b794821l86031
62692c180852D39724K135369R83182O131n25942J526444L93686j555248K72806
62683C676152l53372J884588n39313k080461n15362d09980E17727K256900D42488
62673A173555P56073f28368C95929K337751r17306o32647M749799J253042K583682
62664I770250k170287l793206l93063N62344M35248E82667e201679j843652O50440
62655f394891K322958D7450b61889B962373K077502j124474r44440J236863K395306
62646F603130k012900n70401K089860M20017q70664J672667j70631j886598A810333
62636B673326K701302p52284Q13903J058623k630822O69458J491009R76383j42209
62627F858689B299042C31709b991144l478257b886168D119038J15920p74188J985577
62618E446347B702404E21820k49122b712428j06405D74c52137k878302h01946
62608D678646L370401K87883M89852k4321K137524j131008q50346k056310G61443
62598a089122j743962g69845B959969K882036J430903n85370Q9798k933496j74099
62589C669741J222667M083325K2565k419239N11470k334989A167607C72293J244880
62580A617173J507807K135507j328856C03454b936699j423475P41245c05457D319771
62570C084629N59189m10759p81783F85861L6253M878791N99818A973775a814608
62560e204846K319217K5649L77945i60927A180794K143041A191755a669354c33169
62550a069514k036886o94326J18778N02070M51203A620071M66424E36793g69877
62540c088606j182029a061432N27454l200666K47014J347521k534755k606771
62532g281635J44400j862970P41259L52340K170542a71691A325087F26151L65961
62523I92112J692534K184937r03152J307172K930357O23210k382461C030379A419082
62513B124825H68561i77593E75469n4976d90417D98465d112369l336408J059979
62504f388798K829897a32860A103824l15739j26521a566691k13783Q68793A812856
62494D803511k95878H81068b65930j781556n17622L50795q34123O53984o33045
62485c027497J133711o42080k095226j203050N97884b420507k500031J086493
62477c834045a048437d51522j128990j583049a450686A136333a471016l255108
62469d726124N73990r6373b090137m68371k32512M86032M46102A482195F80006
62459C31701J124793a506030l783955j016818c105603B481486J172884a20828
62450e653722J367204A258864E8922a946729q1520K01092l425129j134940j85017
62441f572243j32101Q37461K807233J469697j31445j252461g81939K49210l686731
62432d219460m407543j300005L548793B72747O299638J632383C732872C33139
62423B35199K376472n03995a964597j586463J046563a193970E60216h95517A24589
62413B027271j21311P39560j271985K461803M64804J415964R95790l075243c25127
62403f01081P9737j571479a5849A093856A60418K390743K389331L195440L212550
62394A1348482J840137l597371l700268B070840h75965I78929K197991m74787
62386B702133a52241p20442k000954m00528j900802J93281e72467Q9991m63550
62377i46026j829756k644395K395494e5600B910422G70072A49030L787159K008699
62368E944888A528405a500743l129605j510493K794106A847800c58884l638503
62360c997387P00329l417680J192257K220010j74279k65946Q22923f19750m94340
62351a114090r6425d09296A142072K19641M56790C3317b453937l098640J711834
62342c840743A600092L536687k370280c309243j422690J591415J296215B136642
62333D669918J011580k072801G94432d35200k078674L86037A440953J903544m88148
62324B856349n97421a46150j551904k310187Q37778I00878J345022b945761j973261
62315d919022b342016L15345g81496I5948h08926n792714l259834K110298K062294
62306e688882J598194J589401a030675j399290r28448a585413o47955O69318a3872
62296b501363g94226B630251n19142d60055B26021J533843L58313J719811K638179
62287F476167j716658n83552M074404l156511G97016i68683l352204J233628B91670
62277C406437J831746M85512j272398B157287C96364c672647m106474o78988L094332
62268e363777a061316l147375a343665A049871b510914j499612j933577K415029
62260c529074C80428d2259k75299d039B447241J366448A744267P93112K405890
62251D943269J513439R7702B002590J477697K038773j70258m80343J768739j080559
62242E556639j845349j378261E74954N73167d29298r13374j012405p10574J095406
62233a970245l7002l867300j495135N09078L006434J007411J147101B507991j77009
62224B330982O60983L64949j303614J448711R77299j973299p87190J618366p31623
62215B605564J415776O62736D14812b243203K59020P1632Q94474m048475K199543
62206b867009N40220n65133j392014j442919b058656O60176N25907B030256Q44724
62197B874980b03746A104723J969123p95410A014308J301957D35839a939766j757050
62188c696816l30986R59633j19350J517261A059438M405853j542152m60206J2342
62179C475275K442340K411287k347356D84594c294618M63790D56531J508108a84836
62169c160388j439228j700813O31136M259b135506B28945J953511L586653n44258
62160E224851k283662j022751I45615e94169A273672K009466c31140j140412A52479
62150A166229J973444j250808g59025A046859L00367g80308K60804D031636A413104
62140H82153L627306B137559H40100B80087b806279a058509F29946b354901R6033
62131b258868P82694D7100K177875B6260c037853j338729J446347e76650j928279
62122b504929o14187Q56228R19378C558564L937367k917707r27237R52272j673095
62113B930164j008455b348084k463424K234211i78544k203308j573050K264381
62105b490521g26520n75280q34148R11252B437376R1145R83711r01300H90294
62095B037541D79486a287136F13425J826412a15321m596099M17527J446640o22862
62086c470115l98027K49827k93872J333201a132874A298762R82458O37075J907840
62077D826135A053047N83701J794947o11640J39905G53209d072575j25502a476119
62067a51973A766172K779489N87973F40768k72048b95360n38636n83879A641565
62057D779911K597363L52430A605518a212555a68730C95b932552m183574K102456
62048e013670a617286c27088p59722j077107n21586D93462M108677Q10334B553841
62038D88237p0349g81225q34806C30129Q69958L233010o32659a657589r15822
62029b573411A561728L266381K161766J105501j797473l122157A10223a415816
62020b996404l226690J935812e13178A49572c212536j009469m44758J984996o16957
62011c298724L06868J21010l671402b060728B38132J891956J975335J115734N13388
62002E734545Q7939o62764B206620q77904a402242k104572l525934m750477M676169
61993g107056b196290J66763A868138L118909k19712A448747K81944K775551K432979
61984F939221j469915r53000B164619I62060J298833j109931a423750A311136
61975D298345K31359j125068J357128B347053a167812j173108j057050b03402
61966A23171b506926Q18574C2745O69031K780516J355290K085728K070043k566460
61957F426893b831150k202719E0962J865939O52438K806721M360926P78451j483970
61948I031467k240964I32109g55735B36302E1627i62730j364958F16678K41800
61939H58478b382903j825882P75253G4243K584566R7981a321105j422578E08117
61929A830547J960471J463663L58457m94444k080256K133899P08560k8818R42790
61920F794869n94266j270803q32178J907665J090130k759014a4222E6265M425931
61911D482196M095090J699691k783486j7642J041512j544569j981007A628470
61902A868821m79408c3205A723297L112135j132052j314843n37459a846045q27809
61893b673854A026285K061566J888933k32256j063612D14119c875658j496562
61885e372220K274097R76359l40587J180054a81841A083276P5504a427392K34498
61876a192894E99291J957538O6404M35289H19592c814480K50672c88167A678508
61866A725386J123096n86553l67528l56962L96904l998K915724o90711A582543
61856C869243K9401j264984f99087n78093o90699k018933P21389J19733h08472
61846i46675p28040A595737K086698L01865L33609m61978p64114o64934K061682
61837D488565J072921j059756k102633b85319k041512K71478K74841h7515C756370
61827A466434b017473N82306N98058j965988a374380D33170b849702k405595J590491
61818c664806m65184K048241R70548C416685K180769B453368J037720N01846f0328
61808b912276k451997j749090K288967g07208p57135j919603j057619J897776
61800b543789A302515J222753J107777j44645j183712r5179m25228q04967a641497
61790c048171J9643m452165r56946Q71372j390521L295094a083607A047592L97907
61781A445499N65864b648682l325753M2202R60481m78823J740260c44626F05638
61771c794990l93633A81082R47748g78311j017967r46459J264743N78356A47193
61761c129072B494133K903322A913067Q4019J173039A577769b859507m306698
61753g166205j037244l7345L828595d25256B7057M622976L72217j743375P69189
61744D048064M777767m148394A993742Q73573D45416b719108a269207B973007
61735A748610p19719Q95382K75673q87702b114739K05851K55063n419410j921565
61726h994800K744225J492026j976196L70954J344719J937338K31747k890193
61718e740180K5753b755647r97555l495552K79668c300643a504897A947077m53073
61709A494004b972975k459841l5034R86543b025535G52677a770613M44190A759364
61699b459379k150095Q12275j939922k59393j411163J342100b877390j916260
61691d793650A75538L847714K623285j454267C31724b654907j352643j388443
61683e395993Q11339J408255j150350k313967l213339K011706c137129F48728
61674D18402a534912A559855k74265g02055c7329B48238J996320K225804K386715
61665F857077j340836j852724J114323j096289N09751A398093f98425E45966Q51877
61656A397843R82239l15439M995165K241758l984287A870605a386576l51983A648113
61646C818496r40634f99306a08762A459716b079520N39562A996291R26957A311423
61636E26514i2756j49167q56277A469736K762226A928719a057716C042462J55176
61627C197638A108600R689b829725q05935C41712L095134j621125n55656J441245
61618B701310J713237R6165b80742l072669R41404b19423A680594J079952L61700
61609C122246K567723L96682j425281r35616K153713J349256k633628J101032
61601E696127n50944b38817j567762I1447c395464k68288a804590B164678q82708
61592A281970a472424l531364L27045J451429Q43526a034399M69060A650058m75079
61583A174979a399893o2030k85201k378560e98643I59177N64886D42009F5716
61573a673361o19824j779101l481472J621205K051477l37736P68698A668438L014340
61564D682778p98080p23606L51795H5482a593813r68737h16790B380472K16779
61555B597251G90667J565614J335291f82082b64396k102695m37896k364812j854961
61546g024760L53058J917339Q99101q42147b172848b20783E08269a376229O73722
61537g02507l278994l63947f79466P2920k513777P29616k061450k109186k750853
61528i312196J086838K299667k00302m166785k693992N560160b870789r22732
61520c793521J373125o90866j23546J84871k8211B47832K918612K61497F97126
61510a380004l321443k524013r83460p02927K429015K733174j301767J332915
61502c718510J245846a140028E10528L5235a251549o95786i22917I75691b47528
61492c75699a80837r38553k396724o67212Q25175Q30853p27220A00609J293303
61483A393912a1884l20655F12551J020545J446378A297591J125810K1798l40573
61474B104626O97593r06548D3723O77342B90923J48801J601906N41564D67711
61464e39244D9719f88988A092967J788247J792535j954688g75917o34133A411471
61454D592634L67109j194753A010072d096567m844581M101809a680271b01856
61445a564805M58174j04817j033313K46152Q27205F08886a394086k931765a355235
61435D148937J301098Q12855B525497g89809k071359n61463J407066L34521j863327
61426c544371J209224J006134k397867p49636J601407O54681B734225K275830
61418E010055k083215K530773j698669A244293a20228I97109O96126b4146C92160
61408H16745a6842E98327M63956K58026J530611O56496J43708c70041l619463
61399c989504P74090N73894q79501a75902B040397a421501l143180j664704K387592
61390c841793h29923a43294A6834a568348k515075m015044k792767j687441P26505
61381a1852170J884533J198461K645050A134191K275926A319136O60157J817831
61373C797124P48840P86245l08818j917464j536959c31946k219024J119177A033938
61363b19020k355263C27289K838682j025452K972857J580146p18130k251119m06159
61354C318114j192816C33450g86364D421M627542q30786A515841J136747Q88542
61345C541130J972624M71724j239887o91033b965678j925435c11995D749168R78611
61336E727779g12923m016762l79177n48243k82762m352886J204319b590974B853193
61326F55725a458025A848695l69548c431746l60629O55656j387673n13591b199795
61316b661484P39475A892085B06295b206033l67855j808012j810186m6326J363150
61307d875262n39864n360436q68277N611691a763766c45911j383948K90895A280930
61297D058730K692881J531192J07602k664543k351035Q79190J302974B546025
61288D008194K405762j154476A74906c087292o70140J576588M47978l1686j35299
61279a899851j165362E70679O72814E19192d5405j405528e95082j116122j131636
61270b842840j172586a99231G67445R61566q50353f55940k332079J136925D23853
61260G82584A94004b076220M64493F8586K212867d95548o91093C22378L25377
61251F47755L759370o90694j392539b02223m689853J708783f5372j484736K11081
61242a339027A821746K460484P45342A881966n53925J325550P87634j026370B77065
61232A48951J107845K395832L46583b057472m24751m16663j084385j278056J954982
61223c306345a036996i7634G33012B02649c59010I39286L543240J15137B030258
61213e08338m6731j452260l084072j054328b914974J49250d88738B662301M471220
61204G133521J908016k85127B408104b187195j149329k806060j393849L033264
61196d503169J953272g03860C110218J111132f88092l65599C51107K471304M147985
61187F970396l37592r19313M13045j889934B104617R99807h99327k982429a394724
61177D23786c42878B105534H2069b333923p9761g29847j527890j038764B47555
61167A062278F3166K73056N59223J323800J979329L377143j724761k838682I65147
61157B046939R74131J693559A904676H45135a063353l96248N69024j139669j032876
61148c063122O84775J041459a29292A001533J79995J96497l5675i45617k383378
61139c328995j633726J70291b200869C12199M792378J05738B561519e15557A550648
61129D359179m86235D61956A50140Q44665a366109k457013k417528j810659K025182
61120f026127l28733J318069Q18222f84129B325216L954676k915416l45013J979971
61111D999434k237304a81153k405895j103605J146012n32598k581922j359176
61103g018337L060520J422439r37757k119846Q30370J598510O46281L02454j1437
61094b226803d72903j466675h83487A364567L609244L019808N99429C160668i42013
61084E61011M574390K702990n554B714815a400715G06428L522690O16914l00403
61075D545629j526704B40455b125086j589189l948183P46994K500607j709421
61067f124278N27047J063280d34501E544661j807075j75490j450170O33407O62729
61058C408062H07546c71427j191651p66050B680317M278908J569148p4656j386188
61049G067529l027204I94589p2526M012672J611824k423127j775749P86925K951983
61040F086591l48791m22884k083901j097265L32849Q29556P01518J470477q31605
61031D636545q14374I92962C96565K874863j39598j107060a242541k901666a950345
61021A062643k94369a405728j458098i13841C787739r34514d90606l54042B589507
61011C879242J061177J693795k120741j873145I49352B47267O40882A70602a198933
61001b757316Q18667j40636M80339M18081H87478L110372J152038I31769e33093
60991A64480a30043E88647L452730J092774k49597J920854j787883B220536K825479
60982E046015L744161l781846B068642O32678O64753j04195K406700J219523C327797
60972a118276a40273B264352b45848I60207m16635R32915R80651a090367D02898
60962C070586L41086j565506A31768a299805m44086j245696l298820o64767c265847
60952a806873H52507l55370a139998E32408f714k10864N4909B382200r64275j88345
60942A229580M08913e23356k94289j084011j15093B935772N076545K115876N76584
60933A0704777m068381k661416j10350F30453J568034J683885k82227j425098
60925B175047F98350b181900l077583j223639a867782b6501j252062A473225J576091
60916C049316O47999L608293j770850k275738n73044M1575P04530K190015O61615
60907F283711k098346n33286A165648c83413B232579H05665i99811A773807M129994
60898E903801Q08751B569565d42062A59233a267151m89605j982840J080262C338900
60888C938124J92228L55282k013230R38273M11284j587833J847269p04915J161976
60879D538458B083688a150184E40307r5009K568024r2971A369899e94910k165046
60870b759956h98344j514463k024645a949212A762634K697483K815822k309715
60862D966224j617296q01807q44410J864079J605921j436764j751167R44755K202623
60853E132158L49938A275728M03163g65535p82418J48976B204149J830335A075034
60843a494581j343503k180328J045036p21116k438980c537449I9236Q00756b293874
60833e195111J94197M95353O43690a787034m754050q18404a212396k77232b79472
60823E74043b614486m237231J25608b795042n70654R09901A626024M244502L688650
60814I559176K005090l252552C388461H75017K156744O40004k27791K618501k961195
60805C101280j130876J379907A473088J499958J35053K655686j002754j760201
60797C000830A85798J421106m27071K921394J946050A242290c775769j209418
60789d985187N19963h16339C133209O62262H58199c74923A77658L85274c19086
60779a413817b13528q50774l539867J347675J170906r03401K04530j315588j510034
60770e610081j95719P15333K527269g4074M293A920576K204548j617379a662058
60760c911882L62813k001157j062779K426491J586378k144258r87274n41855P26946
60751e546577J226566k996868r97741b574427A107642b662972j40816J183844
60743a619944j482303q69162p97316k546053J969170J413163p31950B057876L447028
60734E504904k27281A892075b396212i74478d60559j795686n894573J211809J323065
60725e615944q89763b774149A43895b061273m255939K42082K816118A63043J800784
60716A963827i15695r547B51825O27247O04924a025207K69599G00012J017582
60707A717594g02036p80094p30251c03069j45529l049016a611893C130696J474025
60698D604721p08071j245598q98126J30958F14927J368544E71166c393887k724075
60689f117962i08489B874685J573260p85424a231822m083480K460484B44678L499653
60680C744331J421855j288009a72158j56435B593230L44984h89949j507810B152277
60670D610694N08021l55874A104828i55997j89499L12844C89031J042794P34522
60661B166347O37625a063518l339929R88549I25406M495955O30899j006850j791988
60652C253422A520707L49141a465190n576105j862695P92176J974126b960129
60643a753132m6570h97314b7930B294316P69200A360933D15164K070390J093447
60634C579001L68857a312153l652464j2270J156711m03270M43142n44663l920466
60625h245433o52679L611738i11119j586224j954189J557186M9140j956043j705633
60616f506882q59118J841685j409976J151885J660034l47923j457438b739921
60607a301892q70536j387637J53337j560642b017601P38678k142687K88264P65940
60598b367406f07191A60007K28073J511264D070K431214M561377j94301q15790
60589E986570A658743Q70018L59348B72975f27240k1686e6083j606790L05456
60580a357417A893922J375210A379565c087934j38939f9371I77323B18767c109408
60570b951965j218028J886015a04253j671692r56528a188853q61907A369374J454427
60561B823801L321641k788615j238363l99573p80205R41633h08270k224235n07961
60552c540466a321934A755960K226343L866078A461946e959145j375593b454508
60543B579215J571377A877538a063430b42667D289225J74344n52381k70486p05889
60534B934813k70300j246034B53365R8644a533186r83743R35028l335709j006794
60525e924404N1981a598708L15106a41050A997840L27115c40918m755670J951247
60516c145341a398641n66865G81404i88762l243432J73149H15847K312228A504485
60506C72268P10357K807139M003621J630370j836943C243275L27061L166535l074062
60497C662809Q84629k004086b899136l332475K974421R03752e06991b12647m843964
60488e056611b445206g00333j466164k298067J378186J442161k27761K7524F52281
60478H46271b289039B308159K780826C73524h204374j129310K025624f27642C690803
60468f84399n100018K90608b415322e96658b78150j425228p39580k891519k910444
60459h244921c503269A422419J083425A252606E44827h39050j253048a012242
60450B20501a313505o84293m80475M71103d25261D2688b77090k96480j716762
60441b290332I9823Q57881a865320l758200j96921o70327L055848n53087j48608
60432d136615J99549A192768L110365A778719c671771j733075L73396A97410L913397
60423D110807n37016M7143n13822j217918F16090c048109q10965k41135J843126
60414b257083A876689A68282a848969B844776J098481I43179B17361M98782P42160
60405A458303J147226j056125K164684K061957o95494p48473I91995a719303o3938
60396a783241a8058A528948F57558K832557J221277K671775k267056A728434B04499
60386g21766D9873a784409m432494l429543n05001M508306b580819f47401j742254
60377b389655O6311d73629A849812R37922p27460K224083M07143A293743c08935
60367a155654l13517N80165m94181E91993b831465k303955m009402J619962J314736
60358f210124K416809H22517K926291J799243M28088m54853J924622p31760j075183
60349E638965F36295a500288r09153d78529K17768o63464c68952k310794b67021
60339A124426m80705Q33744L34939j05237l75111J029446J055400M462057j297308
60330F581651l066824g7936j897667M84476j18114j898351l01905a624833B89666
60320h16749m420948m25443J702055J221434h36099j466285k277097P52276B392351
60310C196132a490954k012944J1386k023991J237312R44290a231183e13384j129370
60301a642754l24286b0569B280191J513008m87059a052553j590971g83883c78963
60291A990187K009151G67651c705081n95810h46078D94876Q07356l77087b975479
60281e303665b354048B106250K200774n95335J913228J497676R0903J667784l946938
60272D934342j876612J480765r39256m57298l12992J858373M005714j178518B693116
60262a273936B523640K9362j67836J094098K212360j688113k33301j57315j97712
60253C415183g16084A846071J275462C26770O13262r9436b217489l295395o82433
60244f195317b443923M66597h1373A391926J156087r45331c29498m27413B192683
60234C566838A250471P88937g06402K98552D80990a284516j542540R28267B68481
60224B515728L787187k139958j650505i30214A166107F4425c733069j81906o6715
60215c981690F94254K083103M76224j293849b05419l191757r10539r14870j692671
60206f915256K776860K58714l01826a484302I95903J588504H20643D09066J959531
60197B368597m39222K454525J219403k678653a283821p09407j076938I81679J285894
60188B267573d49769l734899J752811J177104m95646B376938J552301H0157L1480
60179A11637K477748L367503J361430n11015k824679A565553M406395J962781
60171G934729K58990p65613k357449h5240k170284m42624l767427Q89848K434641
60162c141086J8439l79712N65661h6458B728278l03716A180262K486096L327883
60153F994241Q99777Q54026j433976R77530k921965G11570a233108k84281k043403
60144c560792O55125C01713e50902j568871q78547j448994J106612a235372o5640
60135a301012j234039c95939q99100J88769N20011Q0775k32310j216873g53972
60125B304881K48771K032303j0608F60386d111043k253099O05921b106725I80045
60115D444145L641153l001655C97127d717892l119285c650760q67229J216924
60107c301065a621005B582779J691230f09171k396888j771460o47380K417677
60099c007222L12025l299293J728786b033691k010036m93288N02096J571904k960985
60090e424000L148J077326l565071K306267d80140G90838R98542H27370k31843
60081E95527L526816j931448a599475m557944k99220K535581C3692Q83469b317067
60071a728956f82076B22151K155251a53910o69445a75231j613309H9552O66315
60062G55867J547285J884236M52170j002486c12664m22932r07735P68793B013592
60052f06856j820350j104090K18236a108154B079881j69035f51185k516437n6152
60043c223774a576303A573417Q07094H41408c960661j486220J074485c46006j307456
60034a653462k101970j01822j66621l24055O81874C21276K159700q36066e87909
60024d046290j56707f87131a29197n583252n200630M69967d703653i93265m167292
60015e160557j269561K647290j208911r63348Q06943a206161A393387F07487e05878
60005d66684a95446D145120L551506q58553j56285k515878G17453J03523b28835
59995b699229b63818B951098I5972b057599D80833Q96043a336205n435633j749873
59986h521711J983516L153451a101324j884890j384148a494806H07085e3148q38453
59977h91601R1448j424396K56116k894209p33504K033709a012094E81932a011271
59967f7577n16459I72649b142178n065743j507659j964725j12449L540457J627331
59958e624966J233881J424826e52345B87269J016727k60981b437586k986350k859926
59949h283862K049852a361905d83913A2670R46159l9850c57890l570566m35326
59940d363782j279622b799346A257317D47727a648151k466682k879089j150720
59932h144642q61887J172593K569772c37524j5063j317238A123121J286371a526957
59922e889423r18996p72598L410719E0662M82879J404525q11463a258266j109870
59913b368136Q36587L34980A508722M3570l00174B45537K61399f94621I34798
59903B939196l95404j22041J251149j398770q27917j23468b789237r01422J771380
59894a919279m96284j686270l624616p46360R53430J67116J861175k12154r58818
59885f662060a845936C668305K065o12923A493851K268138r69011C51222J468481
59876A819703Q63394N05147A526497a323684F08700R85350J455873p44446g77791
59866b18857A678278o36117j50287K025025A011632c946024J252579e19913p86596
59857a306509c30936C43354h71694m52933j146783c73071m04821n6501l443070
59848d277463r23634b476770b17883A75581M548402J383698A669598a051485j787435
59839b838920o68902A18693K205713E17714i27284f2788j09532n654915J539430
59830d287805O13474k154811J742950P584h70348E238748n30808N01342l07547
59821D901735B191420c58488E75322h00990a1968j343581l24437N03343m35230
59812a611873C723781L194585j995987B453311e54816j358300j175540K25329
59804b863327a79761G03686h3215F90736K325365A327121a471127C82546Q19690
59795A202236d37521k7559A890006K796635j771006A208940Q42725K511786J045725
59786E609176j243645n12490j284399N15598j078483g1030G37210J414374L526591
59777E678175j740724b4859k348182K66848O0833B045356J611731k32902m33696
59768B990489D01538R93611Q36960a076187q244A849108n83912D71761J269335
59759A741096J440479J524046Q17750j68148j781706J02075l41101E51673h07899
59749b815809P76928L87986k270567Q18675M11592K50025A624042K195607l25246
59740C494403A316643J69136a959291N15440j727257k138938j260111j48908L059199
59731c659866a804437B42379N73798O62790d74567l19810A756896m10495K08418
59722A554819k94105m20951K288119L229924j302519A167013J059057j85446J428530
59713C469154P8159J941343K370143q00303r68142B111604n59147J615554Q20671
59704C988682j177300B25119b152950o23422J38874f16621J81171C3968K670103
59695B704071O99240j278145r76939J246281N95430J051745J548218j849055A728110
59685c516816j155863b268303g30972j402194l041179g96919K47007k655470l075906
59676f281288O41261K805422P91261O2586A92355L822391j429188a0624j004894
59667a015518M79894K48622E29767M41234K10872K186705K051175j421870a008942
59657c577199b37929B697274j183691a038562I05521a271568k041120A321036
59648C255385J53376j482419a138958l219645j919112K538519L02366k410232
59640e847062J041626h85986B07524O55681R78069Q47534p72122N306135J500289
59631H723110k659479j675820j76234j433505d93636E99189J274631K169031J363551
59622E406402N84385p09893Q80189j357418A810699A18018Q0296g08969o112A555974
59611A446481o47960J753282L3379a147833A161554K422250G48823a745385g55677
59601B31325I7758K4905K878177j44087J30571m6997A59739c194424p84428j218268
59591e197120o14737l8141K103152a488444f36556m47620j70741G87516J316910
59582B104426a566415B8956N313896B603830i80332r31837R19287B44454K109745
59573B354199K326718A394357C91260Q53685J532000j046846c100753k502345
59565e603098N69227o5085b507222j399035k414905b962689A698812K390354J664534
59556E753700k532213i14172g5646D248608A690066d83465A864533J5561m56967
59547A423127d377564k328623p13960K175981g39246H93992L453247K998237j777902
59538E567574D52907a664944C984697L49246j215681J401732j73484P46656j225427
59529C867739b085716l302760J298574g14143B031055a389950l491245j467044
59521f348239J411877h96199F72408C02820a524102j473398j347307j73211a558875
59511f21684C907070K5102A224235d75167j61097a81989B25379J922998j015342
59502A133035a90388m81637l495838k006272o69032K151791g37938A233075A24267
59492i2508m4573A70673Q18076K626261A281303h90106n0672K57509A396590J457963
59482B854553N47222n97135n31322p60969J266147K141148j848151G4952a482367
59472a922063c59672A567311J773413L00458q36978A157282b81230l95840l01015
59463i78085L89060j718431j622102j580023j33427J178832j495686K047767a065040
59453C20112b66207j193277A09143L70508g01852k8161E30016c336185a557402
59443B709534K647202j844282A740642L382599p71287j057193j499878b143281
59434d020654J883785B97985a935745j401894m308677q53638L301185a390963
59425a496070n078828l036750n98295L610204c238282O76563I11260k49372a565653
59415b37700C85578b098987k50943k89389j334213p35006r47116k241904c720924
59405C4575K756306J386606j06395h02856A130782K814460N269592j884498B087832
59395f40924B668827L956729j137236a034388r72108d2063D72269K411413J619914
59386D503596E51817d381648K024214B071886l824p79700J613021m26364j196820
59377A278199L08758C81734L077797J539884E92276b015604q33684P08116d56963
59367A717895D31444a500990j153726i18835B356152q97580h94632j006932D11565
59357a712687n14478e46833B985236j210783f79403B957607q44905f12025D66550
59347A501406n74681K911796J236650k44922J95225j215230a101773j605324g35284
59337B735075C51477a242578A165859b257435k608420K384804A601828R04145
59329B505973J031453K369254K84611A659728a724509c47005j336435q11031d18065
59319F34037J191189R26822A288047g64149o45653l666085J486377J705844r14379
59310b798045k446096J759665Q41042e62143C603706A067815a712603O23346I89025
59300A750827c07670m582413P76350o05339k42439b025587D170933K398738m97231
59291F072440k140041A826402J922730H45401e972335j886936c516569a641995
59282b694992k363855J595435I50612K104904F81228a60033m36232K11825A23441
59272c513145p30426J338276a113378j669847k373907q6674J127788r51117p35455
59263e802590K839277J92278l1096a097774C4663a932966k371000L46242a871416
59253a353765l473441K405787A441232a016072L9523D68708q1126O32474R84789
59244B004845D13549b066503q51275M71610P10353Q36352J31855j92752C142355
59234C965225P35788p76973N9925A520108f25606B21533M12278J122325O72721
59225B428857L121722P85016n19388J063269M92983B772044D03234b546938g50705
59215A146647L687717J222570k883606A094285M0140N9297C19024b697305f61870
59205B698796d32564n43858B783772j013994b024488r29615Q2418a138391A57382
59195e40141j262624A057292O292722J049621k914864A719811m05363e43999j600322
59186b144321C40807K78821K982570K089093J285529k439887j497371A356051
59177b188711l157547R27999Q32999e64085F33820A37117e01346k335461a12743
59167C18281c499678l770395J957773i2693A318790O99104O49071j028983m10102
59158A227880l37454e27844A293918K960000M10578l38171j442185a021387j22580
59149a143967c77040j62185r82698j464868f60359A900332K732663K530771N05098
59140G668864l143643k052052R21347j354046g37652l206007j948330J476443
59132d415546a066175A461735J860065A547560K778214L881569k899372A378459
59123F13532c04555A181792M32287h76562j829172Q39802q95512j359487l569710
59114g690641J145243J931371b061192K34474O72713J18869j308574A624396K589295
59105D213691r65369a734956l899715o11333b515617I83389K193726j576573g89379
59095a500878a80553E05367a96091k657304Q92185r24850M81334m97518K01872
59086b700372J108063N69735C094034I53006a981667A716201m50261C47273K033228
59077B380501M125588J702829r66500N60983J947141J80565l783017j274223B223857
59067i61278I13699K867884P60822R86086k06806a624421n928085j0302K69032
59058g293776J257169q4099P95596M91759a530318C285580K560208J782966k509502
59049E119252A484429D73105J975512J8262b29144A113693B44573b213679j142825
59040c356504A212211a282726o24713j619227J2542a542579a0517B081008O02849
59031B683857c63614j756011L98313j141748J010241b56555j960178a078955D04300
59021C528964K225673l27317n22829j497521p22339A247339J753168N58850R26534
59012D485891I22200h7665n11962j816760L17884k755135j799421m84433b562456
59002A820278C11840a059086K46489j095539k136169J508964A618857P76652p87428
58993A608081C10673a782832k347050n91280K264351A739673D9193i77058l18075
58984a295133j39489j064948j094509j98874C75032a134496k314440a232680q0703
58975a313383j987531c46428D767915A940970a341662k051730J358596M29356
58967a605440j448503m215328L423836E49091L5872K122778J944574A918122b060115
58957d826003J796136h38996A086763a542520l923045J146180j26043a468170
58948d49486m507196j958164J905609K091138m53j862586o87860e51116K51284
58939b99832j287906B254456K78027j052712a700179m062516J466129a277581
58930C42766J664980A20726a883384M1798R2180j775364p22388J993375J044326
58921a209457k044232J577739K90346L79123D704383J387222k008470O80734n18861
58912D245008A374791c039554d83108J04954j981670M78709D2489J638108J967164
58903C647761o49817P27336l13637J154033P08588B501005a027491B432783M594692
58894G027475n62004k198383Q52807l65779A608472b201554L87699n04301J87631
58885b130525J039872L75611A805836J303491F78512f515208p44545b774770J02930
58876b671840K08061A69025L233957J709882K822195O15918k112290K61914k966390
58867C734211o21778K426563M342216M415378k200917D704402i03236F44860K346369
58858B991229H71790j6633d91927F58184l19134b824697j190537l58188J432316
58849b941106O81700j17830P18296d97475j91319b06585j971689M49944C37944
58839C45604a022793k456659l361978l281480k44554d622749I9081h76851o81502
58830a558353C412683Q175j263947K266680L319796j979135A066999L14101O38660
58821B019760a017536l334826Q77877p64074J131815C586976K754420B436795
58812c407496l979083O29454J920629N6573M43165k131548Q31912c65936j137349
58803a503285k019234j105185j45744J98479j388459p90963b911502B003829J780907
58794C784736L29231k05020l64847R8244j260212o94841l16756a94533k34146
58785d28679k367257h93239d20305j579307i05697A68515h42846L93008A204976
58775c579273r38219B100592J071128b51162l411218J297684M68639B696858J509783
58766D206641J350060K652132k784131A621630i31821E40168a252156k950255
58758d202411J708933A339157N475634L27943k135163A099164J930378J644629
58750D674171B286771b693713n33996q64970r14114M30176R04976b31589o66712
58741h98301l708971m722098j446079K534979L692491l55516j921028K262470
58733d562053L68647O50946q47191r37813B883954J508655A327681M95551k19778
58724A603454h48891k320416q96833A059330J774175F70652B96506L669173R31516
58715D897195A060421a966859k72130I87285P51699J170077L52490A330545b700939
58705c690085E12118K433826M87236D02226b126935j41498A041403R68724J303918
58696C314045J686065j498648n82796q83662P49632J055221A090014l46153a188043
58686c147471m04483a557215B154484K257438Q58394j84409j998761b77475l156703
58677c434178j010298j038751J777307J261354k331541j387165K62185K858610
58669c042477A710239J448234I64166b11523C45913A44757g43763m157792o9577
58660d971132i49134R7837A115190J02021a927912H88352K185856A426983C21693
58650C34126K542679L846686L64557j623951k187860H39352R63883q11519c159535
58640e610652K536009q4832P34693h28019j240287n07560J26157M04878g40634
58630d47549j951766P86419P79491c87073j568865R03445A735583j57583J16962
58621A694962O8425h8268k765532n163513l742859M448226K389791l15503K179744
58612c057914A415239J613840A338108i86025k5123I66495J339452c550269l466726
58603g016995j472683k069419K362158K665444m05085J384957J317987g62492
58594A643763L347329B445506r91000i7531k203151L33567O92488C307486J42217
58585C449703H64441O89958L263611A006094d727950Q13610g01017k836836M03910
58576c133943h30853a80838B158342J478377r94143l11832R75958C39917a789740
58566a761733B402135K954607o21788R15535J979895k378068b013678k122715
58558d136393J505542D43738h40372n54948C8201b283203p47511I50631J236397
58549B187028Q00193A67076d27335C623062M271575j96513r52772q18621l24951
58540E601780J520488J156117K592978k036923k903025p29988j347398I10871
58531H22014J722317j089461F86731R42263M60214r74271R54674Q70971N738222
58522H678804J756767n37194D369924A238183J841713L025161q54096B259988
58513c12925A374178P00213F78110j10421J72395Q75018E21543K32036L989178
58504D742757J985522k567659j642862N407872N442888m239050j546254j290513
58496F292701r88514J371063L892636k206786k428812p05417I30406a58730k732573
58487b891303r77392a291936B047114R51482m09198J199881j108942N80065Q43787
58478D104189k005508B3300a090213B618849N26319e2909k621631B49358M548100
58469D797458B370861a093604b46550J0516I19009d04583q26712m54322p0959
58460a756576g94195l88685o57440k534041J746622j30933J010959N83404j607603
58451b771912C606978K514570A684487B27986k7314J125302N35659l21364E7231
58441d245125J165910a348369M67036m186263k06571a556233A59903i31119n78538
58432a509657l31764f57788o60827r04411e84032b50156j308294j216951C6390
58422I44212a0763j180795H80513K140314p78622K709248L074750j812798B545943
58412a313454j620707l977200O15418a652721j283369j348424J460843J209123
58404a614548H35805p1469N7178b047598j135686J201241A824872M626178q17871
58395E633179C92979a553616j96167j594736J121063o36850k045652q09648j903915
58386g619521K166511b461869g22833j373984B690M455091J358027B441174e18186
58376A70499J1022f2733B320815K908891B610247a903962l156592q49138K238090
58367c671602J495817n43761a65785m52539n338225j702739J269932b978161b90114
58357B672987K133117o87762q98095K06351J499213O50140j548595D03719d068138
58347d417623f16469B380442N02363G25293K451742A048604i61694B164220J057423
58338C221643A126223a774473j024638j771341j116078k275430m87851L236134
58330e213677h18989K55106K14084D318325M50974j591384a230977j795028a306611
58320F11952K793078M855856K254557l019555l066769j126803A322388Q10053
58312B132441a71416l553342k35811J708692B102440J674021j38598j677447D79939
58302c031764k524275f17223E722160k66947A447514J32821D05587a95430k58720
58293d54150l399689l583682Q99863h64355D341623K648520J595613K75542k117310
58284F743988C093634J103999j387845H39483R33676E41831a799210j730699a230216
58274H65790i57518k000666l119889K016340A06081L024000L526533J812273l702325
58265D766562Q06128M10213M29280j862168A845895m19600P24531J358534n67256
58256B942104j259529L22026P7154b88607n94812A086041J848902J198545J846289
58247E979777M511842k091528C485835j696051q35458J302804r25187c166720
58238a899603D15098a711421e9130o54527l343600n69660K37888a472309b97248
58228c010989Q49021B925761L04787j228515F70372g52811F6483J204087K986371
58219D256941j289229J831883J397050k938339Q22374J007539B111772c076168
58210e375871k070160n77816j656624K838070b940295d03013I59698b956184j511378
58201d467562K156129B922152M444609C434725A110500a657479j723439h56253
58192h645k29416k692374j011378J703299P36573B61037J779571P03995G40171
58182a141091L2502k451295J089989A940242M16203a668102m550261j560659j220467
58173h999489K769282K112514k075448K431326e67099j0210C39886J942806J02306
58164B384998J393813m858g9960l92467A4725J637272j98263J30043R18469J462472
58154C964718m29610j611258j50925a16115k348928k306701Q18582P36384j014029
58145d230807k845445c279141F43722a045430O8690C922352j153055g13353k239558
58136b952911a048194F455490P2655j612455A455753j00200K597490M497933N8788
58127H509764C862820c09867o147852J571823A099548J092353b04682l724741
58119c929423k981117j311861L998748a539600A476362M41810H18551J304733
58111B123284J694312p50576j097216a692814l338943Q31740J017204M36615E05701
58101B757380n47642j36400K316704k66681A515931a821969q35426j103301j117552
58092d878248b056150L56874M76294N1554E75878J329155n43852N48746a83836
58082f84708A455101K21408o53232d33163j931939r83136j91048D03881i8823
58072A176910C31302h32124A97950K483329q47476D6500a685022F47654J935344
58063B582998H40342a214523m65448j13821r04521j565626a009696C628785q78963
58054B749822a457630O71585M8439k396183o18525a291175D69698a652833c65942
58044D397543L85431A846552h16820j035896J5947B061454k87104K821058J029619
58035E625027A907244l80389E09330e0335F85768J444348L385904o71032j486693
58026C358295C43706J58611N81046a829692M72035o41855k404046K20678K23463
58017c959417a583422H27451a451000j90502A612287K406355j311238j220393
58009A487011b191153l723860j397034K523905B04758K829291Q22889J696665
58001E553603k1329k554653b026155m441687K095268a968472B333511N68565D6055
57991A778092M04645f37982q05909k721896j876824K072519k60738k558942l71693
57982g161465J461744K022240b29030A472603K3084L53311D96016b659430n38926
57973c198356l446478M08412K235546a807960A246620a145257m587318k077532
57965g810107K724874b056544j856223l531569J045343c162534J432882j373214
57957c102866L46210G89491f52078A02025L463065L89732d00221k59700H16277
57947a03292k149114L53438b55661A52160c365009k412751a441531D14348a212351
57937c101102a211149F76618j3079P03668J876320K09250j341354a148177l353380
57928d501557a502989H79390C2358c83952B105848J27298n60992Q60957m12966
57919B120145R14662L69458J444008N76940n67466j152329J585033A736131a906041
57909c51907B094360O097045J9484l426175A673333A04092J405952J657201j363508
57900A803737c26853l165254f47774B665160E09978d13108j702224k408422b145353
57890F07232K950120K97768a382900j834853e19376C911295M710852r70945C520019
57880B813105I73048a069194B37133a701339m9710B89296J241019K738976K369555
57871F638846B865376j316184M86755E80367L07699a33086k718573R8211P1201
57862b682247j31143k161752j083734k694588L340298I35508L876649j614444
57854C197713H86523g23842E28471L113881I70883c306989k74439J349850H2619
57844I79533m8373B19930j06078K142805J337489j309875j105255L208848J001531
57835E389395j152529a631762l509485J648933J65735M95599j680659k206757
57827f718396j785946P17211c563362f97706E25226P21767M520189p96247j538159
57818C432776j013488i74641n02345m84959J063P751A542653B27204m412J544706
57808A767498J260675L38798G68704B31870O808654N85919l649565j506220a740332
57798d040991m45789J245253k58180k527579J90253j10433J468302j674498O86597
57789e467065a240254j878782j207873a789165B056596K664849J612806o39936
57781E694315o79211k045202A342774B87853J508010p67925J122627M36115r53213
57772A633467A04909a638225k79581k150421j508765R75120m64322a748332A558172
57762A758068K633474M84909A525526J349280L326476m43345M97671k263702e98138
57752c584006j300300J804758a76909r9407E63840i15900L63140J06665F66797
57742D212785J850478k539318A184185K738932A207271a309750A139300b205796
57733f646344J563647b435041g93201E7378h28820l382233k307215L75837J058706
57724e083725b034286d58233n311273r92267K091021b116104R04868n29578l42421
57715b083235j146280l6884A304705K371750J472789A411964i88252O0707L17644
57706f09901H066f46523A603028k22331o20833J88633a921219j904D20415J209351
57696A629766n6662K796247J542136K572121J65830k978588j819371r67472b46543
57686G69987J586026R35173r91679a224255r24589k930223P9921J107296n23372
57677d415222O26622N75776K21300J422728n56713N90455D88668c461141l682416
57668g143557K919391J457157F7446M44711b348338k588381Q11056N38461j08475
57659c695677D63303J333192g34260j016906L10448d01237o45643l000033J005192
57650c041721i9085d5338F6764a16459j869249j372211J494212Q42394b3633B047641
57639h7859k285916j852305p93843J503368j280535J351864a477392e59751n8528
57630f18279o61759j480544j282582P59575J372254g50008j163021k29180E40324
57620C125188P16475l94923j286398b291680j21911a64246C279580j84341G3181
57610i13216l295910P9574J099769J358240H717K315070a072085k30050d34460
57600a611089A532949K855392j042045A310031a21050k216045O04787k659195
57592d391503m302831L313464d18588A486776K598981q73788A087436i43758l624098
57583d567856L72536J816398L5442j15588j326930A222776N443222j299507e79766
57573c623944a735271M41429j767703k026807j55163b086201c73876j705681A06158
57563I41221J945086N605911j326240J18555l610696H74574e78409h1820B840158
57553A019308c329217a125607A387600a18939p31295B27607K663394J505195j610155
57544B786041n80349K575629o77949E13264b147812j27665a56826C584076K894768
57535F478844P92499l361801A482485c353468a633939A314069o5286J601329j127728
57526A722384G70036h23606m545900a345132C831733M58911j475484K41293r7783
57517B958670j55101p34344p30476g56797l408466j395224J78302l60322j350480
57508g092987q68979K176479K386968f12698D62684c03644j863448G58382J633043
57499B391425n21794J823306A115184b11113l01243l277192J545120A912322p9924
57490A832398n4406N67544I69327d615435r44984J499538o38596J867230e94774
57480f68769m508076l60037b151690O68064C04353L190264j654242n98650J410929
57471B652654D29101b544001J237443A082114K32115B7910R08974g31817b80233
57461F032701j268329G34885A0566a060886H45495J862916L294316J146329m03092
57452F745964j986623A318435a44620k169871N98042B670689R38301Q68876j213331
57443C264535A453616m11114K612461J829404L87353k076167A738502K577401
57435D315903p02241p23060r76554P57077J140333A593235F4858K000425C64318
57425A442420M03853b140895N52608C20897d38483D93082K181557J253002j363174
57416B564467A255079K671465J040866m94370n18359J013497K27972B425033b439655
57406c839809r74102j151098b377093N9060j942113a633691j080371J265484J26504
57397a322074B335220K117226J212738j121743q88390b8280k667784j714553O60331
57388c750286P37640J343439B00004M2556L623977L763081J023801O63419p62332
57379H554506A802230a030191C26057L252145A535191a432685C159056J35258
57371C294314I76044b12186j939576J027660A05925J950494l89352b459880m008197
57362f468077J682724J693933a310063N13134b17046E60563e34755j420619d82342
57352b001823C460626O235803l350034A52524P26332g70734j719439K25l60993
57343b850941Q3393n22720a167353A928046J921992I13554B589P60167d09282
57333G49425Q21464l610J578818p55718h91130A538315K331003n70711J84296
57324C482903j292698c642998l581586J72430P25343a942291G63998b268683j677718
57315c946401J273833H87228A52989c498722m373571Q25056K324505J439351B698851
57305E703847r45573j698334a969839h75641K9715k275039J222466d31965j416365
57296a848330B927798J720076j772931P75145K354886K030481r83984J098049
57288H149520L0057q77831o12836K902101j781147C864549A301301r1978m211
57279A205112J439794K473729o43496P49727k133808o33317J077623o86426a50409
57269b081920J036367B377043a83968o057589K3609J129019R65113K008755N91217
57260a523844P0752j77758k307404k743536N31708J207305p25985K667029C67226
57250A228741a672778j672593H16757J515624m5194m60445J910736r88634C94784
57240b85220p80206A20902f7570j40112C25741K322518L030547K470015j96974
57231G951847B769938c571605j144388h82890B687015j295454f66716H79702i58417
57221b355228p34143j369478J526517i34519C328469K530019j912438H38384R92340
57212A830724o37242j14910A22608b308981G49261c90289o191966n090444j47048
57203a1819747e643889a407246j672168l34114J571509Q36270B553122M00041
57195B953163a795666l311844J748808E04676N150039p0710k391282j88458O29787
57186C634052M77980j875026f4263A344168K019797L327597l341202a556308k90260
57177a846568j652688a166623A97297a264340l08782P45041g255j902929K94997
57168a615187A553869R94649j251580a897526k059557j95659J216083p03977k269483
57159e910119j527551M42022J553319K43944K40706J507608g42617G2699M32517
57150E05216f66317J8830B709330J965405J673257m07652r95430k019871a180561
57140c599928J002627j539997j200133b519109j510091l205089R493J197689b038063
57130B008133r4495b765531r21059J07027a393641B411357n81865J582122O26289
57121D037903j034294j17932r55844m93999K010114J996725k538753h66631m252046
57112e118677a921333E35387b036606D73088J932823a293822j196873D35665K332036
57103B767701b81035k895852h43907p81471k655915J844434o15104m79297H57426
57093B833963M4690j382574P00754J764902J154246j767288D49949b195078A590405
57083C689933A235708f19477B170291K039075j393143k15354L51344b153629m280135
57074f433764K212659N65148j778614j65508b566707c26759k31193j490258J82517
57065a865693H65705e26853j857422c00380B442800k67941a363637j294375B05601
57055C55406j49248L761346M204513k519445B228981k45227J089173L108373j381285
57046D800015n54965A948934N32773P344319j904046C534112I98223N2923K367835
57037C418981J912532k383987b69618l151080p16599J939360K12860l016517N98891
57028d402703K055376P66183l681084j867018J836865J818075l73203J044255
57020b803254g90111A210694A19817a370680D63058J968121J119632J812319j586237
57011C776893i64958k365229J270882B94569K953861J896940j696983o14457j372869
57002A461061J405917L700083l84767k371371j855742a978272J88881J26941q93730
56993b556180k680k11177C89285L908816A881757g2824A367833Q86593H83829
56983A439270a350093r76069b63782k02649k61537A25954b46740A571156K943945
56974D515101A340600A99197N836161R88321k184890K836743k337709B611307
56965B721253A126399l53834J054806a752973l924562K029349P13313q83362d26775
56955B137614l70046L59085a03117j829906L63063H78115J640728M27609J546879
56946D493331n18662J404772L779916l956971B346351n0619b221499K91121L7764
56937a892614N32276N99402m421189r01056R59366l111802J937612j715939k836727
56928a0850671q71321M73402j05406J152716d998884A055442J99099a420679k589250
56919d009929m27182l27435J157785c67800A602c938929k338808a012434C091722
56909B832449B24834O95589f38288j414831c84360B018467K685475J618671j755442
56900D567171n0840O00735B326728K395217Q73197J661442k4792j451651K440312
56891H220453R63150l548327B331936D82091L327683J238031p91256j553570I1669
56881c329180q07646a847476c71194p59485A212814b70925C35636K366316r69179
56872A732773J077876K486479j788657A293059a57432A283232M949371m58071
56864E774532B036434B88691O42346c786402l347807J653800b269291a16567k157531
56855b274098k835796j172994J890197e44439I96216g21967b91673A645917N242667
56846F888584r26121B677952D63629d04811C75927K22261a84241l901849p80911
56837d867001K185580C6942J346284B5948f39229I08950q2332J34514L50597J261024
56827B572753J12065J240675j337262L48523K203039j686734A0757b549624j951288
56818d500912j911636c117799D58148a904552m253577m231934K617729L683807
56810d088527k417728j000872J36738J362151Q70847J764105H15591l26188R10520
56801A399923J486133j86067L258661R42796l77658k832019p03344A138811a770008
56791d96309q5609n36608A61334J492368J524899q55339p7411J805564j392615
56782B658800E47854i49135n718297r97495J750251J517022i58745B71479J150717
56773A422196m5662J399991M671928o25757C149662q14238K97355j238995F80112
56763a290909n08567M07704j393907j922501J869716o05026g85737A950458H50778
56753A3778R98773K378975B47160a642257j618384q95070k427611J829777a18543
56743c293328j605308J042077a293893F81651b22651k199975R64774j155346l372545
56734e985743O79366K153823P01018j647755q07292J276060b5727m594435k529948
56725g150110c406513i52485b84104j961369H3754c47505n639818K647151g47381
56715A51275f23715k064425J247958A779863K089880J262861j256922b351680
56706d045185a66643D170658l42932E38668d92136A088068f77244l240972c28480
56696A605177b171010k166348K144294j352428O14297a383789o23556l561981
56688e569326b069907D106274J479841h46009j896058d39857J99525G85928c53835
56678A98132a837032E19643M043788A318980a473314n52053b74887p95924d39021
56668a364159k019433l33786k61775k364360k426517j428104K906013L605610
56660c686511d12844B295133A104673L92776i447D0832b143177m4752c91034B819211
56649C583570j548700b365943j347554i87032A137578A27057c509173L55610N73127
56640b580436k40066K14741f32911B591615L708005k295800b558j129484r80918
56631b112960d32250l00260A637590B65621c635246k938011J613191r32870o07947
56622f500883j55284K429311A35075N105024J00072B330509J160487J597457k137840
56613B950613B47034a026225j750031l707277r54231J189951L04665K652991N47238
56604b742919h75959B378999G03812K800371j625384e130136o59055J140032O84818
56595c964341r95043q74444a567831H69826A15440g18939D90977J323959j31920
56586A683016J3273c079339p95392a059158B388341K671225A261268i39013j669521
56577b608534o19797a082243N05651l092343F10438K338724j311940L05433O50024
56568B592679k27751q85061J386999i14353k964634j458024a867432F95717A94824
56558f48439k730331j265524J444570H71791J563038l55657p25877N41446q49861
56549A044880R56257K181214K33280j474596J973520j522166B36803J25232b235814
56539b274092A671406J908875a07570m003366j805819J12651r32455K272431J943188
56530b520940o71369H58966K398554A367817c522654k373603B191296p85068d431997
56520e478561l699229j773516e349694g0544j886085J19210A567231N107455j722633
56511D952053a89851k182808p82048m92859a750007B14938J382669j63172C0316
56501d96311b34089j731532m138706N92358K530912J389291M05749M50909C59060
56491H66578O95385f22776k624925O77910l05506m271331r36612K189395J054827
56482d839018K325961B235050M679704J490715k857888r13574m49057j996607
56474B188343f56707J72489B155981n87922M81660L756981n68087A440781l7858
56465A402923K155210o55313n52246J79977k02545C25581e28832k428760j863617
56456d821209J18979Q83643p51818J877606c49275E24824J539552J035929e79258
56446F63179B15076J325066J00751d815759m967153J003436K823820K119710a708126
56436E33415J48439N96211B97192P31165K905005O96861Q14646B206657c195733
56426e328771H4711L161193D55064c256739a202077e72112p49298B802817J708323
56417D511140j485959I87407b477689A502368K038205m65939j339249C24407c065
56407a03353k684611p76526O43705F07980K265981m03075b12054C050975A163440
56397F2755L206651L74549j776288b207515n723534K15713b106011L10456f99802
56387A917213M32534b621641j535035R53799j019152j55832i50708C588742J046177
56378D634919O06436J884752B461556b498714R71878l53967k32737o4066k16302
56369b393908A021733l68635l0669a448087m938410l26770L064024a517363b35172
56359i37415A22704c494652r66646J418142k155368J216900D39666B06589c251638
56349e700784b610862J192214j645760J29774O60900k323912k011622J172783
56341e436485K207375j340975p6423o51875j425042k786062J711447K140517b022631
56331A512938o50179N10744o4541i6594l281508l803859b827491A761670h02233
56321d837288P3092L90002N40886D54140M669349J628730r77999j856950I55828
56311I02904Q10336i46752m265357k079665L625704B728866j109297c34700G63968
56301d92777E59887M805716K584088n83393k719669H45514J70442O47096k17244
56292A445808g08434m02800j09199r94261P01951q26845L47665j417118a33009
56282A634081K96927H19382l12459A55340L800744L473321B965104a350549k444702
56273c795251k539261n98252b457568B883805G25875J064943c51507k689454J494922
56264a546039B283848L50342m65226j63653J695979J989607J054897k534659j505037
56255B706098n2426j76007f40920l361859k63102P65647a218760a00969B596395
56245g89869l293552O62003a221840p33125o40506p38250J299702C744591j307145
56236B437446N30093A345101a87915k335736M06319M60745k022518n47307m39165
56227d665577J082465n4109a634121d44645F73427K151225M61585a349693k557383
56218c907076a141860q5398I43200O23903J384831M64580j188557k34323a334827
56208b776808l101760o78856a030953A231278L874620k202393A428911r3427a488142
56198b572508J121478A563282a6489A336779O60163J81369L52779o7881K72451
56189B735660r95163D56878b354886k739134o02899q0017J203742b061414m11834
56180b473248n16911Q73746h83630E74093a53856B51886d646337r22647b694241
56170g10418A725890P04597J296326j03189Q5415J261007j504343A163909a05870
56160A003183K832457L417578k844484A496121p4105b641342j391768j248827
56152e281937k315560k078015d236866a441371b0083B131797L80760A184108J140899
56143B325007j42906A056349h96464k498930Q25105f47535k791908k939488K536091
56134c842840A538504K077037j111159J960921P1812Q14806n92845A243992d247516
56124d187147i81775L82403H34089Q0940a070976m87712k323842m560611P36166
56115g706975L359062a183897A021202J466163k70466P79159R43928R55188b54367
56105a781312A871865R11705B54574c899056J155376F51545J323745J266601j415914
56096A825977i60189k511844m81206j17664L17884j023751j931161k39262J829251
56087e117942P98073l038235L501248a220738j958493J394899k922948j467737
56079f175017b633377C07453R361a445966n107555l173034c736456B196798K152017
56070D348815c3062k070877q02217J025480H35278d44157l421553k12593M75850
56061c602453a702307B123303J009895D75471a091208M43688D033549K078666
56053F112215j109153B065959I67262c173968j090080A667153Q57963f01316l743001
56044d344317m42399m807863j688772K129034K346330j257492j503301K397351
56036g171429L041246g37430E25464a396755r69526A429808N82471a847200j083941
56027b931141q6109a416734l673140l459251M213976B766839J107927F31998L426382
56018D058380J468949k558743J250989h9116k486578A313800L78427K75093R82280
56009B949600A131144i58858l114796R90309i53063A245091b619139l672906n72911
56000f864956j981384k145090p33143M708137a667217a22434C8633c83574A564693
55990B269508i32979r30530J1884K87910L3391l459989l4918J934887n96132k63707
55980c950183J616929K67397g40118j254766j347302a017985J13998D34959b67696
55970a684604j425962J354464D43157a066315F34944J608765a119107k448233
55962c567340J689734m15550g45445A18391O98210b666083o82603Q403l006008
55953f346291K805049a409550k129597P16610J371116q42519k321623J169838
55945c445725R768j538667n21513K052461a367590r92909l471293J860842a822450
55935c270941o41134G9276N028495J75553J474082k42614j135688k473780A308153
55925A071785R7122b877432k212350m45845M69440J997736I43982K930465M8536
55916C922983A744471H14131M40802Q83132M023791J551940J22768J319953k452105
55907F704412B219690a938385j389154j467037M42870A324264K92040d16571n60593
55898i77164o54474I48151K584499l25929J240432R32960A863179a673729c48442
55888a067230l716765J340292a336729N88878m20787k169283k53513j274114l30402
55879e195950E61791K833225B46168P86947J922722h6302G73083h14970j950651
55870b765621J040649M22067j884844p3629n40614a612577E90525O8888b036688
55860b284853B460846a76743j807720L42503K30123l53260j648781f43124k69423
55851i12547r67422N72980A44895a310033C63804j58001c282762a285912a17323
55841A35450J147607C8453a322807c20353j64758L6265A589053O205733k19575
55832G575211A871690e20660A57339a311865B76501e12445j582056j901294O914
55823c988881J505767J185899B97432M03518c021359k360285J549921a421466
55814d70154n25962j820540l45084a430512P8401j984174O22968C502967J79540
55805C682507j817477K907697A204180a630321q08517k034466k371800J350775
55797e494329R44541f59848A674582J973369N62525b358040o38911g03543j889681
55788b593224L26451C66894P11600m81508J022356a981196k019975M03805J434949
55779b162417Q27515m482370q52249K317274q61953a935589A24924a320377r66609
55770b286986j103912a625187l034875J045217f67736C117892O85870j012394
55762B791368m66394A14982a454958a02016m66455k34740n11428J53839M50096
55753g10704J77602A95794N065654K26826A022415A82457J579329L16793L57249
55744B435828M189105l38099d21261k170890a227572j700468O87327b59637n56279
55735h15916A820305J226446H64979b268849j194228p45285J119212J387304m848871
55726f550717o469567j99043K962313L92582n18132r1600L970471K834180a571491
55716B016735L575066K348449k433500j540919J249664B021744a039442k304694
55708c344136a582223n84256m77373e9043B041349P96726p19490F70183J82854
55699H53037K245511A469303d444666a860406E43371K50479b7735j608630k473098
55690d109463j33855a740640f02309C564570A686934Q0533J869970o87565j413891
55681A535981K063075j656699D93892K990788K997852k430592p15432J587666
55673D924174J77694q18881j274544O14071A532013a927963l46138e29020C28986
55663A393357j4644E96391J229050B12638N52744b699664j38134a01214A971343
55653F929794j096499J303308q83173A970255K771522H97628c456683k108163
55645e564846K324301P65563A361701J108438g52319A071476O366696k373879
55637E064293A485574n89483b93631I6529M451986J269289j86880k66917p8999
55628E285008a32980k302399n701850j911515d044400A13012K924240K620113
55620E657365J24040k725040a019462L17630B040189b027649j510844J648285
55612a890208i28348K65582l37476j480908p10587n65337r76678J379493Q15656
55603b538603C02407M421256p8990F32198a400031k286928P97218I58108O55124
55594A613232B68370K135528N89616J441132j409763o27172p98184a922998j010153
55585b933151E97750a83791C90293i30543l180206j520532O48211K395827D43828
55575d665A777862K096193I44809l07057B58018a148294k0681G54354J268384
55566B022738L1641J705770Q49275B074536F92146b44685j965899j267509R84975
55557b493118g48711j420723j50407g19677l110394j486461J693218l08236j832430
55548e763980J769173b4540A23248a835580M39399q51998m253752j694154c626348
55538A056275l46064N70903c54746l97505H13571J651559m92744O83881A199289
55528B699507J136694m37151a687030k900073l63871O41482m13337j225336K313032
55519c635133i05982G81853J67426B74243H2573a651752j971460o88470j285172
55510e596854q21922M44518K771437J035263b7660C575721K983009j725706r40502
55501C892522N63088B128795M61061J594226j247638m90782D97433d483543n309471
55492i793014j11988K761436K545872g41673I60885M00781e3996j566309a27636
55482E02957A34673N116374P86303j336625P56759j511355M47405K454457j674414
55473E173577M52584P43341I04091a244141A572809n75396J307066O62868G07727
55463B679320L331117A797145B97934J928401J64980E47394d86203m093814j737331
55454f317348K342448I22442O19087d71338p68527l284778j424147K087066A43104
55444A973160D53322J401060J513083Q6722I89486m41918L975093K689188l21683
55435F890166C150132e48038A975237L213376j848297e05897k326112J117463
55427a714546E47384h46227B135648K16121r1893J80506m77883J39271b41612
55417B76323h73743o40636L29345J3196A465463J47656K09720J874644j351357
55408B346126I56289L490882K87092j309539L65673j394922j165088c961503j03481
55399d064984a680576j515567G20674M843831J600629m03306r70694k615053j378094
55390A797987c10989j201792F20222O038861J084827l023913k035956k66022F15503
55380d76889k249056k826401l74956K180430a596950a55685k295991j733137q63103
55371e047916b190848C146334L726582o65523j154038O57328N90053L432216q89997
55362H842955B995357o46018j037542a172822j28507A802305P87631J130654p82279
55353B938311d63646A237081K961482j19114J85514o83537e14702j940504b50824
55343i15603m10823I32125J200814f11969k886919m326403l377439P70211J809973
55334h622546L360924H67946M034988j308071A162957M43478a773458j410915
55326c184373p83320B108603K277499j339162O89451E00855d237195h59316G67158
55316C754858j214906n23388K399166M315941j043058k021647A713212h00188
55307b656935F78095J937410q01849H19356a291632m032816j759822P86496M13775
55298e883999K559301c52595G52252J648828G72964a790218C60553K678891j270273
55289A769171m71157b52447l769004a429211A32907a275297e10415B707269J168597
55280C875866O26321j726519C97913b186278l899655J802923j737660k185035
55272h205705K619927q33590J579902D14022a549748d49516D93724e39173l126347
55263c665520p04039M79916C88094M24149O27935J438623l58734a437946k968773
55254d406719k344203o80175l19007n5248k223857L781330K594530J566353r86008
55245c073004k179511J885828h10604A219764J169659A048916P15372i73158l76290
55236a349448M36901k313852k80217a487193e4519k18853k144847B28870J658377
55227A887247b467019k562982J867435c5203m71231K40126E230867j76655k474444
55218B579768r16560k10091b62108j032824f46912A371657f10821A009198J952505
55209B961703q09984J439180l41765A311139B3483M01272J422503I08869c556505
55199d743555k746283j115790K015376K164927b50903j180409n55788j3754B25090
55189B989007K727684o48563B512202H81639J500277L614746L528891k126510
55181G399043j166918B273873a916576j151132R71435M79150l059600j070790
55173e747513l6941j904007L108986B42805i44847r00567j108240K4380E15494
55163C346007p71950B11415d1923A219386L145843J415962m63022j203607i3256
55153c940532K6857B15643h10330k188167m72131a288232K73673C37205J387717
55144A724922b06087k323962e84250D225756K936384B555558D70123J734835J782720
55135C987678q49490n22557J586622j368512b264110k45085a034816j470641b19746
55125A490800j72561a008464j514695h1476C019032G53169k26742M949833B587445
55115a428814I16715K893661K577077j585117A168607k99603a49325B037709J138071
55106C175780J215358K54445j191013b65274j462254p72838k018956b097199o40265
55097b737464m133396J177570K043718a708419B670817L158668p9944j839563
55089C909978m01523J495656B311953b08663e3046k74538D61873J321580D96893
55079B491034P46234j320722b57374k810977D98464R66349n45488L155070J074485
55070E148880r52113A691837J37078J260508o9121a759686l671776J961993b88265
55060c297815N89720F97382P9013b511579d26455F88931c353954L22765E25009
55050B99110N86311L431888j356859A27469K163189J812481Q17393j394521J766992
55041E293003j809867q77983j161039k93009J471676J065254M46388O12120K205198
55032F951741K347304l011805j973906k79727N92375A762435a500019k09216E98611
55022c348780l953636a645270G18976a752258A480831K713380J410946B691390
55013d100002k744646K059491K064548R84848l290552J05299P84079m21363q70301
55004e428599j819125K059082i4709F43160M64591J777631K692826K618516k903569
54995E293155J23455j568530i57160k763440a339643F71849N44381M150972j362001
54986D005201A33730b822184K99170c97711A533192L65423b09364p13497k55169
54977a178030m461315m180930j77678J741065K762663O80972b141148j073138
54969c214286l08952a458496f91272A252029m37499l55158a086895K0663N2894
54960a013338j18542C505243n64837a137473k165943r13769J761582N99238K94496
54951a561869I1277L66147J041686M405524M392450C794137b00770j921849D2387
54941B680845I55080L21874J986474N35307j344789a007119n632013k461553J829794
54932g270891b148943I41556b948665j104047a083061F37195K724365J295867
54924D657427m56790J563477J009431C238826a446081j512610A993415L63810
54916B357225F14462B71786Q12153L602979j109085d8974A160771N37246i84941
54906b774019P97701A125110i65163m328252J187149D94914K82800k20595a86624
54896a711760J98488L12862j554597j696058j849210q52625k31778J91393K079928
54887e113357O52757p5543J465450k02235j209524k809913k588359L295683J949877
54878d635164j343989j306054n2156J295699K930629j272036o85765a669535J57745
54869a511790M60642j959988j692864i80572G56281a606042l538046j304315J917680
54860d530723c37206F02621f61568j50565K27351C31773a194110k136720a527734
54850a677846m103254J004256J471219j501463a101618N11487K11771j058300
54842a436660b17405A434546n18524k39459d42186I26717c34186k945816R0507
54833c189495P12476L50735R29627j49427m658278j430185N5953J408585b713943
54823A955794M157107J07397k762284e9961n027592O44612M61023j163924J555795
54814c590047c29158a59611j473456F96562J643034d24267j732317j200066O65069
54805b691581G81711J10121a57101B485806r49542F0865b601061j988663k079247
54796f668971K196052N76903a908536B022481Q61604J454489Q15836j811106J0336
54787C353640D72489L878899K818350L61806l101297A645970b117450l696531
54779e813981K777834A589521m51406b409266k443606J519457b16938j23939B21941
54769A286175b327414B24193l1178a485897O39610A543587J916295J627020J948208
54760G035110k887395A630596Q61920r65880F14586h83634B37939K815059J692848
54751D745846j752069b231397l244176K088218R14780i9777l85688m36053j147386
54742b068904h29308A883193G23350P06916J499860i6575j838583H44328L0535
54733H74863I8226K211565j011581c29103j524305a02321B398189d64068G73308
54723D243139j282411r33754I500b229378k664757K093247O8689c34546B615543
54713B579705H50595b65099C602230K364019A471212a793715r05561O6197H71555
54703h67073b97256B980568J318373A223567l70196K055463A010227i76723A368938
54693E947992j951531n9086J248643o57713B110767f56290j140805j717592k49147
54684c763834c56090B765213J170160K023232j09123Q91686P72479k860680l36428
54675D316539p99325j272554K980960j61368k283855J213917M651451j357824
54667G287941j993990P45861J587088m09646l118619A710278M200K331753o32589
54658C413642a048997j257665g43356a57489E26271f63117m01704M39331r09425
54649a534915K78951l904106r63381J114235J117592M66074f26701C280476b187340
54639f003697p87232K648108l150853l778989L675142K172610J38789J601373
54631c484749e64500I309e20450J75348B164109M230049P97539L027628J061852
54622A1281177j885832l83063Q90955R43565m691445k605480a992407j960748
54614c953155a414695A6985J911025m64966c05995n77260I88441K503146K01085
54605C692672I49213b407511k57529k873935j556623J661134f54616j845772k849835
54596e350223j548033j020237Q91477J780795m13527J262664J904630N26969f99260
54586a084247F02949M883457Q7008m25119Q84925P47661l211931b74636l0297
54577c04933a7259k104894j02462k077147h31552A401056o23606J417305g40000
54567b913923C15427M453663J270443B038814g1095j51075o5036a19783e3674
54557A629256Q42558J939053L500028q71167k946746e3823k331411l7010m37853
54548b860097j249814J722668m26192l28228n31187K36889d20559B21575a047978
54538B22749K002430j85461M6226c45430A418968K208176J283615k99154R6472
54529D708077J442849J140843j800667q52491M842988K242181k502707j147113
54521H073960k522534B346357j137862f83333o66020H47199J855977C77986J809185
54512B187171L117881j226713I56384K43034J079568J137043M75986H92656b048687
54502b695092M62812A251448L909408A638525O20823M199526O46561j640780L50004
54493E814659L341176J00028m465448j554438j441710E5395J576694L21296l41644
54484A611741G82624M95611M765422j867641d479314p55828l08034R680J496470
54475d037026d44836B054995f5934H14298J131066b27553l290261j489054J248446
54466c758422K95507J485569A544916K298841C20932a052226C522362r58268e136555
54456g000699J205873j216168J273527b596434b76835o74385k429017j64908k239125
54447e784270j63957l01596j840338j808280K091105L540899E4864P43228a2506
54437g7173B044365F01697c169265O25218A823458M234613o93181K197251j103618
54428F458523A861143j19636K741068J441437A770002c166880L13487j875427
54420d728820J607705n18543l51036a594311M12702c96912E343568J159780Q04190
54411G307538j764038A897645d343588n547232l62301L370729c099071R20012
54403b179059O84971f51026I94083B35957K42779L222839K599167r01723k504120
54394B894899M08080n78115a259509j462479L12710A617834M570164J165053o40845
54385F712206j166397k333141Q95467o54658j393196J01144K445481L5540A465376
54375H01066j2157O54247h72487k601493a269047H38121K727066J218750j386353
54366C397584n62648J815928r8581j569424j065118J608291k63050k97860l60743
54357B604379j46383A139131b04624A448541K684395A630571M82346p0812a482671
54347b011259n64653a033081C300063P08366j142219I42130m55668c8616j980881
54338b019497D3074J845129O32932k96555a937127Q92948b18893j648545l701282
54329e568720r22905J828383M34923a334988A352764E61613K67867k93851g51092
54319c158656j313419J763810g80632F97119b843970j471357g31604A396145J314732
54310B710877j194572N23868h97587m697144j860662J072451J462034K444870
54302b476038k260679o9401b192238B68243O10771J753515G57045J306126M81243
54293B544414k55125N66364b83705k965596m95175m05924k05420N87727j071030
54284d839123P47570a735831A631422a355217j6996A79875d522j228138E97987
54274C461094K453538j275710a05700m164735N34250P88206j949377J097313J446989
54265b353054H45504J066674L061965L998203j675884k017711k065127r2592o89440
54256B431592a248319k086417Q56801l122703k113705L059838C00775m5606J090471
54247A345640K603549L84919B070234j008676D19102a774213J49414A053985d07162
54237i54140C091001q57177J726143J652112l10666p27141a597813c93340A537634
54227B412544K929547p38878j428941K53815I96647d59765A107953l02277c85354
54217B213586J165998K558907M78224K956473l99419k07185m069137B082153J253284
54208C335437j411968A53874K04296J658554J586713R01770A868287M32150j00332
54199B200105b084079M29983j320465j369443J247326A569944N051497j08936
54191F512505I05456h72168m084555j597098j191505K268362J771534j42122k942508
54182f790060J321815K456931j410994J520526k555348j346829L014079g50405
54173B027950M14074J622301Q79339B374983c232723J310989B114395N05957Q90728
54164C511080L107097Q54044l255571L37450J65241a04602j12303A256164k35330
54155A020834K376226j636178D36403a382121j823198a369158B77178A6120a611623
54145b020357R25031A466722J396805F1514i03386B224711K519345Q50665G99610
54135a610745A397764K362415M28737j427310M348832J779704j9035J927234n22605
54126A0275736D764584k178270A167468a973206a81453J5623j331982B960830
54117E486955A875488B01972b385516A989290M57930J523366j389304a013722
54108a990747j02665Q63879e60979J7876A451400L562300N31895k737103j051095
54099A757397N16711D57549c00439I32548k09125h47996l117277J385474e71669
54089I2692a14034C4996a456190g640l54752n446738j459965J079606K677739
54080c511750j794120j753701a623734a33463k751C700385N27107c836450j510266
54071e346716J035025j197959K329906H96783R19305j31095a593396l22353E25223
54061A182551h73514c41073B823294A262293Q66218J908351j217263n77874G2262
54051d191974k27652J707756l347249l267560c765334i70394D37391K576251C05530
54041b714297g45450m7739k190977l52298A75632P786659J028582l75503k26076
54032H389294k732098j872996K222668j21701j636652e43717l43747B077644M960827
54023G038471K891896m955250A718218a534514p79172P70677o69427g34026I1784
54013A237891K937119j916247C16130A2505a986494n11433Q84816l202759g78645
54003B619770J201241M98850j01094I92693h45012A345692J083162N10486A230406
53993B93898o0836a36601k04666n73860M17675A176786a42238C0188K068726A044734
53982a848820L73806I83403J770708P12543j438704q01288J223004J652871a89543
53972A131052N83876d33610j423764l91703q60453l012533j359323K132555a847392
53962a077551l526663q16132J769619a286079l006309q58553g19146a71215n511738
53953e682953j035197c119731J450849g40042n82904j155972K56202r08485J76063
53944b955138a015674f0557A859409F61555C2057J370436J747706J022342A485292
53934f56941r07727D70896J920728q85433E39433a599476o15063P25820J06299
53925a382420j141740k683027k15589j089381j67256J427213J001838j982838
53917f233200j12214J3084q70021p7437J414313J766776a836839m97371A684911
53907F534340B896431b82227k372426b69165B673473h338l229830k097481k831274
53898h166923J408216a185624C334623p55092d19726k7004g7653G56832e48736
53888a60212q67489M3382A60434J507805K222320J70647J07560A618998M77394
53879B096392N27635N70466R86630J28450j363923k98277A93943c785522j012465
53870d797987J471123j57516F98710M481363q71157r78639A399729M36344K552786
53861D388859A458700a969880O38927B580044M52713K620346K093556q39652l183722
53852C723285j831698q56803a721582P78672A15533g0685j057702D69623J277141
53843A746764L17581j79176A3294L51327c02207n63136C31343Q46536C15320J475511
53833A790831K360607J920629K096440o08944K21468p93531j393409J80959l27013
53824E448037J108425l25601G97045b383026b85883B952048J406954r56536F16549
53814G50858J258022P692E03637c250926o47742i57770A999222E61187c754095
53804f548713J256841g20831b08688A212442J527744j072533h00798r60395N68882
53795a192311A977114L142468B512568D19183Q1775a59455m94524F86071J203811
53786A889882K500664j998626h5377j56509A756295K074605n43794j560614Q30431
53777B556923H15736a484785d81834H78665a860972o681726j620350L666490B33835
53767E171884k334252b362568j926633J442937h87456j941361m342598Q31772
53759f339643J759064J84917R03813J307650K37728J32483I71210Q91514B41931
53749d049451N21639n88348J669751a55040A6262a50742A560149a116040l914135
53740e030175m29001K102429a283815o32887j49749l5589b60583A976037p36640
53731A239397Q37233n66058a061854I8768L647613K66877K668188l07301F31756
53721b16070B773898a045463L00417j145359m126482K489691a684937A777226
53712B306683M16684P2279o9387i01020k085484J029601E94352J675526o88770
53703A581108b565805j700049N28430J856031A509159M879119J14283A981678
53694g84294B497052K932994k546084b67841j379245j217946D45860J722054K54400
53685B422314J92860R97585h87933k952916a212620A274428M569595n8905B317194
53675B95652g45945j793211J197877D28831b290770J09854E47220j79276J57539
53666E25483i74494K45889A81076N990543J900060j665212l78518B626800A47773
53656a888032l46463B195735K486218n57651J922844L90464R96157k097386j981263
53647C355118F19737c15246B186393K153817Q74570A085236c51367j779626l52944
53638b483937B082164J840502A785161b150352E40020J226926b786440k027241
53630d813681a968975b10226G00477M17556B96246a784647A489648J711986J811474
53621E013108p24925r39799j441558b054556K75455Q48023m383154n522383j026211
53612a1862826d185962c52558k454115k36479j349371k118758l96406b992223
53603a040673K8399o94340j408137J116400c18098k87093M1574A413305K194666
53594C607971J951516J192333j920637k254179P95176K93006O64235o20232j4074
53585C695115M394664K057090r5036j684014D091093n38394K383561q12694J272646
53576F396212J877750J532989j809567B137038C08156P24664L926825J509462
53568F469107A570555a988802K59569M56938K27547o28133k267610o0477a209890
53558b296013a118048A331140b6100k786559j720241J394405J116387Q22279m57257
53549a657086C12054i23052n9175A048603b668653O15108C03630O33072l81316
53540E55386O17838n52884a089570l804662J460566a546904p0948j8802J74905
53531a461749L08134j722582J154211H66205C18381K306304K476068r98653A854910
53521C215366K006077j451371B46487i90428a28865A45128N47614a237119j095117
53512b332236G14299g49995j755891p67091J250734R23439l06202a94784A280674
53502F73021c99867r97190k941578j88325J611002m25080j55574q55049j539099
53493e890760K243323p78201a997222A122015b981875o87562O6813j292517J657965
53484c237176p41142J159273k003803j120353J814337a417042a07328r76548c05207
53474A222953M38087A67455b075890k114260J759765h84534F18948d85938q84578
53465a370516b57765C166037A178087J219908l25434D25164A62729b415283q55511
53456c270794o41272j171948m18299k37455N32335K310288L24826a72090j667012
53447a839102j107981j370059p88168J417634a457586B607811p29093f23698A836376
53437G187175M62514C504065M74536J85305D50227K8734J768448A064084d29794
53427c021370R65595i17056l43142q85652n4188j824957d60854A577193J324228
53418B901421K39839K727901K421718J041492m648800j980132G86911L37087A87426
53408g46559r24811n74563G07112l11708b625462J4748i73372A748959L340545
53399E089504k072884a912428k402732a289977F21489K564821K943803L38734
53391F468847C030988E60089e41318j633010q55710a387628A135318J170295r90521
53382A315092J567427J384263A220753J575589R92816a026934k283513f64717
53373c96025n436978J562895G33833j05262c097454k323215J995775r54639P26764
53364c652769d31296j075743E64249N643859J10481j447185j843096b96997A367159
53354C299139M32868a176661l54510C941796L252368k718140E82803P71479J3336
53345A367618o79232b15613j767960r27856n6947a464712A109581J249291A62668
53335a820996L9162M04252D08950J58743r8373J255511k24646l73181K257843
53326C384847A105246j48786J265156N71709n57002B73631G5836c22887j172351
53317a495238k952786j689727a367804C533077N145871P2335l944796A019317
53308A119049D66030J422133Q65156M65614L14970P0284E75688a512107L24431
53299a187676j495022K92711K75384k328565K184474K86416Q7957H60615R58208
53290A818823n59115B50417f60697A52133f718j875136r9705m68903B88542L447823
53280C736365o40185A094007J153858N98347J933809j742551k62870J787240n69932
53271C991908j056882a976461Q51116m69627j721308r31460J47422b57882C884491
53261C108887b024568k027981a827548M00951c92068D577719j130022K359533
53253E807230J156270l397659A234982l9213i90662j694538R59306r3755f43112
53243D84840L051112r53533B38849a582125q64952J098146N05984B390344M25694
53234B816038c48418j50271B33749c565691J249116I95525C80570a024694j786740
53225b811434k468242k386952K667767J182763a158538A459777b358855m83822
53217b842677F93306L231836b52198l859184k724608K70617a050131B158998P45885
53208B904883J002147K983550k137999B51306e992042l569183j888293L721127
53200g728391O98237j107079K835786J107465K047894j561953k326174o70178
53192f704393J580125J765221A092365L337848j648098H30710a169997k636687
53184c806684e52119n92019j519538G70085K312589j383571E31047K354431q18083
53175B067395E67554a726235L25336j943801j671544K097044Q5090j180708k007307
53166f022125K732086A628136M105316r8508k704048b314822k739197R7954J002442
53157c953623a276891B800445j364209f58684B81582a023731C089489M721022
53149G810511o23633l217344j222477J249895A819803a427172e91670R9447A524923
53139G24312B92741J406031K11631P23840k25754H63929P05161J290119j027853
53130A831356j38832b445984j782114J606970q32772N44372j579968N92275p37613
53121d634834r70503J635360a896030m46428l487733K22235R85689j412984J445273
53112d589978a450984E45963c69405j202461l407137K269873I56229P71717B5631
53102i56106B059522a850066j544444I42374j48638b312546l607571p16143P97704
53093e838556K449399A097786J827017J382745J696164B061383e08049A357926
53084E18187K014030J573963N76581M91076J760211j22893k392771N62o6759m94083
53074C858104A329876e90273k42535J40629a87239K3195r02480j764180J50807
53065b679897a265969C39172J29960J574546M53790a813159k555894a258836B566986
53055b52875o55435m69073j434751a075031j598531j412691K20828L73756r69431
53046d461100R86526f4648j537087r03115A874289N469860R21719j943246r03506
53037E419116A974471j7337h11801H53492J397517j95603c01057r54422D29241
53027A172720h24914p94299c54799j972418n889987k022578M863425a313142A442456
53017B745391C11127e008532J033923N18061J125121C28762L351006M52789B050518
53007B559746F58239a510231F63335q0110J784021J765473l29950k94090J088633
52998D597312k61513k88816A978764L25639M32648f85853k37597N2447B835358
52988E117939A637189a283288j778541r47302J642635i02417C814494J646802
52980E461296J364117l80915j98385j053261j776047Q62089M268531J723264m628402
52971E642287e13924C85774J991515q11144a015254H9997L613936Q5019r11093
52962B877859j308545G10384j05307d15513j91553n67835k382082k101712L87951
52953e270744J669882k397343J21948J836788J179887k47435k90266R48185k683983
52944e133081m471745j647100N60488K138802P57121M68549L320588J667437k4796
52935b363737N96229A785946K004555A533493E6834c14044B874629J181249j373171
52926B682707E37519j04990a63112o42860C528116K430495K743592B445157b932401
52916d178772a975242n58951E67173N611847k267873H69851J995363A029973k4865
52907A005108c27216k474164R18015Q16808E77274b401423l37030a268920G15904
52897B252126M257692J356891k219861B223611i30105M58215n74817k883865K93780
52888c636792j434612j386297N41564J642705P59120f90629m300776k965290J539555
52879f417140b269567g647A777912J679317j039650A071960g38879a11636A831410
52869A827434c14020k090499l185562j103401N40536k87098j411287N8195J151817
52860f641319I05814L895389G00282g92154K94569D18473L847064p02619j468318
52851B094600N1505a038407p00834O53446p13725p85094j075710d32852C048810
52841C65935c316808r45354j073302J701424h08A110621m6143a785474r4436n94198
52831b474108k609785r40306b613742E17348K655310m19453J048913J303096N44530
52822E649744k671790j08326K772512r84943K98555K48001j104266j741251a515143
52812d677779Q23020l54926i05343E238147k171619e12038o71027N2067H89515
52802C089624q96255b111936k627281J091412j969627l420420P28014L095839
52794e213999P75048Q08652a567857k710496J380971a326848B294941L58835n66099
52785B087677i86023p18716j825050j305198J419097A946983J576966f41730p2006
52776g13736C796620L784153L74182k328992j787794J113333A496762M27032L354266
52767E278060j021231G46984C10690L80561b135363j504349O17655J463581k151583
52758c710059j22818J42017a522350j91985M62754C27614L590959J536694j831234
52749C624033B52248h41733j691562m3341o95938o543080q03531d320499J585965
52740b734534J256292d34446o97306d96382B358052P07365d10812l894301j668357
52731e973470J887833j025116l548426q40127J01760Q03530c448709g02078m69439
52722a171517j968916N98477j911017J65343J188715A23355K056338K728575O71324
52713E579592H64095J945396P51778j002365a02441C66448a98661C21319K12784
52704E34103a917806k360671L14131a773657l3705Q33969A393041j03238K203862
52695C493665L607502p91815A749951c337267n032406J199874J628800J183253
52687d357746i49413o95825j698428k169552K692790C559645C46230a515636j562562
52678c078198g62052H61981O63549K717036j742505k43729J893547K408325o23140
52669E935064k862831i79176A882063q2153F91038O40195N1036K96894J52300
52660A831463K922234J470985j30695k711896D36211a022932p233689J049557
52652g207064Q84526Q60994K124590a661800B184781M95743a73145l438442P25072
52643b886515j2622a449026P13136E294210K907466M39055k381838b24667r80120
52634a204787A831309J04740o81271c268722k647752K634575a382063C212855
52625E022795J68831A733839b43314k003115d85473A157550R25187n48896G40771
52615b145716l292142M48848b255762A986996J841442K00377P51508M42401k399108
52606B823616N71022L564929C409415D919J860468R50187J884464N08883A289373
52596h55669j460474R80209A427060o36682K822609J552979B457132p6104l38010
52587B043018r11308A30073a183408I31733O78720a189826I62400J897169O92948
52578C552517A117885b97902l03834C81040M240703K060889r99043p91275k17054
52569D675260q38834j078849a069454B69474K548233a914662O31942r84143k343592
52560d610455J238599a338212F67685k44968K598204J73487P45579j650484b185150
52550a397704N37895C31252L62177b207854R33791I57430j86003K114856N21134
52541C407417G86772Q35260J027345A096066J19389M19515a63k653159d75341
52531B963452Q19165i50633m616041K548963B158555K452204j76856r356M14832
52522D839379j845274O66542Q17405j160289K249140j355784j312038L330434
52514F229515m03134k241374Q08074r88062p37524M67455j504411A51034J65644
52505C16678c96927m182197j307250J072320N59474J888972E08921J878007l68271
52496B018657K388979A005271h21863D197987J031164b93436r77311p38366j169286
52487c178399J441750A300486K232200J56599i91102k018222r55704k01610G83348
52477A859735b14987A341825f25884B258296M91915d718930r31811b687048j696803
52468d383851k286768a689594f85279j498985l42536j322128a201934A136074
52459a271056j251367f1660C963072A320139a674798j793406a521164A514259
52450b68216j690885D2658K76523J915766K95423Q732D77098c487978m22274J358160
52440b552092C29884o6893I8601b505378m43626n40915l824781l241667o55789
52431a1212156L073044Q04523K72651L001070J527486A236062K528928M28964
52423D193954A559356M34577N62393j152735a416181k575491O45618j530351m554017
52414i430422K988244a191840C070322J088160A540848J859727J309120K009590
52406F719285J882403k484986l009358a129047M15605C21925b767978e42742C936730
52396D058526N45299j527517A442591L057930L666165k826934A396715A18279
52387a579604r11572j320755a641364D570431B134539R00173L052105q49434B1082
52377b47603E657913K682658l085423k164228q12692K29084N439016j195010G21295
52367A417397P172006O44864R92210j960100C892726j494379r50795a214007j034153
52358b248160B39626M126430O84485K221261j378869k387268p11962J959326K746144
52349G499173j431639j519462j645408D08784c97491a80450A180497J164985G90159
52339d76268B47337d20396o57951B974562R81504J16615k39510A228976n6613
52330A172363K100320J871084J475113K779878L107116k446889j346478p53337
52322G959170l474512B82940a791011a97678E558065r95907A39802b148387i67212
52312a764404l061929N96604a143817C18149J789131J70925q12506D88282d586720
52302h350781R89775Q96125j250014J834407j84744N61636K373911k304518j239935
52293f674138c018467H3846L252636N693166J118205D008722a559771j885402
52285c445173N92475g24632B047550K293010J181214B278253a172116j416093
52277b588209j494961J732477n46032a152257A401271e7659k754680p25966Q29309
52268b708996J61494J217363E14276K420512J415239o52706A431052b806768f95967
52258E81448e61880j61899j073456k443681L65409N02329L49759J325868B25250
52248E86267M66616b059115j835241j891952j523441L291237F71730N04976a814133
52238d822210k527674j3742K627067H87968M9479a097879k410591k400955j31899
52229f041324L11682j115936j036167J7750K570559l13181j010838a547952C204335
52219C633904a256014D10860a79539j462153p98143O56623B730223K482596J20526
52210E333345k528299J956662L266127J503131l764402B394993I9236a142832
52201a206837r73260j242235J68212N64796j643611j135756o9446m5226J590128
52192c993235R01393k470226g78998C901884A748049c945058q26899a664911j124086
52183b788997l238904J072839J629054a142172r49750k56926k364348j040596
52175e753792a560681B05326L76263j2405K006717j00566J225823k04410j380594
52166B116154K753534P40382A257459b82719J39804A122316L94129O79733f6741
52156h68347l6897l502051l107912J251522L083109g00556a34594o862607k820903
52147i818104M543229A92592N13010J48185J014904M67391a581812k226827r61368
52138d770007o621n89859L51511J945249K91017j083140a287669A815022J532133
52129C347155E26934K48247J117623O18062D37090M6628J173105N15336l72790
52120A799369J799430L888040r54085B980611A129678J920463K412956k086273
52112C376824j107190N70625R65178L08537j182967c07296j973690f40051K50072
52103c89979k714026l700821l118467j297127M379121L414269j655173R92031
52095d090172a457587B036404L319000O57238k289825b51147j09201B607360K094269
52086D701629N23607q86944n9487E34193a360638G21886J613419K70855L67879
52077B974039L63334A69170J602232L664148N85204B386913c23096H03173c78612
52067B220876J586821O81571j012000A693063K598601m00209k85068M03504j697632
52058B312259p14456J707748J334889m78767j745551q18204c31997H38735o9527
52049G69208d95427D62822M334562j938693a100322k462358O10707a41180A137630
52039c74408d8948D957920O67592A628273d82259C040049A267696e21982k755914
52030c277896j027719b38046C31593c10173k380413k028543j468262J124554b078567
52020G39551Q75416c24808m325246O95690C102730J163093j410898C63823K66367
52011F30190O14745J405249l01194r25136a09728j584206e01774B306529K619040
52002D925569J122318J021566k131574k331254F1675b741468C06624b153986j897174
51993d051160R3202a283000M59113K87897l118014j1205a602896j019643i00156
51983A671364p35149g32501j366178r36990l206037P29591k364943k203173J732057
51974h348174Q31496j939260K98171J983010N11182L250225A442846L252234L09297
51965E004377P86860k232739j125790J03822K186629J230459L42057L994635j089637
51956I200673m195061n00581o77177j704022b200181n10909r12948J399321G31218
51946I09848b003750o06683g39035n45686b14035G58702a874515l236499k747093
51937g858107K270301a192994A437632J88548b167403l600419j639994Q08168
51929f599648j24849l478525p10223J19312K273419K327235b324000B19636d51095
51919a543765c11177A044745d40514j958683j06343J53693N68698k482785f85927
51909A642570R84238L016727L294798C419492A085268L598776j577576j550800
51901A555668N61897b94582k352160j237695M43055e50191I33738a500316o54783
51892b155099j837612J186209A450084L462336K431125J835086l783450a230955
51883a046362l05380j581071D57897J390245m3921N64408K067488j86616j978404
51874B271097m31213E84348J090817J720037f38927l194317o64056J166481C09344
51864C555474P46047l43908A205944a39522A37253J833916J215341P49917K043885
51855E980312R00078K807458k442025k223742Q0277k117191C10667L70167L72108
51846A052942K518781N355010n41437l734668H63860d574801k380863K77773m315758
51837a0993649K220646L745412J715513J81293j88372K03763a319137e29042b2427
51827B69124h82869k644561R85298H72220J980351r05052p04206J002547j89419
51818B056441J70942J398300A031584a654251N84413A262421k97351h42893j70725
51809a013618L51518j47969A527933J174907A199781c721219q53696j782209k8544
51800f385668K476277J604613l156302J743328a66220k92343k638553a130960
51791B495395L144529k38608j980982E34908c237841r34960O59332m536404L45591
51782g704282c293776J443676c44352I65378k90371a036858l516977k122279b623480
51772c720600j068112k549680K521599d29058j455584B73390P90193b77467m39269
51763g16736e433A456091J041656M97787N086034Q80858l821671G59982g52179
51753A069595J678983f491o45726D09212i33419o44782j777514k16891B52381
51743C730004r27976A397795A18712R79013a771468j398520J89669J446847H04530
51733e68425D61007h16615m437775K491586a008876j224712l256862L24972N11914
51724d653564k359186k170499J149903K421047l84737K287808J760809j164586
51716c113005a050208k020997j110732a749296d41618A357027L767221j683406
51708C440842j43410j276017a45830B454017c59830A44479M455724J037971A761693
51698a547366j132471I0257b25729k557478q75873P01469J053146j530066J064934
51689b369597K51449l074657m09490b441863B011431N19090p69775Q61399J418961
51680D041106j259798a050054n7655B476799l08574b450246j805245j085901n5847
51671e397239a988837A85260R1641e96481A753055a20753C68543K394698N60451
51662C323692l07037b72956F64549J049345B45011c03594j71068p04623k781248
51653c960533h63706A800644a47985I07520J826918J883292K275154B383167a333677
51643f47865j699872j720979J673153B066218C76025d821130J353299i53620j95793
51634a149413a19338r09275l610668k771230K061714b25954A622041C48728b03968
51624a354390l289021M33315n49364k047373l546884L939884c058961e99739A463907
51614I74438C8781Q17423i77631l346995j873353K132595H87004M407660O02939
51605E897603k874290E95815j19992e34289j262557A66475J547852a79372l289686
51596c469058j237119K076947H11948K465740k62492a35444C55813a270777o92517
51587a963294L32708e57917A907327J234361j89237R99180Q32753B275950a696103
51577g0262I37349K53469K855919j454062O61955M65682n71423j484688a175883
51567h31450p10420r14609a110747A882325l94877a824624O49240j787169L45900
51558b616653k817599m2236O76757N16048k870161R55758p81644K999713R17399
51549c062618a70885j063954j806508b3694m59844l241804k076119k147320l41548
51540h290329c649833a235213l167404j0635K33499a99429j91976B115624j41627
51531A973997i54128n29386l027461j322581J881009J035016j150517J387632
51523b680416m55316k43077a610103k640452Q19920J479827j653351j469769J776705
51514c297223A098536J423849J567122I92120d244204a294521E54955a396029
51505a445889F54447a152772j982204j101691q66574j020568K963199e79510r30122
51496a509632j165189j716251p71226J517826L72284k062953O20782a206243E94667
51486d27149C99076K821499j067155D72489f081171J696897a193427j833339l37067
51477c363833J393377A694753E21517a180520c26907C180561K205558q63585k065296
51468B457238o70560K042839r28192L26128b49852m22422b27360l02494A388472
51458B181426a45245e8350C474629n70070J22225J687715j874751b430697f31765
51448H23166J104623L722714j663498q52845j361984R3118M74101m16271b55422
51438a916757p67481k740144j603629k37083L281072a337119B24459K07046K28870
51429F60375J074396J44600I5362c129385n0933h81576A168125J035384N74174
51420B777683C9113a087008j979121k88898J630751D52287P98515k74948G2713
51410C162131j51067m09430r90956n2934m1253L8129B80509K281637J597100P28773
51400D888019j86628j108334a49473k44704m51665D04851a880476m563240J40468
51391f303248J557581r41310o96447b900700L72539j493321Q08678a134299j531589
51382b665888O98356n56999l873310K908832A551438L511114j778387J957371
51374E241536K072994m01562B781700j64741m83243a484321k791538l615856J449740
51365f441975J544205O09342J583064j62164i65817K15626r13245D78817Q48343
51356A327160f83715j275694J88643M60237N6424D355371K057743A834622a258770
51346a753994e94929q2371j81682j269455j808109j451918K086447a126340j161937
51337b288277a100652N00077k207920q32928c06249k172278j102882a91683B034503
51327e92393k365450j274149n20295r15084p17555b268596M65394j493968b17285
51317B028703J76048q18102K01089k61252N9315L232582J7848A041824c860948
51307g052718O60014a515387C0589h81817p55107l39379Q10424B099500q91235
51298A208265a353830M11559L33132D48731P94803b81937m201325J076063j281966
51289d689165J592694a393798j131651e77605C662593m47099H60293a083213j667080
51280b750293M94191o37698L37732o97209J3734d75047A39169K71635a578588
51270d566298m72503a489480C161272j41300j500372K16965o51500b386669k000050
51261d386719j100161p616J241915a945946F30693A83647e13472r10206J50734
51252a272944a89922I88131g41950n83341A467135l80450a884103q79982k881184
51243e645269L06198a01327B790097J454024A337009K260973K442107L06237m59253
51234E887073J913322C043246b01858B507616L896378K446237k384841l160344
51226C305046a032A298213J094752j028348N74389J241744J2915A473005a509126
51216a821847k146227r82338Q45828B52590K295155R02785L161520K33213k195933
51207D649330A270501c241806Q23288A45388R31431b41348H96774a006004j118520
51198b124524G46766J102967B71819c293532j478692k259053J09140R70661L87466
51189e564010p444k89421j157694J951165J167698M06386j029246q36259K42539
51180e116286j256122k438909k020407K913088L760229J823144P36874j112412
51172b710801L73353A424991L412864j253864g87214m049245L97854A342527l18921
51163A023606L79695O89953c94405p18380A329059L138599j068780j495639N8832
51154A962071j55207l02544f48515A79742b177140j99240C64824n8790B9969P85266
51144H15235e079611n054227J174571K667376a551342C70281L9345H2048M9480
51135A31528L436035A276598b76629A824390p52723a645102M4700j991173m03354
51126c994929B45010J057790A04501L55566K859295J134491C39769a862734j262727
51117c125461P60599N52249q91055k528424J949030F03054h30323l094530J406984
51108b517869B47515J425982N316045L813872j665339j799910C166752i4036k526289
51099b620325d46940A805379R36161G55747K786521K156219K46334k3146j72169
51090E749506j212634A798601e4646J5509A299850g50897k698834k298743n57124
51081f305598c095816A601805L122185O37952A461030c449138Q79523m49354n67342
51072c586311J680127j766320j26659R72922h30146A029133g07201D47254d47820
51062h81372b70435B753257m88805a405097k330316N6348j892030K094276L08530
51053c168289a165156C768717J786988k458689q00644a104502l668152N39073
51045d233581K40175p77731k752987q9716j229826l54715L814992N70006j227533
51036f040916k47569k09016b395530C138740p86805p16029M769385K717778j425638
51027G697431k366679B145178a622026l234735a473813K98229K9477F484R25412
51018I31896o3810R664E0732b377186r5448a008833L11403A115207m01569C10074
51007d6024A291671b71311r04736E02622C1681a616946k13242b80916A746928
50997A356387k41692a442038j352472C265244K345173j267772J651382j290872
50989D703155A866506h8215A954918M73194A60693a474491K60987b75909n02620
50980g78529L66911A109928P59714L344609k585823a816271j732091a575121O51650
50971i23471C48893b663401j152216n70224N91202a301041B121299K108919j742249
50962B487969H28813k22329a134148j148996j143198j019730Q68027m489491l213333
50953a1280869N76160J333286M09959J077999K855118a066961m77807K90462A850224
50943B521043J205154r84202E51046a75430k409036k721902m017459l039028K377519
50934i985336J699140J333905L432077a201506d48248A195225L210528A750265
50925b31718J680j562883L17632l000168J953250A361886o59827b103773l298902
50916e402675O84410a220709C288e43967k249034r46954i91067p6632n803368
50907f871067J115297a889396B023545k47935h66505k451772J03998K56548j902246
50898d859977k062885J370424R79441P70585J853741I50510a671044l366239K219954
50889b817329R22418k648950n25633J00990b92529C852846L11756k2025p84797
50880C357780a116982n5608d45140d4803A204753k65696M4551J501818j74247
50871B311179J319062J171139J344403J38758C047306N49655K726220j39716j911294
50862D272171A838508D06392a33069C84081K489165H09190b2316m10839D27901
50852c7460G93717J417256e83345b77701m887319l598812J598305a220219A667008
50842i50547b86715A339924C44263c54947j107112m84909J0445j308862n42831
50833c788216j40291j025689J870423g79628A836502h2941m329700K56743A463006
50823B123128j80737M43778K347005A759230b124535Q15115N19552P6849r95738
50814a708757d49321k68769m905338P26101o52107Q64278f35172B036619g96425
50804c180125J57496M52555j386718k96557J305901a316451e54984j12335p5293
50795g42612j571445l254365K517489i26895F45888J800026H16766c309168a651458
50785a305845m083717b339401I55896l93647c74697k163177j780622M60613a116411
50775i28887n65383k158673a372611C107052J605157m27189A049239a051295B2927
50765H84835h931j421171k88822B191862n93619G06435N54284a671061F33503
50755B827198J945728Q02022A222468a192835j98867K68970D19842R76531c22571
50745A30007L936209J030957B338941c139145m449669j485199m05178J336908
50737h142283J651946j640710L485711H06664C25813c12063B10901a504306j599153
50728c103459j42109e2961l400304j215287K319016a40901A898660A13502a513115
50718g77692p1480j575571J177835A659541M08093a354918l069752n01284J745313
50709c180641R42987J80112N17937k412665Q31406B259604J36996c325969m658483
50700g984452M43330K514776k10569k448599J25242c532083J155803j846517k060174
50691f282971b713301e27473B054217P29451j297351p9561C3581e17311A108909
50681C010732J093482m27140j247990J538365j130117D50341J095795O87564a7085
50671c190646O77463f8218E71782J272715b590880K85125R10651l110290J30237
50662d375157Q72822i35459k242190j788922M30097c26619p22131k924236r90264
50653d963250j370686l434095J254506c306575R91329P88122j060103l220101
50645e807328E05437O633605k446352A204658N97538Q2229B97839q8551e114607
50635f952798J094891J713739h16195a86239F86699J950280J282300F80166d766521
50625g276294b065019C510255l5973A159725k61431B17516J319659O02845O40251
50616B780271j250677P55699A03408a437398A697004b11596j888764g51070H91982
50606A284966b069342n468674o76493j531693P10694L569153a940418B64401b600846
50596d420490A582419M131979k167043f45123l6828l699983J844152A631850G39989
50586E04913a44370q14479C11487N582a89631C989145J99717j884523l85145r05292
50576A013902L247576m41211J47448J990114j282986j408733Q88546K87282J45820
50567D587758j119829D44044J101192K916005J297257R79088r0048B438175K93417
50558B731592d58196p39202o04303A367055K593155J441507m38513B090067M64792
50549B554859K10364g8096L8390B195512B86867P63297M519413L46986G30526
50539a864315j688838k142841n94688P18281B317207L364562B505918i56874k423289
50530c380163h49781C42570N345533P62179k618655Q18679A263548a665157f38030
50520B414660A177518a023814p50513A076154L876566K76576j555139K494296
50512F168453j36651k734680j375335l79898d61739A396847R18470K403489A508863
50502H36110K402775K681898j890241a070158L19650B011822E86066a562684L02267
50493a260417A139966a581040j30665c4283B91289a809172K24065A909319f94060
50483d797015K26754J851094f96532o12344A228403j07078K257921J865510N68655
50474E813411p28278A142688a27653k917704k04619d89848F59290r7015M026263
50465D588538L327554q53816B480234a078109l080482k382194J872714a817944
50456f6916j051212q75414K92550b27587j475259c93812D95754b38218A098230
50446f57380n030438j126825m18351c173135I69202J319051C67928K134252j122564
50437A379616c91938A000853e83483j154676l66508d54819C59410a348869j719847
50428c068716Q32100k86147j372332J285163A642398J296117n50208L004165R7905
50419E490377j559217j736075K089166M816491Q38628j501482j906857j111139
50411E419892p37357j908908A373572h85541k42322D178855o1015q03936O041542
50402I355446J079646k532817A747672o76192J015304J025422q62458m82986a911141
50392a662677A931476J973965J975357j587008b409884P12925B058446M736771
50384F795217j725041k221863j077091a104598K53427k563931l119243c115568
50375B83019c66746n18550j540483Q51159B339148J728489j454799h54577r18699
50366a773276l009082j733462K325287g23263B177845b12702j388479l28323b47153
50356B72007k6364N82252J393630l26985J17926q09626J79311K12222l36918K014039
50346C271494M203478J212386l535445a068454k842156q41689K096923B78543
50337e52598D37628r3742K094786L59752O44301j20164c50453B10114Q68218K056709
50327C135041L032183J404602j052446k256564l1119A925728b011095a22860D220735
50317B126302K92520q95063j97841J158270j08212O00995m17030o26916a009850
50307a709586O19703n17097L68489c30663A122847L554734L84118A355357E8650
50297A824160M49266o13747M90295Q99205D21115a438818p65181l562596j01961
50288e868556m78499N28499J610108Q53075J614634O60088M54294j46419A655903
50278A280549a416097I6094A3152e34939l4577m50337j458176b89959A723178
50268A280663i69216l6166k468645q80945k60733b109152A88289K352461K503532
50259E044282J563176l010453b617306j261328Q37713f85288k573295l252672
50251f511255K346260J169478O43402k40646j864281j15902j401131Q95266l07135
50242e385944O17805j872788R02917L15580l67507J872315a241966B492590J436615
50233C929205A500511O63462M29409d55696j780474p32806J41767a360789D73239
50223a341728D003887K26614A256951L93637J747255j599241c21488k603872a399193
50213A556192b22848l586970L99147F18398a537526n098502j34819c079520a260674
50203c917545j790073K014177D28057J55794c356562l430162a547224C393948
50194D540808j143300Q04140J578544j416259L19942K13074J794613Q182j595494
50185E104250r95316j81856o59741A108363J651281K365111j955115n92004j061347
50176A516289a911572n86460R65075B95204b837295l693661J225775b034554j058090
50167c092644N20927h23607C63171d71425a09128B211484J085363j22805M28328
50158C602370A591266j63383J416103O53490J330505j959047r56109b448275m218260
50149f666535j398827L435187a091946j122631j231697k44047j259675a819161
50140A188501K809439j893582F10321K963621N60698O13674A711028e72918A369066
50130B762775A245554a920241j383802L32454n00550M97063B46861K856834o07794
50121B495901b525156l812494k314758Q965K751754r2122P2636K473174J064570
50112b373431A706674L72127b40231k008746f24297C260821J85972n45400q21278
50103B080115D60578c211740n01690j401709m31062b622011B110663q32471J55798
50094A433990E69401a392133j360597a089890H37130a302500B064206J683174
50086C747380j335926m8000a012287j065261i60955B329076A79992a243711b82640
50076h55404G35784e48858j033798A98090M333360O76455j211704J127729j729669
50067C394261j344950O50270K008991j323234L3579J468932k009185q67467K66570
50058B277767a021743d43665C396049L54160A399126a253179d87141C086497k97436
50049B789061K178877p01003j453470K533677k333980j332370J613972J720660
50041E015424j765373O52319J48214j051844j068022I19352g22155j416653k473606
50032d612414l9096a407359A678604n19264M463106K436154k613520B609680o8005
50023B541675j198650J643438K053693K47885k248853q41942Q05560A175805a176530
50013a852588b2741B309529K704943r49904H41366c225143g35262A545140l22928
50004A222212K467717M865565j140413l681290j235257b651982j317408P59886
49996c209504l31508a030787k070930R48908f92771r95457k015010a814733b22069
49986f81030j951285j378981R69665J428947H57158K053946j146110a522543p41576
49977b264119h31498E72856K839929j059049L88520J416085A244450J60403n05008
49968H99845J79230J487632A245009a720913O27498D183598L627542o73275C508734
49958A08837K370691K40273J592235K786362l240404c273975l040437K86546J129937
49949d897929R15999i61141A837670n42520k53190C25115d35526l34292k2033
49940g91851G48084K286696K707647k9417J099794k831178j013681R95496j754766
49931B208675E94935d95413l78310d15731r44006j656855K26192J30743k850422
49922e510079M23908a435335D77662g76412c56331r08272n04392I05151L947461
49913D852612K14561K411672k29783k359532B234605C30716L02378a971631g30935
49903B080710R97370O59692e09738k144351R12422q8699j305935k292938J151110
49894d278129R79726K71261j173169J974921m38205k344726b060717P61399n611914
49885f911232k707825K110057L011369J705988O85359h37823B80765K47369M87344
49876A015478f48087j290959A683474J921920A487032A82219R3586i72374F86715
49866C218333A572415O36633E87119J604321a012876j567120j63340R3300B243415
49856C386568g69947q28150a80087j619140n76613o22242K75171P48305P27792
49847a246814D81816k11711i29801J6326l587246P1698k25192a433467A882320
49837A766618J9797K905399B307232k3898M11983n62516J220959l13998b88558
49827c464268Q58657l26007j739630l0134J560102J543326G6025e33377j580417
49818b113794a10116B141444l91327p47547a947025l93530n06876P27298M23249
49809a696884l14699a98909j059605j561844l107837a680274D670085A259122
49800a026305r64673A12603a442168A390376M144086A615166d83231p73664q512
49791a265407j193894K96647G97482a561372l876873j28883a502321c25397j142452
49782a467849O85876A601884l77801P67744J59876h71999c32147B30153e91076
49772A60860L135371r8830H72757d00437j039196j412856a113482A00385a920413
49762c680809a251003D52527k16194b117429R56344e67273a69237j597372m1270
49753a807879j297502J43235a245021r78624J02297Q3838m99439j020994j618698
49744e176641m215116K278385a979526H68879a430792l96081e37357o4239B229195
49734A663970a227870l179403n291627K578895J857900L70859M3789P64242L67166
49725c716049m88879l994220J020836R48320j558657m38883K105853K874964G02468
49715B009624a901996L83613B265199K982871R7697j790524A83061d18433p92607
49706a211040e75296J65938j21083K39087C91091d5892A358374E94316K118365
49697B712681K590261n61979A569106l98837K208719M539607q43731q20081l053333
49688C201450b471595m90517e97088H70617a046875B34255K53879h23787A726310
49678B063375G22336K467426l5944E81836c268405J323506A634114M322158K492014
49669H448286p7799k993876r50112j414496H9517M4460J135015K212981R62344
49660D444317l73113j400069c90442k578401i12772a75592F49654K085624Q27093
49651C562371J318242j392907E77756a326122b33664A004424c30346k429874C028
49641B031493J494415h02206k231363I9786P17747J740277L465682P28537k916776
49632C835253K150546j439634A77614a254613o75845a47734F78108M73461A8959
49622A721162a709547l976092a937358H08744J403103R61438K57474e33128j110142
49613a643270e69021m308972k127463J957076K015826a0283D2941b621149k200357
49604d821506L75760o14994Q20350r32210b320177h41229A314051g91984k550959
49595c342943J415537l05545k913584m847679P38731K459251b164004a70852l92741
49586e63593k248088C4165N52737J056953n96507J209240J895431K002824j171200
49577D983643p41034A744083i95271k99901A626539M310319N37751n01790A932238
49567d51239B54911L611598M166053j367774k928394j254153J30853J568944A374552
49557e91170A985961J833762J423548A85937c474000L20897a243612r61289m20569
49548b625470g22981B98631K343982J87502G82649f66436B335541K138799L250149
49539G724489l35052B674571G2049i30390B212060J837042j763713a437014J97896
49530a239118a23922A733171Q31141O10755n1201J321848j126537j222242I67749
49520A249374Q2414c080052m351081K022919K136744Q31220h98587D87090M5641
49511E32731k45869J83836d63216m84271k267724j880588R98108e97787B808555
49501E377647J963785k244713j631619A223545b813047j591576J513377j537786
49493d429032j624943Q18585K487745j639302a493656D931520J542026k551833
49485C921713f19315o592104r89717L732166g51677A765470K662599k041056B69351
49475a985629j975735k500342M93896b147691B07297i74143k471108j062011n91427
49466e098689R28234J031056N80505p5532j420304M26123a632181l6603m82685
49457b151469r57159a47076F925431K913667k489128B374833n3370J856017K120184
49448F297664L17400k755836C9918b011206i13942C629412r1066o57404k87713
49439B593229C5104a729361j673157m094573j979491r47102K400286K458889O16695
49430d947814J380504a766903D908638L537234m54580j410324k053621I88851
49421c016781l436819J522456b100077j943530g72045D947064K336126C250189
49412B389991p2538H8360b88272j356533o47596j378027J685398G15740N312139
49403F027879K529365A814675d864980j092853J804658J257532j34092A165512
49394i61781k947783L20290M28100J085183q59618a406454C46382K11144J989704
49385B547230K079691o13991M88408J397110B056122G79086c16056j474391N28751
49376a261696A039660l96001J194134K662426J179234J202719l006136j458115
49368B417921J676100I15899a397643N4955K44722q88338N55148B384937K41975
49359B626912A271821J89102C92694K68087K017107j40169d29055H66000e90976
49349c634485k451510j989545K983203L18909j192126Q90353a687378e96483A1238
49339a474161C86083K026766n35862B8766i41563L83138k862781j405646j424624
49330f251476b021563B447971j165811a203343j028278l509419j491857K477861
49322d755036Q99264a811085O46945k115491j101125K67946J392604i25112c41520
49312b259801n27820d87326n0578n10794m8859B27204O75268b057520k096526
49303d154046a433883E30333b40120k647611l590247o96738q97653j70043l21607
49294h564019k35601K048595b394849B096011c18749A618937F34081c812026P19628
49285c092398C870636K574729m51729J2031j012401C45200e68826o56395A40620
49275B56759b659950L47633n39899H31695L941875j071905K38730J103368j82043
49266D861720l96486k189490p9862c93503A057610k73704L12697j27881J218345
49257B187067K192092j933323F36549K667686J619683m83980N54360n68127c58109
49247i27406F68296b83117A054867K684349j299081O59133A539278c047343J335266
49238a712077A04079c99409A42060b427720j536772o60897J559926B088315r39506
49229A148809e79719j663776P81723n73670b16607O2456N1749C591270M50066
49220D041336H612b330130E76715a02183C980051K196932j218148A352678h4721
49210B167661a313096p97136b70764j54970B609209G78435a963192h40011B019768
49200B022323P90004J719134P35491J428088R32847o83949j172928k62882j078670
49191D429458A072626b54029C408458n35509i54086j493307J151780A802316O15344
49182B417660b50308k820647o05859m97825j787058J622496A74086L644665E49512
49172c161996P3729C02626L51109a238814I07631J495911a011176k257745k645784
49163e914705m43373q22075K014916b457498M16762B45840M325613M18310J004381
49154E994144k683817a081662k055673j649110Q02716k36698l39076o14236l054200
49145h227939J33490K830966b257893A79769f31923E17047L241972j88595Q27970
49136D398394a273057l706857k14744k262341J90436J021267J394822b372096
49127g75692B354224a104707k708466P51807k384909k391475J802448K862604
49119c172698C53289K130919K732630j229758q05996K071862j841420G27485a609421
49109b235637g07154C505128L436746R33818k293863B512009A158223K61405I4359
49099C69364A21700a046002q39597K5235K05174E26111J861460r15862a79742
49089D72141L479099J47230d71570J78518C483846l51223I48714d608307k719411
49080g327718J467204p67572j874869K835610J916491R65717L7358m17526k58127
49071c423432a236990A199723K244726I22670b095065B53711a952675k294486
49063d247161N92860F0110K164227j89055b090674k542129j280233b695942J13650
49054b582292e25961K62373l464235k849436K004955a772234C37862K884921g83704
49044d745346M8362b102947B496558j047743a200212m78937A838380L473318j481204
49035C830494G97649d10362C206973A71214i85268k343900l936957K048610e36713
49025A892144R7204K03004N70089A360408m27289M43445O252708j542839G12341
49015b52502j905905p92421N62524i04912j731981a063071R2498m08116j940355
49006c319044L78217j751320J08334J652338J38556J377335G84437k58377P97283
48997A323343L572626J331793B570999k52133R90326K40226K599544J962046B634301
48987a520295A517623A82270c194458r61981J03929j808415J87592j711440m50920
48978g835693c040717O18991P23933O63810b06870j2949I87976i28631j136049
48969b064680B143053K159915A830585E76477g87536b61861l02736n40973C16763
48959b342905m729194J433462J435918k254235j336352p3254c243024C206517
48950C322482b143553j398149N44054i60051A021187R45661J045732N62795Q26625
48941D402000J024174r1950j707047A298253K34096a530019J77390J55585r40865
48932b137909L03979f073r6307B929937K204086O61752j088894A647223b716559
48922e623452j38272K174723k095804p56410K684811A934697K478669J243338
48914E656704j428951A980260J810574A064061a075771e6141B571484K39946a233984
48904d627858l70672b470757C12961a496496j859851L95117J05415k59845k402101
48895e517761J923081F77065J620829M20236A230320a376106L45055A450375a844667
48885a793750A584785L1094J071580m33558r97579Q9336L52529J237170K61105
48876C196462J843197J515631k855118j120665J589752k004749B41482J256288
48868A497770L372049O77596K573179k019722B378182A017251i62122A8095L714591
48859C732686J875755j5636B430800a232640b20266C262309p776B4539h83957
48849d358858k070052a472701b44078m87301k099886o74683o83426N57344a754687
48839d60400j23244M200r86021A113623N52993a950050k131305J927095P43585
48830a410675r92120k72050l06663J069342d52765C97552J467308J145035K248168
48821E258063L43556B320014a094260j010967B952708L260461M68605J123155
48813G804929q18624k289457Q40773k113250j43534q22284h98502B15381M28605
48804F43986d46671B692408G4347d559262p8207o04716a714385B703182K957449
48795E660631q02858P21308J93675K300026j043915B084977L00754J87330D56307
48785A032600K321079k59486J12218J0139p78138K305614j596725n82588a349892
48775a010439q9642k099644J5661J117335H8422K827368Q063j345708O08282F45090
48764C223075A476131a851611l82729j469203R39515A339873M794566j005593
48756E128846j981178K122301N01398L42318r80065B475436a112875A662329R05966
48747B568295b616873k639268N42680G4792R81694J334420P55805j151263e74465
48737a247707l432924j452348J135528P54687j406350o93170a908484A000555
48728G75734a149478M61082K7707E9278J012833i01884j070201k01654g40153
48718h41145d12320j61596l082856n22372a233421C77078g98153o609848O43729
48709f764272L193669L65590a426954A317012J543408K505765J586107M90829
48701G443121J243981k143904j407827o00436r50106J687524A435882c140783
48692a225691A712395K880588M44490j970410A346813a133627j433936f01965
48683C092901K691026B010019a661197d4998B730676J306980q20796q13283J379535
48674C783112K681114P41884C525436g61522k669440J098794M2218q72519j57202
48665c319671P95210B314394L104297j64393N49986j114622P27525L620585m78893
48656H558879C321539e616735L5040b070621D74261o0199e37194C75909g28769
48646b297086J108076a62108A449380j34663e45542K55879j579774f98463K61479
48637d36984j143063c65824A406991P38549O78470A120287R37262J758345J278999
48628E094893L93124j293307R94084L85239k645403G93361a06933j710535L20271
48619a497197F94801J282279a065067q16944F82133k08396c923482o02155M24018
48610d101619J380280e66545B49303f40595l745959o54232J869352Q69826O87304
48601a614304o60855a107568A735347K957036K678830j750627j798156o44686
48593C177744m15919Q18049j389758n510K895030L88429B656831e72926l397598
48584c970524c69063A090353m14803h78160B063411L154624j125714p63707C26380
48574A70869K556875M61190H49623c88661C27757Q28846k48625K02813o5014M90356
48564A536133J577575J921227k075584j311634K100119J282499K93067k644646
48556B678756g6756k114580q10679b95203r37631N7543d63046A715264d68541
48546d38253F73193b793582f17652n411m112594l547566K283750K637634j008254
48537d370093j145587n59961O24982b685456D345495K800587l82676m36729j56595
48528F170082j018460j266812j865054a569149k033620j216935J808542E15980
48519B910150r08445a48923p09047G52775K440631J586606j330812A611662J45733
48510A757395b231658j11177O33645c49679B388235a489772l062668Q97561J494169
48501b160710N39719n51181L67605h62020r802L80732k29545J98132H28938K166799
48491B995737K68462p11768g90355m561253j227964J481138B043321O373209L01600
48482H718130j505360l268789p64518K72557r50963P66111A260605F4733a341160
48472a967835J99384o17570r73788a043070L69734j102777j596238j639958R22143
48463d090166g70928A893290M071189k50636P7110J502712J158733m089602c13172
48453h72734l516010J229536A629051N87319J93314J524018n6597A507093c644382
48443c068201f85897A267897L44101J979364j732425k63510f44018j226285L13736
48434a556567O59547B810557j47506A74893b165257j005059j377300L1316i31684
48424A404759f78809C6235K854336J042103n45915k78923j008533B88740L128664
48415C417404I28149a770755Q48287L95892p37562I89157k8224J128978N279420
48406G369331P58269C706467j043369J88969l68940j036416a892587j666145J410195
48397b148537a045183k240768j974236K282557h36605l320265j642521b277677
48388A298227l34743K94773n81904J33296A23545J39591d30095p98955a84717
48378A684234J400156j365696J872960m34425D46666j93807K24909J770808r96308
48369A252268l19696C64289b690873M22356O60961F62065L935067j651288F88545
48359A039927l40516h28387H42361J224325F66654P10616E92599R44775J952354
48350C489728n93088A217091L7044d12013n200210q63563m81690K85034J062064
48341e610378j87711J586660J329260Q66905j616653a138952b25653r82549C12699
48331H22425o015J494338J439512r44221b590049b86779C879562j463980b431586
48321a072560B693306K506613j635814F45199i16505M54365j902730j111052n23564
48312c999486J949263c8997A031226J273062P74604h57216k763595a019978d08050
48302G39178J93608i40174i0194j448756i4886B883126j35786A67547L54071O304006
48292F825624J333868n84735k114588l3798p50368j269120j252852a522632n75093
48283b097725n66971j085747K25173L76081k94674m78016L91409q1247R25055
48274b686662k772391l582171K513181K809480R71414r10174J080448B289144
48265C773378F20617c937006J127843Q23393a95064C012333A258085e56223n76336
48256a132559r26028k25552B012405G30326a238705g1610l655988j37588j78p27894
48246d593258K248266R31453j353942Q58987j445850K31582j301571n20953N574
48237d939712J836946h64870m66289D86196d25121p09906e04814j165927N68501
48228a102240d77213A430114b57611D26625J328810A60389c051867k939038J123385
48219d867520J018120J36155R4933a733082Q10505k200241J98615N89081j170086
48210c505208M52571L43722a167835E4157a737375k761248L36701r28517q88094
48201e978533p15816a413946D07733P7534G7008c496368c50984A816007J754362
48192C570369M60578a367438k270600j376208j696445K339510i09869G69311K169473
48183B938784A338018a661683J4874B325933K844513F99096b802278l53783j240374
48174d396435C84868L079868J638200J721400J06213C287255A095825O73650L095629
48165D865104J60339g15313J90559B011310J128919k55674j018935c95877k909581
48156c305458n63834J488709e98207E78555Q82846p12647K147334R5045j44524
48147B846609J470011M003068J747609k208198o82174k88368l45600j021913k294948
48138C226096L49834j069166A230377m95235J576084f38182k702898e56625c963
48128A663164N751452K748441k481042l588254A402579n33435b133274r14443
48120c047717J40079c16736A059809K01038l12332A95044a92466B69998J373766
48111A643764a072095k654227a859991A326262J912848C91725b100095l713321
48103e813416n033221j24654K156572J007880q21204J809448c173791i31142K6586
48094i04556k091780J284525d69735j10271B348700J219176c113900l820036J965498
48085d968438J678474a068428A369707K221009L55045n00313b91570l536243O44677
48076c183136a408674j811568K49645a336120l49998j637843O15973h24952B458717
48066C246221J696340J358764j026649j932643M53050k81457r20008j125810J89759
48057A657567L63471a481797m249353j110566c165299R58003o77984k22100Q05637
48048b301743e77189C43767g69786p56348e88440F68324L488156K621154p93889
48039E983745B416652j80409e93077j748069e19137A196594J244011a893324l021699
48030d915023n45601k21144b279250B621366b52969l888309m44667K186938P14810
48021a684197B392791K257339L556362J862909Q50727j114713m618484A817291
48012A135852a28856l23389A819315I02391a180954p33947P01586A54554K349602
48003B504156n83134m82971J7979K583883K444283n81903P05105j068984G85800
47993A05065a531693q10297r76812J636357A89789L40657a004778l516998K158261
47984b363515R54890j20258f22541B892537J869448B049070a552850p11476d59977
47974A282728K845031K310367J141134j709225j547079A781301E58567J065957
47966A624524l51654L37484k94040C98623N97305P81271G18435l14106J593390
47957A997719I73858a522710j437533P35986a045784k57251k055253j251076a552505
47947f01166B068721J542598j57133o65877K17534J048882J31804j394366D4360
47937A22422Q97071a177271C22142M077912L325872j410409b020306c07924A175188
47927A56563L04610K75000Q13169n96365K70497a076290j924911f49851B208382
47917D37679J936329Q69890b901394k766907b392095I66525b64734j487134c34579
47907A495701O82607J187584I73865H7981N62531O57138a371919K69839j406814
47898b508894n56916H64230M0691O59677J82609K781601E8575a570502P06876
47889h63626l079387J832513N76920M22886F1707L868975J559766m59600R14557
47880E945405A934788q31569g3048l667161J484007a086950N28258C396523K246799
47871E643322B435550g40760j884397p21241h56897B645188I31834j55803M283445
47862E059476L180611J775173l572387k662382q95187O87938j159969c80814A12301
47852I39810l34286b275741Q2169Q49104D86770K788347J659252j816286j357333
47843A760750c68086q3858j43328n08107k0472A532060p09299a775075j583806
47834c358881l71654R45569P76019j525102j10279I83759I4663c937525j062476
47825e000001J347087A98978K467462O34768p14676q95365J008802R42214A755449
47815e00119j519087l399642J859640A252189K219920a52556j691478h43227j565846
47806b409073K50076b37329A30486g7983m57285r03787J52270O7199j250952j490476
47796c961014a711160A665845M89614J61388b125309q18489i79147n36401j582711
47787c098259m096283k435993L553253a884247c19015p5972l34038j171908Q14412
47778a086521p44250j324304b05636H19356f32848A709040J849262J019221B178388
47768i16998j96521A513633b5374j087050H43956J269276a088921j991789O68003
47759b412707J13615A887927K331131J912836j04335N36427k743614L33004K266607
47750F419983j535978j150950j388297k4249P27812J376089k68243K11401A928724
47740I63263M183787l39656A905058b474888M38085E31767f09048C044407D24001
47730B05091N862448J95422l110484F64054a275797A153158J542015H58909P79823
47721A638732F12536a368725A334062c51769o41480H9073a004669b61902I51310
47711g88679l629149J785470c34093l408995j670166J628305J83085F37363L505910
47702D143273R8025j333104J512216G3214d905839J387307J104496N27463L41960
47693a544613P41140C537898j232861B65598e05178D38370b749141q89708J427152
47684b211697B9033J574956d28470j018152m292658j497434b194590B248512K065912
47675D314424K684950p54903I91397a236436b39700j131429c69120B002623J111353
47666C113976r32563p64989L58138K74392D59954Q65574R04750A33259J166399
47657A299658K545268k4985j722182b524753j617230e33288A620100O52463I50859
47647A119629a154996k33444F95270J588570J613252j488871d88497H06996K886928
47638C693924L592255j209527b71941k686085a447745C672768K656260l087012
47630C242016O43157l05388A777117i66343J6161A61009J35933L192849K106134
47621E595925j645979j56796m07240P39688j499851p63984M120292J883087k697474
47612E167668E70204k07866K423895R74122j716146J960014J904527k345926L94899
47603C957723J795130L56511j255456j291362J441648o08358G75027h66767C332496
47593B923012A013508K941376O47990j19148D73008K145450K202755n1922O75028
47584E444319J167420l26241L544836n23370j370334k340483k783870G73844k60206
47575E13638k11464O31732K782367K7946K41857l35558j186802m70553a130724
47565e270437J203076e04919D18079a059420r54830d14432j085708k113485a152660
47555B055569C59284i29277j699507R36103L17209p57301Q98500E2955d21254
47545c51867O6681j491947k156865q58732g90694D369848P30897l19950Q90646
47536E671441j07456B311656R3018p09046J273856R14349P0842k28153A046502
47526h37834A161091J293822j095842M85844b68517H90108a591734k78463H90458
47516E84286J403355Q83529j240531c396344j040659i17583n48249N85535c5631
47506I83961O50184K335113M06299B156264b50495j118026M06688j428573k853665
47497e244071J507998a152884K67062j271318N43872j696506l064415K689881
47489c684308N39440m636322J78912a199744c85222q38712A832460G97078a613458
47479d549111e37614C684715M6490K772534n45229k932744A13797a901490p59762
47470b661252N51426k279575l984134J211690c361941L49798j966130l70064K553718
47461b794619J140058a37273B44053a103512j316646c38411D137257J562900B832376
47451a84923l524021a430139C634653L227763l289429A128075e89841k24454C41489
47441A211766J355426J41119q11336n8418C4986e72424k201649A10739b116729
47431f177797j018165a414856F234630l16823k954362E23433L069236R48188j653450
47422B887407M66675p75527M335176K074063k669754A421475F54251L67492K09001
47413A230744a739872k953469j337935J934512g01845k603379l240089L093491
47405c451822F98864J234352J560717J183204B185049a029847B44356K167919
47397B412275c13367k894565r25625j79283J972538h81238D0413L191027M686898
47388G918338q71958j501446B498426A031193b68683n59391I93637K443474A303194
47378B769115M08365a729372k608315J041911f96758A701753R80096j233496J93373
47369A641726b064796l781608j265938K159104a843282l921703k988662L23618
47361h430029c722581a14631c0133k062871d8346B673821Q84124J041017J144687
47352E743649B750681h9369o80688l815103m02618i68923b97958A461989K84712
47343A746701A61092N46091d79m34038p99931A177829K495330K802754q90158
47334E585755k544202q71673q79983M14324N282325r30735B578155E62723M02293
47325I65016i6056A626818M602270j320642E08088a119248N54505B288390K556517
47316D844907A331380F51228K366007j008229D7915R6272c52887j566759p77165
47307b696811k023587n45233K313674h6559A30797d30745m500329p52524a537004
47297B521112j054127G22200J264767P358a378965l455950j866298J265563C9689
47287A257738i1984j749514L68490k4699d53782A994682a784843j391668a449419
47277A883745a993256j644867a001416p60357j660356l21431M17767J114017j844140
47268d055916J124849J136832C40553L044107A247525d533063k014863K111263
47260d436663E2023O437667j634952j682372J038714A996566K00030f94888j659454
47251b354342B10760Q09978b651648e97346C505367L817021j661637j216046L89460
47242D834165J844296J584059o54549K300361M81767J025435j559775C706075
47233A907887L3549r48349J368891O47261P45490G36013d265263n61721b314737
47223a829879A203507L432283j943085b8745l017139b99956k728377a67522B312212
47213B943193r15896g64941A43721O84539a814124l328003n02098j132421j802694
47204h579340J67414c893798J471656o23250o13178J502950A545085J198376J534681
47195D278142K856116L444426k855275C515329j502601a76259C487777K921705
47187F409482J123387r12226k305122J296524p57725A55565d491802k465699b526282
47177C042152l49246j074336C24751R92452J943174k08896m49268g52835k431736
47168c184571J245626R23410k060149J19244O33903n51032k193070M53566a648935
47158A625338J663149A062826K089964M18032A683224J922666K727191q94125
47150E438956j724212A362873J113951J085720O01638J678410B458527b606331
47141c810226a791387d33455m40666m43411A771534J295303P05406j285443Q73077
47132C359877A008810M7383K199902A469059K90830O831c146571j050812J616501
47123b580882P38699k730653j448869b034466e21654A844991K653061J096178
47115E594230B331954e29818a062m042647j454168A410839J757598Q80420N36558
47106D585415j352272j085503n32141L627023O00933B338578G80343e65112l235818
47097c800930a409509C959965K796661C268458F03911f77247A491940J20237h3980
47087h0059H25059g36117k264226G43050P46271f79416a52120F93522b152525
47077a800496r83650j991421J301969a282586f31264l051545k130550J785525
47069d027834a883977n7127j057947l00181J569987D048180K503334j640961M49415
47060E359968J10583j778980j094719n67059m92989h98366l867215m755298N20921
47051h999958L339791K135002j304372j491405J131873J655054O93976J248378
47043a591661B37721a739450l42979N72436D69459A78679c03939A685204l25426
47034A359778A59491P27231J897847o47624M35669Q29665N95763K072108L25848
47025F395998j141087k110091K301812j311176A476554o59807L394873L024484
47017G236104m79778j611631A779832g84817b50445m326475k244599J46615J36191
47008f538713J838052b294246A43441J795528j68891h23283l547128j905322J062007
46999e213726J318107j745137j186801K740729a384480k06322M40278m34507C31804
46989B810115I84069b872360A14676J86954a770196l182004o33037b733086B292077
46979E137247m14315H04070D2839e95594E04160L083867j171258k02645F25757
46969e02661B797337M914929j332645B129017G73592a162017l310806q94144a659009
46959A43221J704837o46280b374378n22371o96489k289290J114054L81442J270828
46950c116204O24781i66644K05377j266071g23557j542231J091058B07967J333600
46941A541567a330971j862885J519171K16872p55910O38046O32502D58411b87271
46931d32937B69204C0420J805484P38691J748031A880415q43978P21225L43594
46922B101256a41008m119872j232415J772619i0402l14769k214253A416048J566212
46913B982260n23984a148432m157421N42533J993522f47537G15264e76419C77103
46903E375663p61280B202989J728044k01606A663951H00723c954706k531496J815910
46894d670292J359573O01683n73117F78528K146926j152872a783395q82287A781215
46884A339996b08449n4895B93269K398418P52293l94592K135226q91302A286124
46874h38276k02522M19375A002922K227802n88026A54091b360652j017926n71743
46865c950321j609272J398130J386794f70265b45570A788961K356496j743343
46857B402114E78313b819966o87914M77703j724277J898670C46321J35554L807032
46848D288907j244244E75498j96704d643664j32440J494597j037403J310109a341231
46838b9432A425488J613115K144916m62147j488727A007244J570529J532118P93034
46829D902925m26243O02842A998788a730066b6446B278503G15180g11703j353110
46820b064813n72948a116492A011157J139248e33447j815384k042330d58490D512138
46810C979538K03467J088972B560860K691641j273323J003562q90127F8689a897296
46800B000071N516c175465o61706B009764M49689h3626A360100J114357J232061
46791C706518j810689F23353K439195o28974F70238i98891l49014e75573A564351
46781B649989A183013a222656k092404k61188B99543Q07026c63553c1741A680346
46771C627569n57835E8752d94290k245327k288664j243783J432738L37359m45979
46762d947946j034966R42316M04388j141295b265962i66148c04664C437990p03523
46753B734467L62067J323843M93131p58983l70808j214929j173905a73861B891827
46743E106161k114049j335045l42836c277191P60583a37783m50124j840264o00668
46734c028839J309363j253955O57503j74367j992548a952561m67294I7297K650610
46725B747907M424095J424077j065818C178334g19149q39013A82058J480480i65324
46715c092639B9860J317913r1819K238027j650017o95679m70515J042127k60044
46706A459853O15080a050560r44478e61543G2012M513413J70724A409824F29163
46696A550373d36615G45313K390530a271594k369427j561128J753893a320865
46687b217794l97765j91471H19298K293665K499680L468407M857866m80739r93057
46678A2465120l685364C934546G60892d69882A963902J498188m82786K692237
46670E671541J85888j277004G64544e94703n28836m419812P60788A122620L379081
46661D501701j715522F32350L025387R55851r15828R08410q10681j300796L2492
46652B527185k72795h26939A185251K772052N16255K239573l062263C32378c262195
46642c306222l83548o6211k54438P29319l57480A394061N835566j304138B546420
46632C785970a75649p157451p47652M93162k141818n07189d305765a521629D48006
46622B551692j083740e17729j416060j321774J322114P53530H06037b60409A400
46612E493136J65609k024183J150140p24680f43110k559875h35108a45867k852402
46603b998269p3546j560530l878783j804912P77983J085851J048518P16941K838427
46594c848320d05942C316926J950862D81213d044153l58227K132218l84698p66202
46585c421062p67515l034922L28156K307131j544496M94404K590514N07026A462031
46575C490219J692248J879200n7211k377494k241496D62i69067K5827k124285
46566c067525l460283O55c224897h42877A027636J009059c03972l83849B852440
46556E31255b421452p1088c84238C587331m17981c83193n760216j854438c946778
46546A083065K235180N98941A729403N36434R62954J89345J61546j071644M147399
46537F655437L615291j311770j170006k932971A571024K050258r63097c43627
46528b769995R47130q1928j163528h38388B322242n42638d56261l698997l416060
46519g571318c419520A503794k48478P06747K126549L342603J100047k506432
46511F024830j490078p18057L35086o84509A446679b389713k481114J419041L12444
46502c139342j063599K67875J841283C097091J923577K501146j104066l23279
46494F094469l43745B849797C46277K425150K516547j05137j035548O79898L971938
46485H799125l301371k495017M21378A417028a835627j956190k619630K757123
46477c654324j29171J084255a110762k260189l236673p24979L146820a737473
46468d76734q41044L11011F09080Q32567f84660j174421D48031L095506Q33689
46459D377226j893865r14045l23001F20050K25985K37659J483163c28717J29381
46450a99336o26482C48102K392167D86243K883477K226890L130995r89585l783548
46441C954472J349363B647089b51803B139631O63037B05734e85241k225628J358397
46432a452472C637948r94688a243136j654448a7096C757711J103879A256755h70473
46422A47972P95076L86092K300218r240m19778J50656a845576j131803l527054
46413f504433L84829a144231a06432D73089J78641e82028j675470r59062K80018
46404b936542J437045C367608O19838p79327E63240d907337N55164J517674B334927
46394G417643m70515l384519o90385J576694j837883a135426q83111J003008F82654
46384B693842L1949n87757N50428j76679A214354i37850j666872Q53471c8659
46374G8770a680198k239110g50922A256853K699103P99565k74076J325364O37577
46365F444386j309206B467967q58560K824094l6506N04215K98411k267562c16916
46355a723155O01161e09243l52855F64505a812344O06236c22395C78071a06969
46345c74686B671561J469329j802513j162697J862120C43948K5528a080461K60753
46336h19708D25080K268180N05397a648688l025722J934702f58503r28230k603957
46327d190690n32561b140773P3474j796972q44075N98258J612873j252407l309728
46318g059350n20023L186686P51578O27657j339182k931342K436819k20784m51215
46309e519156K70540m12387b156140d06539A121527k67842c37303k325939g97836
46299a901435k778273i40498A546562N86486j08838J063802j136161a11559L0976
46290h0583A547547n68779g3367p37365c96819j08135M9973C95402J059108K866307
46280D320817l12189Q25479J672948j170689k494470f15166l941634J330709q74129
46271d100220k558994K714273i71225j759850k650835P91348J476092P93775B32688
46261A438004e01792A874520N44580C30496K323040M293285J925331l121276m34049
46252E316827K423463A078835d697490J170707a497895O63964A488536k85518
46244A203018a168306c6646B968866J512370J335591A992925c189023k486475
46236e675498j686125K178022b336865Q97742A057413K847777p15146j573218
46228A616826B91163c02393q54199j473974m539269L145316H36135N44366l0961
46219A349540K179625n94007a40691k240066K05604a56539H84032m13378J746418
46210B217072J852375j352610J31894m64412i05521l489408j717360j4957q5577
46201f212823R59179A452051O004321l90137l497838n47750O5562J858228P98503
46192E742940A764632A3549g7201j268102r65596d42553B172241k58919A58992
46182g82556L7135A620090k46830J609672B58862c43010N0383F72801c31524B17847
46171C069037a508043q27610A251852L61898C08796c170857p45245a036390B796320
46161F150893A288963A49582L496256R14029k113497d3182l612369k18369o13351
46152d487271R04860g82687B56150K028113b17601m242809j346482b719125e54865
46142I44777K474566K370861K532770n48551k458758k430523J132410L32068A032269
46132B197402j76288a17679p74797j960484h50443A969109D95538a073865C36048
46122B778729J025062n15621H08339M763M32206L132006M35886P11728L581195
46113I106123m147581H30473c26462C63262Q81301q273a88759k790444g83267
46103A534344J919827A170948g28568r53603j822675j459148K305168A526349
46094C345771O88389A67528c159513k871705k59174Q55636j941310j691177J506526
46085g560717J396951J99379J800335J915431h90016B181432k81269c618279k068856
46076e687135R7617J078570j663616J508741D58432M63279c106125p09204P65000
46067c050329K56560P00821j548276m12658b001223A225892N098439N50679j685394
46058E189616K038961j394333A453085E97917K307173M497767r14431K92466J476454
46049H257346K21638B237651c311991J66786j363378k705858k209917K796079
46041f628279g39246F8647M02970O07571K336481K094280K016351C301320d098983
46031d021666K001314B624741J082807A437469K051151P39789J077050o12707
46023D692752K518j43350B040285q21656a697691r53538J293087B33502b546428
46013a653560k134388p69574a520184l648348k436676J991152J131667L69296
46005d113093j2126a052039F65133a274281l668270K0557a158799D99509P94649
45996A294158J677385m24527c83079j23366B048488M433146K519694K08299I30495
45986b051343b38671k083791l55179j5312F55584O71353f98835D31766a894667
45976e340438K226277f85580A079368a97977l584697j26449J698158k690k718100
45967d931755j639155J273352b276653k448029J5981K94299p33255K304220d32021
45957E6355b263506r26427J166233A328242b647422l161202b817591a194850B323932
45947E544912m43602k183722A104332Q06764b226882m42166H37840L674523p2596
45938D439767j54331J40893n57856j481205J6815J634341k43609A430454D41526
45928A875707N26081q31489C247e226807p68386N17646J817887K43329L27111
45919c089220j165938J499735L13009n67552J174161q9823B123741K879788k411252
45910B592277N97560p51913E28799c247714j515101J403597a646631m274163o24788
45901f545582a650100N26060j709533E89142J57780R67618J85632J410242j070822
45892B239592J214341K201395H1375a673414B264970J875606L494775M86819M74094
45883H596264j670923j900525j785303A515840L003706J243476j031615I59835
45874B034496K128756b86658k535713o20927j069560j76021J203466a97044A309422
45864C743853M621024R82782j787418j890048B42947a552551a56987E17220J398098
45855A915318K44868g13905j240500l13161o2511A882759K410965k35796j030548
45846C027380r27825G03421d21683F17206J054460J368432N26105K227929o54301
45837E139831C55988b009391B29194F7093J144225R47328d81615m453021l241082
45828h175718L484202K98845K12410j159768J700256C86287L075761J78921P02068
45819D343037j529640H78363K80390J304907k84262d19239H11738K722681M66927
45810D001346q23632j500145M407555L61679k169976K71724j898657a231471l797654
45801e029125k761726j809335J722272c585251e67441g3860j569432j18446k00217
45792a961955D91788O84867J520024O46087A050636J458108R80936N42198E78770
45782d288865k443511k96932q82012p15625L353064H76128P16184a088961B81685
45772A826585e4105m7171C370894q81677c68909A174328J411930L35078E08614
45762E1317K256807K410651m39248l74913J02592j68089L47008K490077M20208
45753G096410j661245r85358L7404J246283k137074B67834a037524E8326K316304
45744B374630J194331p02107B70325K594817A150258N5957n62821J866205I25563
45734a746466e00862C2745h28177B525955N214627B508413c217800L35842C217018
45724E795274B513495J217852N01366A253377b767908Q00935E23006K28430J061389
45715A812825L36803M43615H04128M3256O45327Q35294M28942K459520j465925
45706C750542E14333a333118c42742k60672j477385j275519L8138j239621K131172
45697b426629h44736E98973J96451h21176q69088C61973d76004j108344I02342
45687E826661Q56012A241374a0147B30959R50978a274227I41298L992348B388738
45677A188023J487323K55413A323893o40588J504015G39670K441156R12191A390424
45667i76774n29670d18095C3479J455383N11296I74596b189715j865843J892634
45658b162924N96803m01367j589341k339327J358501K168933E58319J254117a294976
45648D54227N395452J645303p83799B785567B48100c543574k754770l93636K80752
45639f411228K699788C925576Q305008j516889l789607M83101C126163G91418
45630c408104M79204G69180f98882k213328g07254A101127J70279j00414D76194
45620e87057j836644j256485Q76157C9648c7302B258846R27425K212618j57299
45611E241590r65847A097926h51177j544633n43097E27846J270097l87291g78043
45601g43536L54575j563754j769356R75126J237650L40519A070897a581307j259133
45592b840440j590642g22820A235087B57253c845077k854183K56813N9934j118369
45583g500882Q52049K678043c23098l78915l250575j291953a755553D014929J303453
45574E318382o30805A045558K79531I480a867883B228484l73529m96843d66098
45564b96022C583687j272338b584906j204429o3370J228391a044057A352260P83786
45555B136046b218294k760469N55650K180526Q46596m76860j224769J385842F7058
45545B511726K619020K074783L43541k829664H49313B75237J74636j17769b119752
45535c498825J536138C052262K000131K743514J49954k456394B454633K521904
45527D976537K255431j288164j733545j329340K205646L939495k873408C44544
45518B799055K535015G98039o5854R27643a947750N32809c11307j106675k205035
45509c623017o66885a224569A643167n42127K93432b682341k141027J964328L85386
45500b473654J1153j289606k054640J955218a144603B823296D07622f276536O93755
45491e582781J609181e32428B279889e8862q29952p38118k011505a668518B990635
45481F10505c154337Q10803J133177J10039q7488j307768J082676j95102n65584
45472b173584A58366O05086i02483j94654j112109k551750l471481L529284g73954
45462E85628k47824g56576L35868I958c136345k113525b267040l94380O61075
45453b000345j139438j972212J027141k29968k557219j682958J364892K618592
45445d571515N56380M5860j373594K215160C67086c060902q55233J789002j855320
45436c982453j603293n8592J827668i34472F55083L617282m29234p43525J298353
45427D397959j925133F6774J182838K020622Q36560j752549o23734j96297n20215
45418A013999J919676O695316L40350A945954e013063J532878R4563a161835G62575
45408f97314k66453k436454j112143J926724M32495j239392o62019P76887J366461
45399a911208f96419C299871J672699p60746L041705P01806K134037J059170E495076
45389b909990n806452Q24275L411922J961515D67057J542067r97465b902533k472686
45380e375219K96805J222210J050468p29976q77239R43007r14668p27305k002302
45371g114219K409883l129236K466743I52843J373685r66426J162406a396943
45362d640342b205168B168566K201599l58251j402953J023073M77040k013164
45354B095910A032904c557969j658253K216142J119456k720434N59697P54646
45346c286715k1654j902424J930957d77066a43974k527427k030919k090551k026934
45337h819805M15785J088583J239139K528371A919971K42778e9165m22961E87710
45327d137323n366748K712864R26505j583212n87199K294504b33473a7127B156009
45317F126176k373426j108111i91076n364854b803830a037884j371471K17340
45309b192015A88071g30639m921788m235318m28929R93056c494980B362588J779910
45300D142498P58513J339243k281413B0462h75688j124369p67705A255184J985324
45291C240508L31485M90137j025413a902262g61712D406751A659002a537659j486684
45282c024343k72983J439125a70776G9576K422898r04482c599252j345358b129715
45272a647001N94805c47197B219015K560505A353125P24276M310003J122885j359781
45263F150508k512896a16297p20510j173106C03214K201126O46206p14063e59474
45253c917351n657110J549869a325246B131650p45927a239494m48321N44426o08025
45244a751414E9362a82072k898919P69082K61313p5531k136251a445575A853256
45234B804058j325058c69010j35805k95031n41302C167718K514051B530909a124040
45224a941215C147538N572507k857725R23702M5227r45697M215652j019973l122409
45215E958822d27720k699774J112232j833412j527680b213354I36633L85466O40908
45206A963007J69071k87821c22713k215398Q87460D87449J486542d55339A206629
45196A363681j46604b332674j335408a338569j153058O61808O02153p62538A241560
45186B980560b645984l934838R03870K141332O65427C744047K898622A292625
45177a712628q98879N47053j33377L25262A205551a530337l89197L51467o28570
45168b196637B23137h57974n074458K14220b474426J105436k269683j962836a771912
45158d92458D09109J8404c2915D16378P85030K81358c623594f89092A933967h73710
45147a271104e71271p19750p94304K4000j996342Q81262d03088B369240N056152
45138G425392k274420B215493e78574k720081e88359l547748l287805c517809
45129a852349j034405l478037j486417N7171L865210a380188k067347k965069
45121f412604J476974j264193j013579K298349f29593H43234c06073o75472K22401
45112g59144B140672K012972j541934K346763j036282i37060k47962B526754J953611
45103D480365B014406k82828c08089k048415f21950C806942R07236n6024k268341
45094B389813q97627P13517A000411c01907A785386p62168c29499B796724K466448
45085E263172r61383A965769c762962k821178j181870P89185J089570K31021Q31627
45076d824607J79358J859873a01737B875597J540023L42097K698213j496785k673722
45067C285423j148096o45622C13421b323937j833050q63223J291582N56176O38017
45058b534435l933528K58740k260977N38633b061147L67721L71079o92799b61720
45048A573738P2231J261968A09652b979674C50354L399258j239152G71411L85684
45039A157095J165949D57588J754089N85686B42409R08305O36773j65802J688358
45030C310043m73102F3121h26099j358264P94297E90895J511607K932332M08916
45021E443750F98890b24225G46971g02620j206430k413551k1228J165100O92337
45012b486392J107658A226724Q82032J078232J289115j341921r04627M20044L90584
45003C040183C80662j80673K213033D72854c593686j581709R40865J255108N36194
44994b443228B186766K727038o38875r39181A178895M52150K3707J991416n46218
44985C099950F36634J558759P00117J991082K192206k355603B73753b442087A962269
44975D644022P52269n04796B356171K3781M738369K147896l071511A717565C11716
44965a819574j708609k491630a783141A629597f16431l084130a173361j956515
44957c129876k028625a828408B440774L836009O4142j943916K843753J753799
44949H994561j280071j66206C700402f90473l575198M16749I32795A28884b422956
44939a00373A665506a042649m126699b100764a7525B352088h5819m173309o27397
44930d886525b245793h92034r61737c7343B279197K152367J154035j784462K90200
44921D091337A858075b017179m57338j234674J77477k6309R21907j528284j044076
44912e208476j261880O83312R21157K111242L67391f71509B508512J616854k26703
44903C898663A427731n54501J034780a851909m168612r06712J00224j613086J77847
44894h262248J686739a695059n99322k95308j694925j817923J636939a327808
44885a032916J4394k836342j420848J384602q67311j874811J812436n23911a934594
44875H08197K05742M58183c775010k711453a270058A161996a139804j437165j358718
44866c935687j799772b819705j795839l050921K464197a107619A257571P02834
44858A960405Q20821K760317j327006A562655B75610J322804Q49766Q02132L229779
44849F480091m22244k472512j709666B89861J223658K213224o45822j426905O43536
44840B297552j04073J081210M85925m45538n25373D88465g37563A410556O09386
44831B019942K556514J303787K53105j936734c07624j271338j121485m388323
44823g088770k664169J906219K146606f28287k214191k369100J122441N85531
44815c503606m148209K707841a199771j948211j796019k265191j663315M297677
44807d574830H403L302634G59100e188149R8026a116279D322498j00563J96643
44798D418578p89171M472295n92479j441187j645862D25947d04297l90339b98520
44788a17724B152253K22016b234015o50293A09016N609765L326459j416161k296773
44779E332306j310830A679094D05482J281342C98605f37647r12851b27546k492694
44770b720240k218005J506165g24373A534600p38499b237534L12442A851606D16517
44760a906059k452421r9019J060038n73877l008513o13700J975453J187759k020535
44751f450874j446956K851284K004305j67026k82546J202053o34731m65505J137742
44742b252254F49793a56515m24748p64055A022354P89398G46876J590571L376252
44733E713699j335254p3211J207557K441021R28478D242224M03119O73181K087163
44724G405687M646795j630373k549588j278140C248008j184574c28879A852706
44715A215827c178981l132216b881058G24063K307732L261976K259674J225219
44707I778664J6096304L5499391Q5218099K7109089q6082272D0947519k0242408
44700B0705111p396028o589003B845919m47201K208427O60510k065674f77765
44691B372000N89143l65169B55890J153683m83053d87714j158701o52705J79480
44682b119640k339485k698839j645902J020231K135698b380154a93213r18064
44674a111277B947344J588247B058179D83606Q32441l64656c351424n82253K5383
44665c908294q22363O35985K97467R2851M07183K0346J98672J381845r06700H87219
44654C796548H05318b7501n18334j187846Q61417k220515J52075a156183j668518
44645b824701O01502E43953J836209N38081A2375d76906C34627i3977A936701
44635E938369p61205q9946k111589k30303A32136b566910R54064n19178c04029
44625c03438A421943P26310G07871J539306L947057J105556B108445f58943A657477
44615E15981c968748m891070o92231L791216a759005G13949B36981B5973J066788
44606A092761r7742J450052o15478p13462L679316J066615A964936A86567J542687
44597A729254K518211K2285e10538k323188j464830J705169B75801J8613c74766
44587b953450f20928B977306J638932K497426k22002k087638A548098i73499j428817
44578b402316B670691K142125j191223J957247j825060o52574K404238K895840
44570H401284K79389j086132l098701m62958j742873L62253l64781i0700A51586
44560a225126j339823k57316a035384j71072C03797J306045j09971L53957K310911
44551D164739j250423g76164p37766O19272B68878M20625a638720j210520j95944
44542c045184J268322j369941l50472J270859j196852l083007b508307i8021A147584
44532b035414l429709O92835l465529o01304J972664K613455Q3986K22308J107385
44523b839323J203495A189671J06127a688976o64316A765229L035436j923512
44515B877153q59438J128015f35098B355980K356866j746349I22858D53318a93939
44505C49755b713572o05453a080759b96334j986866o43435j192529b16013B994654
44495F643418j987900c06063m237083l463146K560926o38877a375056D751887
44486D493952P49236R44569K57929l40194B718848m69525K967098k44049j877496
44477C094876j207051a413255d72083A484399j70686E29059f5749A055647o6042
44468I89605J477672J689208G69863a186971n28720N91009D43135K959594K919083
44459F321812M8699j230158j385350m13510j054603J96162I15502B63281f96346
44449A942450J365179p89337M25357J555333j714543n44984e0572m197835L09227
44440c939180j055930j77510p5132J849389f44265h3904B857493n89341I37579
44430a016885k032670o4320p48679a318928B844387p41770N7478L000748L86085
44421E546928j280812n12138R24527n13736a863696k524264K129640F964L67592
44412C74556n7420h75396B41638B8706a53178B34709a020108r65382A497619N99115
44402B096734d85319l755404k162180R683l04538J134001J560576J82264K41807
44393c579110m61908J489452L46764p18704c51426p97402j995983p56912j260363
44384e162086a496672A748703a672535k528263O85910J454782k728261l807580
44376h595947J657755N46105k281715J012570L587716g90840H66316f38755j9333
44367f58088J78266j880929l19288J292854I87363m12498O28394J45823K262213
44358C611295A344150a645151l018161b217998B015515L585484j825444I51027
44349G83091a226106j152384n3018j758977l83075N54156N79332q54446k253034
44340f547552P01638a640561j642343m964530K621617a45030k750421j212328
44332d107779K61985j378722J773656C155662L306452j340486B498458H05419
44323B59037Q81980J970624J721968A960231a316933n1545b00230G87541B35720
44313B23017b930280l399896p58387c288843b48139m02156K1955l153672q14606
44304d596618L03576M0490P16618a582419G23211J759097K763275j726417A70653
44294f806163m330283J787216J316224K727008J184722B09648h36188l557812
44286d394000R52369J297576k010894j037192n5394J165326B921432K638409B244122
44276c64943j658660J51800A74485J012075a953458l799079k048530P33993l041528
44267a0108602K592918b559949Q24799k662200k803422K267707J639644l518018
44259f811439R57781B217415J928223C4537b465438J110598f65398A306184J745771
44250C051955j34336J344649P01096A988060F47857A00204J181666a961443j236398
44241c197841h74044A631943b28779o036979Q44293i04337k36769A140609K508262
44232C648871J798084Q42265k255874O30150k40060J141933j568832a59620l450314
44223c609934J039930c34293B881239O67752J355383p82993B49385h53016K88103
44214e64913B386158L30917r5769A077621g31772C30521J842644a282173l789215
44205e071388n03988J874943E20620i061j329195F93723J471167G86237R56075
44196A742312K455988j106339b381833n523660P55220J410037J928384J411502
44188b400350l583250J167545G34034J480012E77020c263474P28199B96344b733071
44178g546691k868884L75219K693239K806569M7314J219347a016124D458496L054570
44169G513066j728746E9759e181937N89095j533547K39291M61132P41834J923595
44160b760537G02499J675409q53632j88070m08072K418542O85649k010903j01054
44151A920368J524302c02647l078406J512161f69364H39311P28644J097138N04800
44142C169893a263941l15299A436850M50065I10450c16247k62942j003998J99935
44133a383252A703056K637500A870894m22193J226306F02694b444004k391262
44125d835266l960030P49063c897173J520048q62435q81027J275492J285246O6340
44116a493509o58582B68312i29059l806107k071704J051952K001201Q98055g76084
44106a349807B10715N102667p10819B214741H86736O796J570944L621604L964212
44097A0050292k805322l439536a33458n373445K068706H79916K755923m12563
44089C223276a322611J93108H15762J132109h13603j486102j747136r10761K339748
44080b617854H8598K617281K680057k619090A78318Q94816K999082j790939a388532
44070c627434J101498A033169K425173e56751p91512m0132A913637R9582i69696
44060G22771f42321j67352o85432j019121j379278a016315B104583J267370J778448
44051E150401j730701A80619f478041k492593J752655a131930A495694m73264
44043A022430P71512D84433a866801d70557A644274J713680l94361r28332a88340
44033A728990M541871N91690L993784M82406l212620k166568J907882L032367
44025A0899802K59200k776657l922361j968055N71737K0057k42903J282323g78579
44015b362395e60363p40759c37006B121742h68203k647283j720949R01314m02287
44006d737408M57012j039087j678800k528940j321499J890788L334839B23723
43997B008708j75960a658562o4701G39137a679047n1344n22408M04255l161245
43988e009789M06546K243453k035542j958055k138652b146748B395577B98276
43979i34172B8219K240145J551323C75277b502264J19315A053719K602587j722709
43970A933597C94151J354237F47281Q87471K38251d6529k02871G23395K344988
43961C068383j416672a90504n13171b2869n78784p69114b27651G61462b09129
43951B07738J190650f86298j828442j157664p43253A924489l12722N31074J194564
43942C337405J64312k15859A121817c86872l001864p81919g36558A829154o51474
43933A177680A03615K575992r35022a220246H58187J047379Q22414j229170c020070
43923e177179l51663j945504m20345L213693E94688K152415j333638J45716O73161
43914B232342j098928a231287f4147B460337J19640A229119J540945A026381a218954
43904c874498j968974a305503J60327j758398h36683A40633Q5222a211571j535525
43895b747096F18285L73470e33035k491034j917042b405615d90234A212394a906355
43885h637104L754194G07723c40749j866164j954860J840892j895540l882555
43877h098976J102805j930129m08178L449552b49638n51512l157042L51870o58570
43868d264892B263273Q59339c213180r57280h27212H49643K274156j84026C21749
43858b194559M63001O22412j938568j583769m30752j57723L21473Q38890D3106
43848C292406j171754d905322j13014J292806k82908J973565j588456K83471a503049
43838C730336q07759a748468j97654D26083e02402A037528L564626J936275l74613
43829F163816k794355j622393q570K228195j628962q28405K02005n1667J389725
43820C049389M16615K962194L227704D713196a348267o14569j100499l579492
43812f642827J520974a930858c97875A301983A31879a719660Q40869a48522A030442
43802E644324K606411q02366k369803A541700D43811b66821H69767l1116A35027
43792D33782J979487A136357f35440n22487D41316a852842j011923K55402j330342
43783c939705p52729a304872C050288J018648j857931E6582J327976l21256c044021
43773e836626D87188L707864Q59623B432383f2408j696145O43999b90026q97692
43764a187718a14051a4141n47726B455856J338345M494280j346002C261209H18269
43754i97558K21250a49591m327831M67762a91889A434157J32355b71087B844320
43744G74330a016542A345689J951780K435677k328778r92656O75733J194664C99407
43734b294041k478087m157386l684816N347492b576887a077845A196432d71877
43725a135959j12365A313404P36512G44089N76322m24688M27034A14009b872411
43715b498537Q69299A802069L259889k482821B29491O00776K169475K11868m75134
43706B736476A213219c835877P62768d90381D11979r1426g74875p52726j505535
43697c033136a299064A813716K684299p00445A029622N25523J281177q1360J19938
43688B874900L790128j403844B15076K074430M28810J199520j358079a324835
43679E73423K25882k25013a736664q31950j425166K0678a681671A404816a688275
43669e583533p33381c072157A362916C95495a701525h30425A844444j20339D44181
43659B984781L347077B636841N0150J441594A412388M3689J089306M262364j261687
43650E546060B477699E28878P31372B72557d4425l4154B248667J690903J226836
43641E166406K018953n0040j026637L18867c72294l887398m90828a580436c848
43631a222658L45752k903286m727796J9975K604024J465641K174804A165094L534791
43622D699885m49929A516922b096891n45060j665667a817108E99149K297592J782816
43613D679557j616204N60424j420294H45760l79099d16595q20428r49011k115447
43604d301481O34631L63561P98925b87507B695936L098670j810041A809548l36080
43595A473468K413840O30219k082949e55885n158175J175311P35082K25102M04509
43586c174056l281024k214294c661431h84953k117712r48797P62728f89058B837870
43576A88044a537381l372481m03025a976940j889516r51830b372414j705985l869918
43567g948317c476704M90425j812172b172320Q47809k228339j510760J956573
43559c107037J332180c55990k26688j000087L89526l66174l176791k64552R37082
43550d063674a876768e51633J42680k089341m8477j106242a455567C78383R04885
43541A283268o8050d046362k668559J385317a392176F38230g15893m28334A40982
43531A361403Q2623J504855L088883J716429k460478o58431j319111j255931l96826
43522A663416p65335J306459K074109k97867n3062A183234c728686j030744a147030
43512f73936j116744k519554a918198o90048I49760J819928b86596l330218j728365
43503e345179a295078A99444M244489L03243L82330A41993b034009N17469j367688
43494b884228i94249j81803k015146o48299J069969e01380p17391q14844k451800
43485d485415q50776b37523A454862l23726c719022k223228J109000a766844A238892
43475E360749J245605B991736M69573A296582H7570L325908J514763k159271C10905
43465a258718m77638q33275B82018J66556G4836g46704j503102L06333l30038
43456b273511m14191B124360J81457b583902l465626J604207J869641J019450
43448a556230n49247M77995G13632L323467o02980b07828o38264H81448b85202
43438a119525M53584q42544F49709L14100N19462n1170L88782K3124D91851N32347
43428A024198K867230A068815C80174J693287I93198c033389l338644l87269R80635
43419e778667K722473J283375k488495j992004j267610K262695b322043L97798
43411a924245N11233r93191o57909R67597A249419J120994G36559c07711D883239
43401G231916L227701m890488f252230j797947L937804e17275o31369k18112B934908
43391C659342g98721j683462k8399R74822C64811R01292m44565J640601C29904
43381d91979r76274l40484k61291N53762a87595j000460F86298K360686H44362
43371A719900J577500n49769G14664a740054l36597J56066k529562M09391e02463
43361a082632j735172e07275k002B56151L233761M787067l362264H0726c720064
43351C20471L569544a79788k657691k122929b370958j46437B77518J113071j75729
43342A214860j84411o4302L770651j786027A58072a679366j92245B11868J741352
43333A953220F87697k14497a251045j775077F1159a775602k961308p16158k178258
43324g631326J677347B295274O7285j152469O32503J158457I67649b853147j956647
43315d809794m81272J89701J949633a445975B348781L031483A201449b280624
43306d475696J783873b15509j077845j780645n831712K048271c131018D08164
43297B977073J614739L66028L34588A884215b372011l158024J466895a643503
43288a827647A348781M354420K296334J807097l115976A626505b426565k596519
43280e023084K51192J140537a28204B526626d14508k240281A49745M017063r38704
43271C228104k8504B91146g34793a60511n31674C25759b076464j853089j345750
43262e275303j986279K481112a627282k085667q1528l397264l600414K840681
43254g951474l13517J996709P82081J601709a335390K2292j900954O75454A032095
43244C853286j611291J93223K215888j762036K62153o90817a904215k654080K199699
43235b358596A175113L509314k341868d36582n12912b43347l224734O36617g12714
43225D30582a240425l449074k239770J204512K453925L6623B453630P26052e72108
43215H19466J433667M5959H96611N95775a982286Q1016B527148R83511A202329
43205e47956a16458B488782J491614r48711r06716a40191A549944K35214E43526
43195a290909A835141a641169n116553l22282m565052L449775b759765N44309
43187b215456I12007D5929b067399k11460M04537l09998M2720F87361K662109
43178C349470C59728d267904j66045J152470J407046B16869K846941L130668M68640
43169F663118j593482C50436a134487d2688j593762j96328O2808h69345B049616
43159E865681R02617C289335A503742a953998l08379F64855J7213c02088j998423
43150b300511o50008J14011k256211a987348D066494J389083j780269F34880c70963
43140A425442n19059J432674A040339a799516h74958j700385k135759J100013
43132c611089J657014A258657k53772c518242L39293m49593j539649j496679j018785
43123g683655K6763J411908R14168o81086b383928J145876H89186K588585j377587
43114B100184a430000j165129j505512c53385G74185B24109M53680a6855C507651
43104F136317L844342K088344j943889l786577b244770l475585a662490l9090
43096a701580r25607A2814g65479c03712C329251N0187r3486j078881J456974
43087C664045J504692j728006P44395A575595b141002o80298J347622o53271n96413
43078b723362R30925A135857K687243j427399a797819k64825B152931J564378
43070C717309D97053N699K254405L033704J016611n80990J189190C170249b570428
43060a268854B075956I02169J30613h30577j783466B98745J993389J794730j889013
43051B197851B66763O86649K96829J846416L81040j548513r07708L471269L73340
43042D866085k154095A120520e0708F49932K306597J483111A321030n82476J295624
43033B034178J136594J518852O86704K392200q95193l186625J781262q86797d12471
43023b731891k82427R00901e10548b27314C83895J424353P48784j232704f79246
43013a323657D37198j72303A19369J889344K471864K533633l01488j654607J958797
43004G016912R43695k12343j977077B030535O19558k58439q02848D76316O34309
42995A110625K742157J640118A398973C88692a221608E54498L485263P01661j275114
42986C466308a005733k976210O27511a211885A140487J545308q94099K24469Q00860
42977B817025b448480a183070B229099J232721M31140g72186j796937p83775R73280
42968b379618l081580m28520b545291B765063B08377c005046q5266J112526f86152
42958g30313C0149d476252l005109c474817F46156K030913Q23052J093535j34823
42949D458833J62409j194729j504603f40623k229183g94593l7985k545440r39981
42940d317999A85061L575807k73410k83367G33779d203478l538452J381208J344786
42931e015936j285289k17878J665138n16217j473406J042603a549618E86641M44504
42922A031145L94117G3837K256413R47162I15301A44719d77746k203969J145200
42913a536515D00559J763543k24413K073287j476689J614147K431551J038512
42905G620497B956826A218356L544379k191034c35021k071186k711333l856454
42897h973994m62336M361890d90539B434048e4080k374053J130061F52053K664663
42888C316716K973625o19545A253086I0487J03839a616717o023225J441008a044719
42878A394993L348563K046425j412347p3061k230251C8803b420475n1929C561973
42868D116290a503690n149591J196317b280922g61134q59363E4506L476130O52632
42859D183268J688786j483999r80257P23676J796066k754560A023502i53026m005323
42850d958349r61756P37278a592312B26084Q63795K137106J630896r0822j358630
42841C408429J852568J202356j808358h98754l09395D80823J579274H80097h62369
42831b750128r82751p69220j072167q86065K997652A16641b69402k745962m40391
42822c455755K09569c70193j079293j825885J413173j251131m051443J381587
42814e783185b171679K87921E14021K099639o35243M03781l82564p14918J897167
42805C181883J026808a666284n445876J601085J347042J769444B010096K561389
42797D571485A134243C63985M716352J038613j986441j681813J02954j273954
42789A279696E74850K259738J017271j250500b040112c06613A955442q33599h87338
42779b546642h58218D915071J722380P19052m26463j514520k64352A665624d36029
42769F45935e79644j479962a61088B613351O13511L08069j152059O51869A366409
42759c45758B180868K241170K80799j877531E90669e28703E442206J898319k558028
42750D782497A625986J233006F89268e52671J30073j12516j600443o77778a341984
42740b835949J302563a97928p94398L63111j508087r26900k351888j61541R77130
42731d600501i69199B635920J071109A238029J300264M118211J27679J156365
42723G940548l010158k252437K445193m86259k060037a038983I5666L616237O23519
42714D335422j371843C78026b083205B541864o59628b153902m553499J317071
42706e390330b466871p14716g91804C532331j742670f15238A51616J32697O49465
42697I33778L53972F12875b749209m542527P15971J518707a388260A564345m03214
42688A161131Q82517o48280A76281c84786B063895L58234d87011m152027b200173
42678h99884m65918j93988l681165k051510b685580c28513B974036K631567B393780
42668h11500j732926j208512N66032J84562R10406j795068J105828l324336b855902
42658B746718n91931J051514L046076k094705n98572K02716A770602C31719a55564
42648B672399j222430P52267o94756c71233l541107M66957h99011c51016D45360
42638D58465b020266F6799g3845k932058l72902J374686A022189K764555J030166
42629D816910A697109O69369J607217g23005k739864a079953j237706p72591J377079
42620a713171I66760J077219K598668H00630f510002j229551L397015l58753J159436
42611c541855O20242k652563J076293J016751j059759a360157A12912c4630l34056
42602c68686D55508a508997K53151d39670A320925F49595c54018j123782f95462
42592a397199B556668M264048p02870j8621P32850j360439k249072O07143j313738
42583B515969J159051n89427E41562J134859K443808M623863J017364l623399
42575F138057k963712H01000P1564K446568M241626j437502j520153K055786Q39015
42566G497904B749563b158941j005970l78120k386182n99542F35387L437372A382559
42556A062256H8464J34826Q95125b713746i05493C383816j411186d21173C520424
42546B294442o98524M55834b580694L74803C527540O5123A576369F33144i232
42536D08f25711k197110o6460A67050K199103o95719B80755J868211K19181M38969
42526B807116A350950l07541a330061O53424A406434a389919m075480n28658a239360
42516B701683J732306N23044p65097J751281R77149j098043k350847j275599b516557
42506e860887M82032J249274l24713J423566g10646C612346Q89031J863249P01284
42497G065910C33251c332279K53168h95307p29864f40167A837906c61121k101246
42488b462367R2345A739491Q946510Q29055E625670B112091H41742a774132D18230
42478A282838J524831O090318j938580A85207f52063A417280J323795R72658p85714
42469B928019F79864a67862B454246K177854J819980I07415c617048n27240Q60248
42460c284040J042639j631344j468923K230071J014091F72479K287242M22132
42452C381853i82558j504024E78923K003757J287228A193553D22264a590651k145178
42443c735829C96289i47911k087377J302447j250365j426847k842649K018783
42435e233919D27715L24865J140039L016281R26212k337285m70178K020649j25414
42426D922884B325944b774994P36635p9096m03368H66262A18849J627408A24918
42416c42905J35542k636479a018147a82532N7450r31257B404795J594359j728057
42407B271097M10896J007158L308906l92553B846898n41039H11215M43147k32634
42398A021728b20942k540155j679233O27054a010889n02498K14997C225126M922945
42389H148071j712671B949506i15068j321491H48167L51706M334933L419706N16686
42380I471198p93961m178351j73136O25772I90206f05804a41321F38275J924814
42371B563089h46865k230090I31856L203290m52910J177125R21647j612844K264808
42362F432972K177018j681817k852996j361425Q01506j015488d39639J42487A293449
42352D68067O51480O47933L138272J004582K67286A992239b233234h42073A411358
42342B982885R53589A434681J236413o81816c743598j8679c35235J05341j685290
42333a915184O27817A959736K132676o75605K906799J17676j695979F80217a689719
42323I53887L56980F42431L4314N25265K199313K617089p63503k614321c33577
42313d212904a358375d3400I89046A00417c101674J474960J03970A818472J156178
42304B974650j020017K183487L583254J206392k539519J093190k153096F81178
42295g30726j559883J27644J30530D58627J233987a248690J07718B52637K637503
42286B890140P21603p28263O5238j312311p84218J97135K745590A540874L8617
42277A579491J552846d2428k107201r00168c79754D7296M598764L911402Q40518
42268I397980P84762J636333r22926k896366j123490k670999j187174R51721J764712
42259E734553M23064p58644A892577d338251k82054K080859L14339H20198N231136
42250F051334K697675k447763K39249r19787l34917j831714q13440H57273J616458
42241B473731J434202I75696O05706N732733k028645B618854M139441l80378j661644
42232D716273j836074b18394B88606L265259K437652K79465j884066A385203A42866
42222C721849P60058O02917A834620O78909L88272j349974o82381K249447o06608
42213B512285a506332e61478A938597r57783a103133o2351j274676j215674G6606
42203E11457p4998K657153J471445o73171A305023g44597k299450J458083A458637
42193D856512j844054G54344a67467E48803p0297J15859j48135g13252B604409
42183G357445J52515l460535A86019a398799k16821L07852j913980n11363J412022
42174b321089J44151k17675Q04365P65422k284268r38027p62072J993675k607381
42165e422899j494085n93491a862066P16040n70104o91420C43872J857021l27905
42156A872988J918322K147185J7988r4942B205547b164103i08932m68733G82830
42146B392933h57786m49970L67110B87638Q71013C6076J43556a078755b90538
42136A896296J388698K75539j768332F48894d34745k159791P2423R97040B09351
42126b23318k323388g70498j233779j321543l70201O15163J86349j196484j5356
42117d106349a700943l04097j788691K28831a227843L97777A080353a494397p98879
42108b293276C509154K702023B639134a668507j518227k191532N85051l88933
42100e182148J836377H49742A70773b798323J080106H30666C37063b47213j488777
42091a735990k20951F3238J973611P13490P58308q93564E33275b05816A904204
42081A383818b988190j244718J187380P44428c15858B877042A105325K318514
42073C423839k48986k77847L49110b56901l331774J155553J59223F92004P150207
42064G842211j090863a214468l638526j182321J901494J819644i00729C281457
42055E323188A718882K876063K940840j427611b598066o361230J17511c449793
42046E72140h1775j926936O15770j577928a427395j177891K33054L16271m201430
42037f257391j428777J968819K107050g94272C499567J002041J528029L765239
42029I794876p40924C940860l75305q0186e2262l519655k270730l932a593523
42019D991298K452426j754577j160675A958876d328052J122432i97533B793253
42010E438154K89153j197825j016959F02744a668331P89150F67775A6685J492501
42001A509186K37965d70951B47785e082066j987643D64569J981064m11717A76051
41991b873072a84318B312990H66492c85340A101111M40035P58035E35531b739726
41981a906604D67422a61460k327199I16557L352319J240325l90701k239654a1381
41971b73254B665230B18873a202464E40775L176653A428572J146701J658935A924685
41961F10305Q57009K273798A473829J554055J145702j398718O4512J496201A878871
41951b246687a080188l0847k2252b16455P753A85626n3498a463263K9449j518188
41941b952002r19327a535150A405514J480576j34151K361357j065142A155285
41932b544854h55633A839099L840457J258170A927385a905959F79429K144386
41924B823815j130466L09067b2715k162409k938823k610728J721576b70336D108431
41914C285456q02315K289372J307716j074442j752283J733457K69380j416595
41906C839746e27184l005672j780489j178075J497951b184955j219751k273380
41898e678086j265449M17060A31801L764359A756506b630794j819611Q50475J150430
41889b449500i98326A5884K901075O85454M79011L783475K322096k036417l023896
41880E126682B434580R4171Q71578a20902j563972d45804l74505k166625J239074
41871a747860B63067A07233N05805a273338k147212a598995J03886j603248r73254
41862d071611k352798o28705j838559K804186J505738k89168K093329F45056A68832
41852a339829L91126o15188b1799i714q15839F58862K256194A451265C37065O41063
41842I78128L420408J291462A480675i58969K13320A963573H41662c132632q50854
41833c983486J296375b02907A96388a754989m24219A368429Q81180N35106j37056
41824B647659e79711m033936j585148K55366J660348j9427K24307J688321A11539
41814B383561j001386f38631B169627p58571c011931K61412D31323K15880N80207
41805A227410K667014j294218j068150c085756k051637J722293A225819f37939
41796a16485j053229q26768j089434k48718A629207R12868m16474E63485a643659
41786c519911a696233G48794I2088a898j447594j410395q20719j555932K477926
41777b758612H14128O19764d89238J38954A321372J738467K351788J605216C388003
41767a728563l606944J66503J591930a93151j189563D96750O23776a888717K56980
41758a631737B30535J043794g44981B123846k59468N70443h86700k865573r01817
41749d654090a181882B473128K166941k150392A13458g10750C379467K487282
41741E866749k528469A012345e18044k516393q72001J936777F81275K194362j65669
41732B709968M4930c02962j478695M89398L35076A695995J208073l86375q60203
41723A657490d396029M40288J381786n65369P80085J86322j458210J520212R06932
41714a203983k7854e0208H37757a633795A474533R16574A186265a16741m079979
41705d196720m395191K927662A5138f43617o91813B210329B45611e022986K91466
41696d731520L81382K064918Q41513o86398k120096D99592L689396o27810J80571
41687C741749j650011p89303d781975m190551J025303L457604d12708A187622
41678e43041k814173e60628C907929k59095j299250j074246a066904A4376J189085
41669A203461N79772e99503j019726l578235b277144L56649j890643a119439o33362
41660a752801q04986o56138m29458Q56633j59912j579919j871214l232847K263033
41651g367609c194524j489493l149379L707949g05350B408300K014363A657387
41642a204757j388663J125171k26528Q08434n55073l528214p89670M05754J888092
41633c465454f8106F58106j34936Q49232R26134J689877Q34983E06663b500337
41623G99957K928567b53244k632376j529769j425189m399761J033505a534925
41614a643070r52043l56510K41364J170500j662958l334245O16795Q62853n26746
41605e584060J21603m14702Q60644b027964J85464d71616D786885K135870A502780
41595b922093J025733O03545A42683J957211J020964M299580L67113C119984d80509
41585e69860E96891J090414A7714a866921k431066O15940h6872I66243J249503
41576B215746k98028a570408p62609a125317B242980k93260I14472a792650k821896
41567d614546K41648j284677P46701j6955J561479n21161K72928k208071P40785
41558e081869J706314G56565N920152n84517A541131b31194I13214K470818L335383
41549F719415O30300j202119j267124L039439J640422j951088C417836M67925
41541C885761K656963k371525n26274j463408J755133A893882b351615o18491
41533b970106M25273e52810b30956l68351G81028k74169A31953J138159M63552
41524A733664E72002L345521J052142J610773J703999k124726j101524j987766
41516C070421f63216A86339R38687J979520J810561n26900j714911j320495g72962
41506c074369J283704m35056C378365L385228k854661o50333j606875P83574K329585
41497D764883C60996d966800k427459k534960N00803L929684b152272A284524
41488A863908N57399A047005a742163J02943B017730M01284J647224M93797j98819
41479D361216p3389n8776J267883M52905k543991M33484l43764R23772J858515
41470F277855j882774a88230n104772J652266f11844p50619k446463J631966A482346
41460B707027m31703r08061B45280b271222P43535G31593J227847M71758m0610
41451B390588M25355l7177J759046j387652j130953J109439q11580l71964J911274
41442C856376J777499j327155H59092b770463k711105k502623J930895R89520
41434e063776j182121K815769H45517J533187j044617n84164K040302j098659
41426A691566L46827a761902n96908J9238Q21218D216190k08167d86677a20458
41416B609278Q12833a493362k242250k375748j426790R30091k377905b601241
41407A630500m23035e97297C95256F191c498813q28941k60458J535827j033477
41398d085862i47750B543624M51399R23994J042807N0584k347424b705688j663727
41389d369415k865536j818491K522306J911222J0761M79809N17898p48665a786036
41379E81671a467125J38008k162991J434796I56478J311779M73875b45636A825569
41369F648058j393745k503383J822807K40151q49539j461341e83159k033138A31204
41359E04067c22013j284799F37299e64332k431014i99859L52315b06742j952210
41350b158952F03045P99226A24279L974551J367806K275524l235224K018838J470275
41341G996049k178924j211937k167002c19300A483185K935244N088374k916624
41333F590179G04309a515045D23669e53523l053939J184568N3120Q42241I28918
41323a790746e18618A324397K201667M21215j524327j036824f1845G26574a861834
41313b020565A663276M11907j014480L304931L719770o95312j677328o15999N49802
41304E646567k684682O62007r04356A006197J62968J920308A488785d27785Q3023
41295c44762o41359K27668A208070a335538k379871j478556J264475a207175A032793
41285a672950m77439G96470q5454Q94627L043017o21712F58061M25757a700742
41275c568256a154684j120911K73294N13341l61656g09081j646254a97819A184994
41265G29032d45681G54800J280153F98344a964430A149325L570052K75593j139380
41256C855590r41282M73359b408253k932950J746836A49727R43524K788533Q5523
41247C967307j885717I71053O99602K420704M17322q87471A303142a592292l789101
41238e381393K067967J504444M31119J16663j97538I99354J315029K201835L366778
41229G882996J703504l578913j340263l85898r65670c09172k33442A850813J909527
41220C760340A779142a829933k96589l950906k071179L527300h7170A064467K019043
41211C083510A326335b406697a128485A803675m25243J601607L58247j253728
41203B084558A31975h13856j500003j333974J404207J014948G94233J128732J10284
41194B033249h21119j891365a82207C203378q42991a70145j013108b03697G95552
41184D82829J502763a140050n483329J571419J454595G222J495403M806338M02646
41175F711609C270916r56546b223123j047701p59980l87530k521722K30722a085714
41165G248916k267782b035040b62582B357417b4593D37019K761713Q86783h12409
41155e645336l36482J665896A831614K954757j178769f41725j643918j310662
41147c596305r24736a257606B418768J944641j724335n70475a17135h145l552316
41138c560461J258131B226186N12572l08051J037912L703314J164415p72449m16111
41129G147788q74060k272939a391948l166652J710040d16027A023510J979516
41121C003026m17260H04702b64503k152283O26352G50253a663358j012111j922582
41112d598051J013701g89263m0859A540696M86496o09576k52375c63501k943594
41103c307095J84028J348457l32444d28790j856576j734465B115673K687312K06481
41094E009466P04279j313846l82449j184667L93709l43377p059A023354k38683
41085G84671e53207A76945K401848Q59863j241715j67516b138568m905382K543621
41076d500329J329353A36065K277636p42997G05481L207138J834507o55855N35355
41067E626626J169374m23670k008997A712724C46058a375908r35245e18841j455701
41058a974542l118942b328287m70931j591825j105661M28255J050924g61671E77194
41048A577950K148436K91651J08071m92842N67471o92348p01227M45058J15051
41039C367271C6858b463688J99987A502089L141552k263558Q7315k59274C06874
41029b157661q34922g57998j53345m730959j91982a516932C342340o83208A320431
41019b04529n92231f9413A630444p96697b342074n9798J86408J68019Q49625G18148
41008b057963k876672J412571c86640j290353B67856J800216C02202c115217L46166
40999b769051A73420P25457R53503L502405J521408C256066b7423B353139L280127
40990E633266k176599J88938R86539k061796a362921L669j028003l1319j621329
40981d039903J248407J108342J35883B242061C77913c87343J53467k155247k677654
40972e066777o46389a859116A598010J165585n66982o59532c111944a314979M10119
40963i04860j223600j206440e62739E76716a421448k841898j751428k27791K697042
40954c545523g97081I0563N60126n5703J966782N465666K16522m072462I03554
40944B275185M42954R33722K870882l22269j116564N75360O70837A808968a06757
40934C188103K649397R806k445408K653826j821544m76170A714473n90263O11036
40925A735246C47269g46794l418072J208919L71906k787975N40503b011874B307817
40915C138578k91269A199336c7106J7777D39104a428769j518703n527682k907904
40906a1383058M162630a924948c1471G11586a15197q86583j036768P3172A889035
40896A016141e9267m38504l666550m259218J455078L122593k745633p34536L339291
40887c986746A895858J626735A595709B98482b752283q05159c92340E787690L266602
40878I054292p67369r19998Q11312K75799k121190L4974M659771N66763C642536
40868c018790n53181q47792k225221j100891N05019J474108a970455D328645O63837
40859D992482d07393k683254R75339i58208B029649J31473A24978R21807K62247
40850A309032K79930J475381L199382J854952k513293j231243k044912F47958
40841A871085R79551R54859J2209j684903l24202h31208n16543J04403N30564
40832g12784j362843k036077q28561L39529J434385A235896K120175p70120E94020
40822D0940g44573j824099M16648c78969j601936q343a87424n10091L08587k089572
40812b478500M25367b97039B350434p68159G08747M5182a022443j297292i68193
40802a009283H39024j59890b46991A335311J447795q03017M97240a538908k822926
40793d361834J161872k060768k848750J15755c300213J189670L48748E27912O55620
40784A183532a124542A414973J201263b25800k224180M15578d64970G03726M646967
40775E350693N234855k0237K366193m410625C509878B27162b340153j366359J80820
40766c525692J288269P57039f7646A456560O32536K870160L86735k072671r26330
40757B346990l95157b75165A936946M945395j77744k342541K228695n5242n76785
40748E958724B184659n42031J739800F86315B675c535034N9940E88626L300296
40739C888922m74795G34035b959000k536366J730213k31125j499972q44235J68643
40730f171842K001003J133219M5867j221922m79503R89320J439743C21304a782280
40720b989544B355896J315550G92287c67900j675291l197046L25374l48944Q7765
40711e176042a628501M55506j123762l480486j200276L303805F14597a110667
40702c752259O7513J195918L48697j96238k90102J186350K73005q7921j060917
40693b315954q10547Q22107J91575k169596k559537o80458J38540J758278R86690
40684d638902J159526A531475K269484j47187I34348c892227L55647a645467G63659
40674B008584f20052j087114H24865Q26628J69529P69112j196666R90246E4176
40664h25873p7518l514522K62467a907259F7034k3220K55209L4411J146503M76494
40654A956431l93172P49861o47293n67061J183061D44421a917266p99996N51113
40645b166149j346211j24813A92505h6944C63088K313543H62194a647690k605922
40636d253612k032750j320528k503927K112437K908453j236789r6854j542144
40628g965714J574645b423514A88011L31431J46182N93147N32286L48515L43986
40619B483558L045645J866585l233384d06877B822456P11002A193348i2782k36250
40610c29032B452261l557b306077o16285F09555h51844d11664B96799b178912
40600a781642O40490A152734J167175E9013e4550B469319L920534K130034k292152
40591F227735B592830J037675q84680A012266K525598O18295l37433h9940l050222
40582c140162l380291K446549A730774E0082c383879c75209D328388l79234P72733
40573D721887L25089j155944p965j781092D92325e00399A739502Q51105r94146
40564A596461R20836J589817j507989o22982J587361A684062K579693N996096
40556A0259851J439383D114123g66630k996431n2865d87464B761858I48166f77171
40546d231023j931683J340234a212008k11711m396762l08853K201673J961045
40538a966616K90094o8222q44470h69851q31432p34714J145276j804304m0639
40529c135664a273611l969511j919300b994974J078391A537376J071769K188729
40521D797874K399500k378289a830307k538728a952818A054160o3270a631836
40512f554601n72337J702237r31867J685246K225565k01901m64305J101611r8139
40503b108491P93545j931572j674849j952207k698940J341745L118974j118333
40495f230128K829575C70265J674500q99522l07028b069787j648369J207306P27768
40486a783082d57433A306604N63479j38794E87028e23382g5464p56378j826351
40477b658193j00845g53569E3844a226960j98188o99228j317042f38907F78413
40467A290924B244b814918h87964c40308j395546o73395a065058E47209K071126
40458B618335L24344D5183b116164j360154P7895i33657A340663b43245j993566
40449b236811f77693D11028j59048a37536j291170c32005C837216n60989E78189
40439a906193o83034Q64409h17414j023924m25399I10038M443220l25911M854
40430E032201K428235p97431B930422j083320J027816A381265l49274I5152a498279
40420d582291j5043J850551J24986n32887m322062k346911M050476a472434J81593
40411a290841j66197n93530j914164N28678f06048a44294j36475B093680l09650
40402A784030J59321F18281f64969a19140A004948C77819c317805J64426L41599
40393b811780k682419R45141J592347l820017J283585a460223A454893J908251
40385C363144J345098j28972j446015j166736b034527k020603j717432j15104
40377e887666J487924R7234b05913K0495m694348k959935P28822j037112j670695
40368i818686J19614n54211P736k73296L049749b490263a51238j9460H69824M572184
40358E442008J317337C130611a177439m90243m89919j551562j44542J483626h4033
40348A566065l93634C84113P16287K267299q46578a538844j584388j719378J518017
40339c324593D99360J678192N65601j47782j218714L361532P04619k575785A157191
40329E26929J147845N132109j766002D95228G7310c45243G2008h70720j835955
40320b706675p685m86750j454241j323066Q6644P34509b184614D061095P40918
40311D802013H83466N62888L148750J995170l209326a009330l362748l834166
40303h206244j391346J763870L092823a809986A789543K723159p39582p26895
40295C046225J525340J700191J808610j509113B874697j223239G00827b081219
40286f330258o03233K442817K005946H03866O757629P09272l864319j113381J26215
40277C419282J201127j428222a434018d15384F10861J46530L258221n20322a250729
40267c200800r58351a029111a51046j600456j385347b08939D526143K433759k22156
40258F737746j326700r97191k159119j35429L98693L500107j310177a120160l414405
40249d534565k165298P31492a747546A248330A12048a706805j350963B707808
40240E181583B353340a470385o35396b17430E61102b274995o1626j344380q19725
40231d500726j604475K254452f31484B525273R52186K998736J165710k927803
40223D714102k302502c77039j764101Q9924j006036j144304k741066j873870J897393
40214f919099R76652P09536b251787A858871l80817a676176M27490D028802K6160
40205D054962I13192J065149k27283J098173J424911r52707p79256l42910N29166
40196B728435b2378n2895C773990n53569j569554J980002p19073b087905m066718
40187f154623m01389a350767L37378A328516M439568k203343F32310K35079f25343
40177A82285K250283P87366p61156M99066n90551A160460b769746K69889a245654
40167b777332L29272A773611l50787a698271A170553K613535j567192F41899J52934
40158G94833L206232K425750p41559a813549n646625a897981D495724J239586
40150E735310j019471A132865i15950k020458k404302K195328B403882L763245
40142F167127j583367A924374b283806D46460K490520f88573k926058a397556
40133A151995a745949k65697E33063k41761J085112N665433L73930j760592j075640
40124D579545D52162c262404k35684k1145O77019B723484O64175k627M15931r52803
40114B848160m29237K254700q89570A269247b120185k958347K071688m34852J005876
40105b435820D83232J325316j7428H6841a361671k159395j198270K66199a403836
40095B759699j161889P66375e21194A885580K609601K56143A061200b380972j81392
40086b562364M74961A648212L534178r52209k081171P9931J671630d73864m579081
40077e052945p724a887472k3994K87275L3519l57019B1434J662766L56344B71797
40066d61629n03785K86955n53026N16592A314992L41097b192554k421523P56375
40057c857702J815463M19379j896541k62899O43157l9048J189349g90913n91031
40048a381944K87295k53250A017990M20475J847860K27940q31917a736489l84395
40039b120884E98634O65309Q66084a225965c36806A141805k92884l0534j75971
40030F42416A18607M44651A38323J976151J320626j15662F65569i42330F08156
40020a903461R42878B666903N72603L85075A21349b585399n0792B33446K344904
40011B578350M93350I42959d95921j187248H6400a702969k828109Q05458f83719
40001f53748j291648b69090C333826k27583d51844k566426J230523L23697K07034
39992a257016a49968B76547O6464d9018A01332a361486j639521G11871M182718
39983D894589M92049N63816Q87281r41527P66450k418706b24048B413946P08625
39974C122571f34291j213340e12684C49415A24531a365997o33753p4350i13023
39964f49377p39725j993863a603702E77905L26866I7791L062305N575121m098848
39955D636369C87904a065332c57926F36474q7368Q26230c3076q82169E89653j51217
39945D38436k13942J341229J563642O49611A584454p70971N12131J491741J809410
39936D626765K652317K127092k703301k34255K863658l396391B915249J72401
39928C087650j191606O3778G6200c175690J331161G78883b06394m48490K64024
39919c90860l136646i81803j658706k924222j917179O9964b140117D199111J072373
39910E271484J854839j689682A590227a865712j693666b48209l68114n99009j31135
39901a346467B00373L266060Q11141N68207A327925b29154k276145j990343Q22028
39892c673614j017544N95930a396214n72244k786076j332763N47998a794802K43629
39883a551173m678180j722185j234239j029090l27006J617282K853934b382733
39874A711085n91923b30317G34725N06923L367507j781035B7719K610684j007101
39865A631302b487920k786244g26594A530838h05901k344244L2296B34982M513737
39856D748719K100243J13612k761123j071487E7624a498597n22733j040337a278791
39846f81831j175181j707805H65868M023010j293221i64879H58288J130414o79182
39837A309520O44572M53281o07778J297446J242912K062720j156267j841876A270607
39827A278642d78783k348414j441162l43347K1488J853698j529632j81690C40795
39817C273306J209674N65089L97745J961122j945344n13528K84989b17917j911508
39808b129425C9029L521109A671451a580165m45128j079795R68402R29056k908569
39799d116199J485777b74627k83216l120600k117900K280502B678549K492177
39791E170726A045507b123032j896129n86455K113228H51239K862490A451047
39782c010k016326d35190A495777o53814b262485j53617j30728j556099n23054
39773d625983A95136K104558f20774l572723J365890C579J243812d34415l12420
39764g46835B011976h01785n189205N22350J029857O25684J642335A184895B9262
39754e944213L20979b126363j18413m25293j918689b069900L70715A09106M692133
39745D801239M23225b89482j725469A022361M15554H819a138766j83440b35856
39735a503333D13045J864237j10522R13235P17716F32666N74648J707282k62473
39726B652123o57760L25017O67331p15860k78989f50033j996304k222948j744211
39717f613496b947385R9567n084635J700041K741548g24325a73555n87133o81337
39708a442025L87034e6185E09378J229982l63029J54334K338343J090098J912383
39699F871489M50211B442821n29310a770329j786759o24214k96939l88643P80808
39690d086076j42043a210773A047849O84422l34667L136604o06021A581312G5459
39680c81306B89120b830326k677391K81256R45053q37611k465083J766519J526216
39671d291367a154404b76245A625229P0928K056650A054283c797277j96611J587777
39662b406111d15624A666534M32583i789A071730L294470j256808j416438n29427
39653A163527K958126K888123J114284l510811A207783i32579j711971k601333
39645e245883l044216K239382K078731O90225a263196n95901n31603k303834N44668
39636d149866b12491j041022j951219a35507C934514A730432Q12505K98393A322291
39626b017426k928803J639263J172933M48077e70652F95074K055028L119497B650084
39616a81022j304548j992230k516302K670313f14996j790954K53924C489398J079110
39607D568508a016325l48183d3321B87041J743569K162579j845602j171637b322546
39597b912201C17893E3242Q88871L368730P46900p45329r87807d49263A497236
39587E514844B315089E13505a383573K93250O9654m401586N44826B046642J836482
39578C883124F6593d821640k890204l572680L638466L533228J010339R53424A228493
39568h64460L05966B102359K10000J409275J095431L29606N5920J174104m84793
39559E891902A603668f89462A307887J352018O25385r03201J099626o01767l97909
39550B482039J009748q32233j168886n42221K496426D40372c206722j218940R83146
39541c442516a312297C53944N80533J187804A67907a120983C3032R79075a374017
39531h3763k3482n41161C300479A545372b31196D472831L578424J007085l446638
39522E611702a684586k96507A111521K895334j431702r38195b023555O79815M28397
39513i15343A348548N10993n86679m36912c85123E13152d19134Q8687A365248
39503C130619E93140a067003o59569q03957J002448r23887A174813L98052K073812
39494C646677L213431j418090H81273c039586o98816J794037Q18535k439705M12558
39485c152977Q44069J12852B474374L05858j187E03791P53040O01253k85837G18136
39474B523415o64709c908141k173327k380063p0223J440445N65435j62048J78096
39465f509826M21226j283606k941061l27142d518219b071418k200918a454556
39456H18407J517777D63088b637930J087119A510489o74988b267430j7811e2526
39446B224925b121892l432644K436119F39272K953947n46420j111632a765621
39437i60103n91181j882868J622701A075463a406341m827331J521728g93702Q6519
39428g07183A032043B45300c297735k84291a761822G26060J463124J540580K093654
39419E823418J591667l707176q24725L902853j988600B125025r40907a691288
39410b374638K89046N63343n14661M54803D8295J391164a207572j718576f60666
39400A484615n92368b229981j291677J380693Q79428D244316K297635j843125
39392D698826C78238a288704L19851k648795b23240F820611r30482A922467i48153
39382b12974I20871K898910n68936A515940c701143j878791b048483H40733N63611
39373A404344c8313l129471j407166a415414B216593J897232j292143J7297N75967
39364C414946j248719R93053J200464j081636C92246J619730q51675e396787k703413
39355h100200c868695a76481B76457J78031a348119N34979k199788k662187K019841
39346c655274K71962k617179J865790R19195Q7247p47746a897603e64106B44952
39336d62530A124282K828438M40528K593411j888405A896125B46540a25808A361767
39326C449074l43816A544784J781980F20921d281431k986747c436235I41524A10272
39316a823942G51389b74086n22733l113882j111235a841168j486571j700657Q91800
39307d136596O14322K7422m88150o68906a399187f67612j494745i49628A043416
39297C486594L30316j61131o50399g34068l222863K31841j712928a660849J77244
39288a483605J43045A311131i20820j844136O47750h14962j567647l049512P69854
39279d662267N28619e47796B07790N57197L9303M103567m07676k46530D1102f496641
39268i309627J179964N27790k53130n31377K404484K246028k76735a518183n11187
39259b029370m659212l43535K958074A608608L139758r59912c69030j408643m75796
39250b253469R16517l1163k371296O89406i46098j832819p961516k802933m76764
39241a4020130J531591N008095N84630j993229d187625a101300h8159A741414
39232b179950l845382b156879j717658k059224j80590J681932a145767D674976
39223E625195B163629n7972j40843F51451a868431j081330R71763j080567j427047
39214d485612J827865K28624j860864b109994A89512b785880j078624K76497O25477
39205b962530D654L008164J885677M62402k524366a598895M95951C25628J764227
39196B089855C22632K48571K535235J696353R555k399472a494189k480365G2146
39186a56875l179849M75834A046165a10883k168983p12055a189759F4059J600146
39177A664205j98059l24407P32341O2457k7868K395977j392498o08661K365778
39168D669265k112806A258106j2019L063759J498594B802234M74010j503958c317594
39158c789394J276621B730776k58402b6289j835107b24205A266244M487231k21
39149E753254A137236D17135a305582j110053A83036L302852J157877C73933b918126
39139a36472D12802c461024p12417l06085l336P00692M31203q29916a276651B975708
39128E215567J182583m58024M10580k103468a102155l733325k026170k178393
39120i040043L666607a177715a79164l676409K36999B44794R57028a995786L41580
39111a654206A486863K330135M49257j457600E67638b345047A838072N735657
39103G573729k488856d45032l390310k257640a057257D67574J722632O7605H90369
39093a59799l330801p74262a736372A590001K0850b82228F80944k66924a275467
39083b172751a48176j18244l90592J7727q61595k755370l899315R80358K663716
39074d511491a222485k460030j06668c07565j176007A120841J325473p25037B20001
39064b729280P59983j77332P15126D16076a53028n123315K343661a453696f8329
39054E38141K48934h5600j769559j926509O99991j96710J600186C59679K619788
39045B979467c67151l661447J070843N24755k156021J130838a043479I31929J557985
39036B489914P48756G53426d916360r3941f63163a27706H45393l9197a369153
39026e464052p54064p14658b523935d70929j438536l94334A484486J665790K28945
39017C379221K391340L337512j804099B231980a930344q64403J362708O46327
39009g85712A306988L619876j248743a560845l520626M28994J045021L07519n85853
39000c885790P11762j896087o69316K760206a467748g07583A80627H2993f24093
38990b455095R84054B898107K414722B026392c960585J568253d81042k369036
38982b850078K25756I38568L59300g9830j72335j929506l133386M9388P21522
38973d544147a220473I61667a891954o96714r67199m43368J107409a134699E6069
38963A516820J299081f32217a7800A990150J357419K404228k215680P63969J544326
38954E844412B118063n74000K631713K4769j672443o67449j11785d92205l999427
38945d491632a753811e4040q51639H91111N05108R17137p05447K253272P75569
38936D636750H66768b972159M15774R25824j218426R16509q10812h1676E2530
38926c910927k014655K42704K283551a523368K42965L84514j304218N54534B849576
38916F877008J027059J001432k942045j780469N2780B094686j87719H80301P03716
38907A584017m77875Q82965l96295o79685a029820p29891A444599J946901A130793
38897a775806j769556J36516A124542N97702J331135r42700J753565K572720j534454
38888D902510A643654J742607K851307B937899j210778J154300e81968m435772
38880e017740a744759j271125l267752K623485a092944r08324C475e64466k569440
38871c133906q87545a329138C53362i39313k264064a501119e39723k39812A403676
38861D18499J632734J626913p16289A093360J373068K55083D77301d57829B654123
38851C633414j102434A209916A81370J20887A2921d78738A015758D22918D2099
38841B446301j1349A43996c649730k151863j530866K570723a893104b95412B888573
38831a868591l836154j739180K117221a516129C545242M019225k795185G41903
38822d884911n380480Q07536d449528A078987J429376a410144l512061J345408
38814c576797O78884m57562P10350D93790K029978q59217n77057j51893a244127
38804c628413l396563o23909L341038i48263a53189j451123B267718J25029j037097
38795A355650K017918J859483J07471B508840A133307K21172o05156K252248K278047
38786E279618A243528e274955J070635A233761J735260A012012L07543L628748
38778D948303J397050k619443j214984C77112c117417J189643O79795G63671L261935
38769D025606j989908F65820f89112j489870K21886N82437j176608A070506J400022
38760B470528J019155n12605p54620e79455l289215n70385k453393k279602K884550
38751f287500P80148J147866b092183R0295k334943m662976N86939K144951J856585
38742d411332a913233A923592F6515a380341A701138K253345P0373j909891F4793
38732H09768g14295m763514K175543J021376G11905M403089J153866Q22828k783378
38723D308310A385927a195089j423377C251966M332484j40528k611160m85571
38715D347191J84973j210689c8890l7965j361937l208475Q90198O10059d10896
38705B773623L275891j345891k191256C04770j04117a877691K15832A406408j25714
38696A280694J945922j68980C09835K752598R89076d75626A163684M383686m02654
38687E144716J158284j27112k181269A801284j48480r3766K198091k03905R11500
38678D464724j285633L70652B59238f69654j18157H19233K520686J273772L44237
38669D957928n67599J31881J409269J975218J090947K026684J653418l654120
38661I023626l448094D52354e522366o452759L332012L727034K126926j783180
38653d572333k589458K004969j72632r44404b519060G06785e88969k090328j083785
38644c763082O46948k91792j020654Q84010g96325c01926B294580R53024M95699
38635C743303o2319n47848M7673j183571o62463J127717C36827d32560C83462
38625h67551o12250m51991Q98750D2734J570606j64501Q2082L902300L350927
38616H784148l63601B935530a564691A603297J441045d8933l66257j599316k473996
38607d488502J424563E42692a317774j508021q67826l046162k36438K420398m50044
38598e005867J62309e3275o56881A144740Q04815J248825N25067J043677A545842
38588h23667B504831L546938B384089E8258e95591o72152j33871j50235B33604
38578B44355b015295l422754K115714D322536K413427J007534j582761j922442
38570D238294K060635M368621m589885c44570n49371b9875p28793l23817r95061
38561b077546l761176l048866o21455L152028K975533Q05089N35295j177833d90029
38551B129937l82006e49695n98074J44840n59330A135630J838637a479046k009221
38542c488267j576930M24372K246353e08738C449082M625250l026337b33537k874091
38533c107628p07431A117396J618077c33888k303682o25555C20353J234586F7924
38523a656789o11618a069081q27395A890968L500874k021365I55600d498072R76339
38514c521733J457746m68056l83275J17062i44914A319031N17275K481270n70565
38505C747011I29869a344217o85184K90777b70944j98729l339173k830660J797455
38496d842051a729731f27773E06918A06538O80335a443081l98272l63348b48938
38486B200298K618728R97948k812146E62063r014K12332L40270J408264j099876
38477A414039l19351i80057j416268Q20757q76426l5565a42985A47439b554110
38467c4770A882304J576649L475915k550923D05873M4922N312258K574798l193139
38458E144712H93880h12945D88486L49481b535837J225592e63701D55090a330577
38448c760889A021160K944085j530405m43546J071901j274524H78995a454746
38439i4427j712888a29639C431348A692591Q36927P75019P86504A005853c004277
38429h37965c63528C97214J396028J023827K069062A770617c210964k320474K318179
38420c213259a63685H18533b84655r33943C16299K94549J823597f66742j603395
38411b270137j50514D99114J897039H48227c45566j053481d60008p25955E8778
38401B357890b026755j249285a344601A325788K91224j74283N96352C75915J520771
38392A896686d34073n523965o19420l57123L28180j722665l71563K950719K764645
38383b985265a488605l47372M41103j164546p46383l445889K611654Q7820Q52545
38374c199673R76449k078499k068000K565178h95390j771750j976209l35862G02440
38364D746845J489252k380683j448585a664449j323935j157703l9202k746000
38356f931289K202173K69184n39348b470209P5447f35470r36365l069897q60439
38347e502171k45560l621024k170160R60875Q85496K393819n9569K94994K865320
38338d197980k863123K707766M30309a373807O77657l846991m55610K407202j310786
38329c902335m13772r63979J716745a35729p63614l83543B525634K031062j804848
38320B751848B7780a706704h25103M11150B213669J277140o59880L646837K033750
38311H511516C899103f57666m714665k132176K092960a273849m02472n36261k082844
38302d295426J64122n09210q96929K733437J227795D9529e07564r34660r07848
38293b350072M4064j238122k17580J606244B65516a0328j007645b23978o08749
38284h32727i3901H18603b00078o85218D87366b192574n55055f53243G49358O29222
38274A378580J57008D13188k3183K35665a5372A576922L042286P92334k270606
38265C140936A136149a086870b04923l97274R2084q4518A458168O0039c06637
38255a31927k237363a169423A024126J41178m61504i35681k676919M06678G15505
38245I43299b034283F48311d09158j851296i53463j85065d36194I34428J168590
38236B103018J812600j019420M48565K616241k788003j176174J368654j306181
38228B059300m81306K466010A394231b087736f42740A02677b5131j342791k41954
38219a609876A435989M15294O95514r5712l58506O77358A133999c45139o08527
38210i53666j61637k586070P49402a127329E82479J519943h21747k339417K57747
38201b903417k125795O5398b338315a055570j603642j512169J050425j801152
38193d922108J414453C08312Q73951c139303l900311J247599J490855h50462q76865
38184a727327k006715R36637N09853d25636A005748b017087k633815K18505J406693
38175c025704a089251C176638J599995o25122j576079r14041K073327A445574
38166a462344c70166A978250H97648D37212J525552O1446I84530b85613j259192
38157a544805H11020N846290k111618E99759d265248n02261b042839l70069J92382
38148b220526A314307b424019m614203J197038J595053p29966a885165Q13783
38140a071382k094880j397324J31519j619694K919944E11451J734914D22059h42543
38130a2557b424j844931O31447m339881j132014J392815n37403K084925J069157
38121b678309a75530F07260a947892l671556J659927f28063A173230K73213i93221
38111a840932M18317E39223L337651J825003p03407k177895I03652a132846B023295
38101A398287Q1858J977543J611713m98230j185488o44716R30261A632290M12766
38092B045056E67274a250368j292637Q21356j076311j75131k21291j778711L87301
38083d585792J219098k520283n25716P5991b405061D68826c95664D33602Q2362
38074E15964o9996K000796g9159j924517A46943J163427K027967o8181P88364
38065D058520j99259b83396j128618M1668j156524H5043R88078J383485l15101
38056B141505K120201L937274j195099B467025A164890C3184a216112K28205M13710
38047e74197B68861K83150b409529n247608K267123K125590o26042f81727B136327
38037e90763k100501l995838L96630b377554e78025B653170L650289j228452j144554
38028C930453j130271d54924j342593K23394b29452A719536D3567e505090r85029
38019f490119J478986k81906b500912A338852B85139b46788k302337o68159A480046
38009B619228j216403m73016b951306j899363m46258m022482L666640b764918
38000H8753b94328A277873J205751A095276a37723C36514d94452n26395j935069
37991b955916k759575m03929K873809r50645j148758h47311b13264B345597M66367
37982B811964Q6582q65518m22569J959486q31604L068547o70348A809109a347450
37972a642807j46850A050771N48402e26990q38055j601239j101843q99293J158305
37963c809115A520799j57543d7609A687705b94608j117046G57751L69694R23897
37954B051342f30202q02717A229541h08468k645931l62128j396415J237974a210386
37944c28343m19321D023057J326826A222556b54542A080938D87007I4546a521616
37934b920576j13716g15156A998416K55665J33003j132186A15131b022596k001801
37925d024397a621021A180606N82677K05771k13610e92314k197137k130781P40663
37916d179569o55195m70554R52264K16868j652546Q84386b068259j086893m955800
37907h110952K416611h81456A458305N73659a181823K01672B468795n21194H63851
37897H03728b496187n010487l89168L839352A74308K189003M19601L61058J247741
37888D391711j710870A76166N50577J085231c10683k954972d78323B674362A45097
37878b500465d27764B737079A145411g76063A217182n44365a712993j229316L09904
37869b632405b48403B728900J478813l37891A926877a223261k498249J415171
37861b306339D19840c565641o55123M28527j233776J400243L34005j150019J320496
37852c121288l86152n62061a751869o31327j517500a615560J56036J99960d90770
37842F44766b489145k255059J744291K1879J76287a355571p08517A650342k8527
37833A621815d93212D8448d74883J95594j35012j213350e29176j686402k95404
37824b510982F55557a751792k742482a511345B4444J96345J301792O34590Q30686
37815B987857F90339K384522q47649a176371B301501J923093e10283m389551M03728
37806d496106j155532J408208J447280n90720j07032J671830F978J145380D72815
37796A62491K540709O25516G38490J455820N825941J040452r77913j347420J81850
37787F917220M212549k325857k591424j825801j813312j68462o93253K688074
37779D399734r65212H38954K352090A565644b785404j58984A906234M105529K548818
37770H560581j646626j233377j537159A858090G59158C32223K66416a112933k835990
37761c948923M22611a139258e3952l011665j372068b48114C408161r4884L757529
37752G070806M289368q94193n064105B085522M98386k90139K67199G82807g02672
37742d493654a248257D03821h4197A043951d0128B47142L06175d211248k083670
37733f294918b385080k577698J67557b362401P82014A964203J584952D19108d74270
37723a047248G10824C0247L376763j070021K72722K389333B090758b463680r59742
37714c423422j984378q99389b776873J363019p59781f84087k158190k243314b249971
37704i24811k643062m90765J355018l462124r15813j775226R09074c730723J361585
37695b369138N38344c64913e3749E90844L890504j495162b291892g1711A16426
37685B370205L986803B220655J143079M17136j301380o27870m40849Q47530O3734
37676B322035E15107a659859G02316N136280J151679R41286M406274j420163E169734
37666A062425J044212N03677k54233Q37166H62087c010358P37945C1359b749986
37656f95171I1300c444055j496700F14416M899988k319475k76981q0651C24830
37646A07566K168945O20515j361913K014791P25610A821737J163308J530119M983220
37637I498384n94230j753303o53369R7692k635645h20701r02016d95356l27079
37628h22435F22257P1256a886923c66373D081829J013956B272746K366165J695345
37619F334256J6638R62806l574909a043755m940736b856507i42642k102822l537202
37610f582666m253253J212885M367256I38693K128628p13146a87797k285819j820308
37601d293924a650891h8189j136251l856496R10689a621265B685884m91755k03008
37592A991121J661924J28323D82045b760514j838129M02936K042894A193784C4705
37582a788235C01879M362184K225933l06240j455768p20845J272762J25737R86049
37573F791691j033625A062146M337648L868588B505780a635306j44090C793126
37564F010695k612923a407661l277094a391156C0576L280577J490891j942842
37556B859202b04370j031144A669469M31626l25110J470212J593360J230890j010145
37547E060302j178115A285044b568222l422926J266005J972473l990252j537524
37539h280446b662146C640740J377579k86808J462407B139680b968751h41692
37530A893720j4556I15401R76651n69860D48159f46348J70123B236034R37762
37521C173796J116040l70716j408521a630689m25508l2576O74468h5074A006068
37511i67136I13213k64904d889931j470754K483394J242898J261392I41549Q03560
37502A745109a162678C28559L670161q53834A550912g96530m13132D22127e64529
37492e14762B116408K516852A598906K07522k94864C07169K141347J099182A386427
37482G50422C47992K255580M288991r7386A671254k56136J874482C35590J913507
37473B249097J672671J81869K15732B138729I65056a014469b24390A409856a120612
37463h54874j3771c91237B077096L159406J524395j312262J098708j359277O35018
37454E823084N24872J504073J106785J334832M602646P410260J2025988J9685578
37446E4018118L8226310Q1116733J43767931P6456388j09629364j32891014p1816431
37439G9248671k9186172j2471432p340242r521765n701136j303889l022779J879348
37431A2580604j901491l160028L97768J052857k749836B581021Q73989j95070
37423C259940r32394c11239C502430K689061A612203a312408q84692G38625K785174
37414C523799l93339K493774o93173j661324J289335J305174j585461P36799M47823
37405E463407K242354K823711j145599m080107i62051k578660J380463H35631
37396B344248n19676A20760J524678p25259j4430M479323O59891B155968E50540
37386F90041f20549l424729j805135O03611K457032k867191b296436A804161O46666
37377B450827J743543J167738B613686i75899A782530J126879J79648n98112r669
37368B481276L21106J276585J677487B156805a882807a22115B766061K014851
37360D780912j896819E06752A87755a057556M37852B27961J395679d05585l798980
37351d204565r62851j349772n57187L375342d68422I19226l1664P76533K201084
37342C865179H80276e19240k056644Q56238E56743L918585q32547A059314e79441
37332d56966D7338c071210n28260q65203j44149g81822A435252L163441J662563
37323F261256C067225e43739m83213r19600k837651J225925J242817n47171a3694
37313A558350J133629A039373a44940m1300A808955L231245J676354p29016B645272
37303A375400K414288r36723j69561M47522A174993M63184o42660P82586N099264
37294F877367L07520j795318I78918a206434l200950p98581j233076J562126J801880
37285c075035g93467C488085A296142g38883l278280L92513J082375n44071j104236
37276d190582j43897j164240k080562j289615L356991K609060J396003B710819
37267D098912j637332J313948j157613m02556L681812j371502K23005R16825q14671
37258D850828K707624L56410l730375j562613J419151J194005B460018K68538
37250B728556r86253a43531A633982J046717M4880J165621a97877m433353P31201
37241c900029B83489h0631k697905m717548Q25302K727823k41870j665667J133530
37232d716966K034111h68079m21677l74295L46629A00251L152562A31561c133375
37222b747898f33231o90794m101769J422167a018380B270245k82323G32339A08595
37212b430116m235208j606232j047838K850461K800582a592925j175234k717453
37204e485612l25600j309852J972770g85701B227772J081406j96117A315422n39283
37195G76139l55188C9628i36339p50676A810339L464394A865399D08423K260547
37186B668970M96997I66086L2091E3942J395639N643115j730383A412015K862413
37177D274428K090095j638297J21780k358769j082347J278400A190393A86792
37168g61492B39778K723953K36418N46581N367006j599082k879420j392894j403261
37159A839079E24893f76539o43640e62379B528393J743476m89803j04794B97617
37149a918567O29136m97713k685286n31048K051020Q66999J02942j175215L89568
37140b768164a125798L36148I198P43781A76680a187622J88637B84161a256721
37130b129346f87817A395231f24606k02036A189117N99487n20390k43521h64283
37120d234981J484765k454520j51472N98802l337693J681200f71693A608230k05928
37111A402302J063227j10881f33451m139513l62331J419135J830427B823382q56190
37102A967192O5184K298745q04435I67597B82145b270549j011963j12773k108046
37093e503331P87379q90569Q88189R92354P32822K40910Q84969A067086J486989
37084B554075j150592d18686l04230H56328H2387a434821r57681m4510l39049
37075b776061j629119J39138J630678j870768o731852j362494j183853M657955
37067i126376d487656a360490m02097k186820m0507J761162A021575N60341b63916
37057a863352r33062N89728c17985C544350k16527E68260a111173j12442C14931
37047B209891D71865b002656k70456p48928K84262A785630J595941K199642p90595
37038D790618b852488j625987O84659l385878N8972K737724Q13610Q50802i88217
37028d779091M30366L26410k58736J206560J92762j484217K069946A703163b40970
37018e687741j351554k66453L232550A36390a918225j58670B235336J180824a39843
37008c647183J268351O6401a146450H64531a003795k48364C60011a80811B406827
36998C279363K684369r76308B360902l60069k27940E56896b338549J066746D678659
36988I852464l595122a54003k056982l253606J12805J831303J344919L44596j081992
36979b912960k430146J487899J798337O62983L73969M73854C790236K083267B895433
36969A811434J118731A173829d66069r68536l45777o44972a187489m97950j344714
36960c030153R06968k045378j502068l28906b114634F23703J29081b29755B79599
36950A175226K491212H4697e052470Q01354m13788L91506F87354k37355a66097
36940c97949C36806a758067o70283a057499k463386N88041J392141A022848g78702
36930a070653M77006j732906Q5716a84304o16194j664980R5067k527579M86914
36921d411076B52475N521243k344186A031050B15307L1466M133086J331168j357710
36912D353317j01032j102058j351565L2537a398006j377255d14654j969343k379780
36903d763777J991083G22959J501142l83506o73454K782537j662149G96681R3607
36894H90288c94115C519616M166093j581355n55138M20668K30165o67786j244181
36885D288082E01253N41363L779025J260462j245935B027639R08000L9938p98911
36876B176666o03175a50182B140613l14770q87058b968415M75345A43224a761458
36866h378445j872166c868207G68606M707881M696944P58657n465772A041147
36857H56382f61491A94820L055841J497852h95294l990843m02520J370941d35124
36847A828909d47857j337027O43808M5198B851K662984Q56097N59070N06091j813782
36837B773311k0338D35932N06688K447552a031709l002704L70063A216876N019124
36828F236000M1050d27498j848636n24996A06556Q13068C9029e3167k370843J44185
36818b279825j158577o9461n40167O21000J227234a089150C9865M20537a917952
36808c864485M54191l519045j232576M042794J469004j894078k13630j174368
36800e932193M0525O12614c66128A109919R31931L441599j007089J67529n59965
36791D083924B67406g77855p9031k134040j918231N04212m73405O92140a711708
36781H385L63430d91881D54046J136634c788644k832016l20894n59113l71755
36772g872422L516989b09063H83441b953374j757928K180875d99385j684524j420926
36763c604835a280766B212928a289250k965677a402763b43647q92009k701488
36755c837144N09010f98396k47137B79739J46134R67303K43975L058587R62848
36746E658586J003688R08803J95698M32297n07790k174987p73479D92234a046003
36736b011005b10444A900265E24941b352934j974896j14364K87577k431041J986369
36727d599289a973256n528406J279731d51867A999910M77741q5117a36661p40053
36718h76714J080m595468n726451J158874d673395h68356d14266n15482A020851
36708A173089M83087J852697M02371K597147C161099J418584K290912C142468
36699B217548J817393J159716q43960K126955K779376j951639k590422j062237
36691C652730F68658c80369J58515D25945L884491L974038k008621k499263k41399
36682C535191J494975k145343j311640b386956j214737a169859b47980D162263
36673F267523k820997b28764A375803A63559b104880o0178a038312E38325a589191
36663a987801H81167R27852h70014j803038Q66628N06743I42706K475845K563619
36654E982170Q34405J81884r48521L73383m02186A343713a645166n02423k545508
36645d693097b194515A759651J456178K328511K412391o36652B945811j5307p14128
36636B216376B65262J101642J18414k76380a076075j241786k66075k832254K563791
36627b852399D80394K216779M69270j127240L33207j134180a148835b81106A966154
36617C233594j60813K617686J646555A593636a000395d04025j114240j51990n01675
36608b171930A26408K283816a090124r00972g14844n62338E17150j49330b388619
36598d575412O49014J720863R4663L34997m79083q79672m02880J011721j272697
36589c798486o94282f5516B141396R43661m32766j108975b627765k763187k92468
36580e683420n01354J533877a000848A702148o16670d1758j829682a89371A295682
36570a962554n56197e58310A708490n82853i31803K56897B870751L075512N30766
36561F477029B951706l39032K376373B001388a060467A35605Q42227M7441A26295
36551b235074j026932R45296N16212H32571N92904a080692k848523J318781e28645
36541a388348P0149N58920A18965P47013c83639j817509D4103J941818J297348
36532C283269L646918M25166p09870r54964A461398a090935A483344R37682J706740
36523D127766M11317j23761o25774E7313c129171N32162a246347A86147J250270
36514A436417J354663O00897A535573m00209J40836L39638b740738L23497L20288
36505b096953f11958D14559g3275j600501m784369L96359M75397b750971B193775
36495B120321J419843j114912a496964c15056l59380A069792K107095J611387
36487D788274N45922o27560O24684j786580q88072R60669J097670b092358n67487
36478b659845A509650J157907J167751n8564J780980J464649k142790B214271
36469F50625b784259j856722k164511J826706d33072b4885e144I01322P12515
36460A613837n61279J185460m04091c396755k054672K431727e00768j505121k511332
36451d517221N46555P2344R32319f42418I3115a529954j32054j802634m986247
36442h450889J518689a857400F33449f27811l989899k739479L61849K207531j31262
36433d919071a064877a65075r3165m255j983944P27188p29559P11736c07477k318334
36423b625811o42349J528773K53132b85411C427817l60666i33706k470882R79841
36414b424747R91010n85746j94868J74802l51106K53302H50890O808051J842643
36405I501584k012354R99915P6860k766472j388901a82025j601299O95816e13474
36395a839663k97843D0383J665531J828018J939885M11611k721766D5543M52500
36386D98043L888914J060829k336193O43414I83401K186888K600693Q59467R66232
36377G596681j861653k634666J062966F75795b440879r96729j293341k063081
36369f794030O85730p39043K754248G56230G3291h92469j620820j807698J904421
36360b416566F62905K402227G13191J648041n19270g6705A430328a194447l161131
36351d355578R11613A655147K276814a523776k52409b12478F59618L355424P25016
36342D740058p32410j319096J30319m48441k66696J814702K087420p99609A936849
36332E61154j87099O45547J669739j081155B42872b97881B001789A09173c206702
36322a075917C050981L52293Q48794h6865n356912m119813K992903A56095K614191
36313B770286a092524J99397E86615a364202P7293j203107N53449l03209P13764
36304a526012F45525l15414b343517h48666c59102r06752f0143A51829a837975
36294a810575b4206I47882B50370c520419j541335J397849M31291e2958A808877
36284h55606j785624b97051B246314a7645A956427K01206c219602m41789J61115
36275c500276j524302g77172j457418A340627L61161e81418E70740O88730K36198
36266A495668e69609A948051L355948J450347p94948B669135M762P98873M59420
36257C932190j285134e03383N5129A883492j65166p11779a336578j072561c60757
36247C99938a805508j387810n66218a378611m14138r93406a388537F32504L826181
36238D458685A032771c392791o43196J654828J109054I0509K578916f62312l807351
36229d469663M14572c1980o76541E04013K010243o89583D51811b730101k072216
36220d802317l71525l66462J658890d05906F16345a84472n6765B579150K702067
36211E281217J332903A885991A12015K327240N72129J851854L54265A691735C9598
36201A665930K140034j259811M67812l36116a82254B82072h06316l45498K89970
36192h61844q52003q67215J31849a217132A062860K241829l78792P45272J23199
36183C794368M84717J270962j763411h76546j213228A344707K28754a106334q15522
36174a921856I8692R70957a460810j407883O03155I13383L889138A944898i45433
36164B026685J344034B67728b560279K97288A50747b626096l596814N84174J989663
36155c649073J411266C74472K350699J789218K216769j097179l78301O45740j280458
36146D620960o5413j674456J791286K181951K57276l87249j442811j170552M18155
36137D529147k003008H16110h94766l044642M01837M37803J462976K09789A706585
36127E090155m87863q97745j555587k63696n89269J463428M750136N35450l924703
36118D120306A922442J413630E95778b58027A491976i39550l84128E21941J399205
36109A921146G58633a33824A343759a816200q78069j487178j709506p77420q69569
36100g537942K694499J479517K09756a062128p02530j68648k196299j248267K434445
36091b943427l70935i73871A220422L58928L064818B210908j86038M472111K08160
36082F705141J052031k787553k053277J187540A138684b297500j209122k672625
36074f179247q92219M94794K330100b071917R1487j222658k934076j203905j70428
36065g511497Q45836K496914a197771k323016j705478a952299A286308N20662
36057A806970B17401R1841J122549k72610J244766m29382c113942k373408K630156
36048b857194k469219b512537A666600K636353A594698K33742M656068J672633
36040H157141j893658A475969C03244a165451q19745h89653A133603P89947a447363
36030d517933b087339b30376q78555B950952M120296q41575B294571E11106J53825
36021F64931L359550j018736a75486m76924o30368l588811J203144A532380K848517
36012D380897J015225p79B028434a719634j953984J241417j71894L11707A718515
36002D839029J820742J7915c50452k918343J488322G14950J431027p22414K58244
35993A681807o01730L01095J790502J195144j242527J629576A986653E25226J165585
35984A690811A96886a958299q98132d81725B461822J608536I63599b647943j904103
35975d552046J389883C94315M149532J847606l070818a31991n1132A546100L49153
35966A895253L67551A49522K63849E1119N06826J172402e06474o40804a82719
35956A582031N97157q99886D98343e498504M3678f7096p42002m129855J543939
35947c395014f51772D956669K930215k718060A041983a788479h22223A823277
35938B630231J505367O56584B338053l61182J515037j484755n6210m03591O15008
35929B162360G03227k70771g94824H34227N069050L79166A776469i20089D37170
35919f06193k411038N74084J52036j13927r46740k510212J261262a438915j989724
35910c428639q25859J892911g48462C40968a418413f61396E85025e184758K236634
35901b948124B37461c44417k919099k547942J694482m77723J357566j027548r98107
35892e262788J969412e08025n24056k150764L80686L05772H96238R53099k86278
35883A563059D0310b138381m00837Q93621I99941J139023p0244h51401o98092
35874a549493F66509J426108g28201j479080p28720D43803L385963j423024G56812
35864B346967q83096b067193L98579C743464A175139c046227J065027d52639J93454
35855b59185M855l62135C99471a061999A304702K313888j152323j064261K292701
35846C694707P62079m77159j539144J706495K19610j642530L5861O38367c9385
35836b244556k896371Q49049J012675N43643d10638B750703K027704G19744a596175
35826A829270L80885h58904A894710n72576f26041A139175K009936A554095b020600
35816e373247J190597L58612N51983l162872j206391l594140J610667o76696J824223
35807h477264O75851K002450b116777C011707Q58284n24281J270258F34679N59387
35798A194066A85958a876992N5429f99598C714409j788492a999532H94055K94522
35789A188577B91579K81479a481826j273444a338735C148317N795832J400192
35781A0344341j759212D170821e57964k023771R46969C9248L466472Q27699I25983
35771b808992l222252b887240D48140I6386g57427A569665J093744r06805a962536
35761d338088J560230d39037B303301K46201m24333M49784F97699l08455g52485
35751b188199k091575J769045b28272B47022K034275N17549N26276j399055a604390
35741H78197M684014j438071j505970P73127F51791e18175H40764B16885J814343
35732B031228E81638c96288F50479J014269L687878K7297o56834K055958n06761
35723F272286j048944K172691N04819q44864j194792B478712c94324A224578P05452
35714A930030J934128r14933l01405G23359f30063R9038B065244H51625d632811
35704e849551n50297J952109Q32649a768910o94826h35931p4958k091809R97567
35695b005131n56910j60894j683960K58858g59155D069990J79231E02966b786267
35685b034093D610615M572882o2804J380535j697803j405905k005911k492799
35677B898810K745513r42868o84650q68479j147915q47687p659A57068a72353
35667A037409h12685a49700l22575B663377L939609j29427j969272G91063Q14159
35658A605222C2983b429165k096073b094885b96233B607720L781377K543155k971982
35649E960270k715764D83152e95365p13761D027022O23345g38266j937140i66870
35639A886846K22482N69295j171808J72458b217473P77464m78308o59133k77981
35630b855431q99975J127661A212053d33196n368571J276302a502419e81169B273838
35620D509321A772677P4114q3477c119152N06559A21080a357288k01889r10522
35611b469699g03055C669713K821786R7527k36514P47887k437426k202480l35587
35602B124906K022462K020338N4114k681128A604420a650874P60745k737419q97905
35593d525453j627924M81580a460674j095427Q18424C684753J0646F62647c54010
35583d561456l497670J292248L230861C00352K014059j4762J103203P40583J163030
35574E306465m37459m88113j361871q64187l13475J770231j747626b926547k405853
35565e332400J693994A040395L401204k108619H6038a56585D73459L532456K709064
35556F714979L902584j225041k070623j380741k531785l55451P00467j35047j116746
35547B502596a473958c83009B645213a262088n296173m96192L361898A320451
35538C328071j259781M66558K190919j466674r17234j168978a109617k505804
35530c615421c16987B571256o92404o86778K120435A316462b181669N78865j085926
35521b688730M96792l909643k006218J455594b470742B371572G98688a8289A00486
35511F07592E9413O9091J070111J225053L52002N50660p65478j200546a677825
35501a923418c61516A809841L942096k713836j137758J358459G81381A79361J054436
35492A233797K273848D79114b183888e78885o75188D080842L02378b21718l57548
35483e79266k5923l91177n53724l44472B75283K507971p84000a463290N783c8672
35472e22728p01554j893840j118112K85315J470015g50716C096378J307020A936449
35462b105148B91414M169317n31991J37169j110943f40643b32829a09376A187448
35452C476526r66943a890977l038968k969928K91861K616576K438800A177643
35443B943599o52087k50792n2456a241959j561010J119164n1655m60421Q37103
35434a358778r05631N98047F39364K573930n13135j242534M058110p09982A800518
35424C79004K01822L47899a836587j12233A698955N00042B00123J030405a22285
35414b458947r01257O029J29001j880739Q43686P29470j870407Q79871J037015
35405c486278N71387a297671A158358q5789b500912j159752j936662Q81214j050238
35396e766350J884177N75542j418482k94196c70277C082338L27059j91885j199805
35387B017707r33376m93996J063333a546910m171906K94732J811534O44729N11955
35378b455866F17516d96585k064455P9143m77291o50487J775038j264975q91823
35369c991435J117468J77124P67196j370121r67315a61940I29345R58735c9088
35359c277051j397249p3424O68951j265988m11340k43703J172520l429852J235924
35350g021212K443380J997845A954093L638755J159438n19884k136940a5094l053048
35341c068142a326807B873067H29962a849440C813436L761334k996488j720811
35333B857471A380816a49566C869557L714276l375714K541059j49203j664244
35325D935731L38085j117914A601044i46727j010342k142426J060181i70648k603367
35316c574015j90432J025912P89768C068473m38945A209010R61124E495a333621
35306A499487J327014j003991L385378K143286N46637Q84093L84334m171297B153281
35296B917651l37530n43848a865605J21046A410433D81193c39455E70496f02944
35286d056063J235132a035094B036669G75594b689674R69706p46715k93839p80525
35277c541047J713435B238893N186771l284500A489779J291513J85241n4950m83279
35268B428304q58358J016554J506263j01743k14300H25645b860988Q76559K76743
35259a707686r23541a298171J56645C453523O83852A87600a479000f46990A360382
35249b094833q8509A88230i04248k444128k243100m512514K182663c146376p0739
35240c217115l56448o13825J484146M88509j699198J574085I33016a12902k874416
35231b987318R07281M19091B25938J851442H62580J236072F97124L67467J32665
35222A197256a15736B334923J846756j145634l915l553m33575L26286A059131
35212c078224j421582J521574r2651g14580l17128k088850J226229D09620K61659
35203F71279a5021H5396d93785D3760L479780L028070k264143C72474b660563
35193b99659B585387D63719b917800k365470l645823R36016K427931O01278j801817
35184f765685R82126J078673l134980J17059J544168K539450R90443r25574j035073
35175d609393J062395m08793o63277N71076R81145n8078A846795L456298j362160
35166C940933o75124M843560J257739m573203j050400J132070g79542j269407
35158b048949b19856l328357r222O48835q9467j869890J277337A106893d68361
35148d555636b009687B201885E3439f272583j431384c405068K9212l361111J602530
35139e134437a792441k83400R50596N61436j576407p93302k278092g69026D848539
35129E407437n82042o17618J426543j7378J757756j022306C052794a837211n377987
35120g215198K087081f23970G4694c391566k725589J460066j726567J121734p5816
35111e337738j146146O95263a042531B410184R33732o19377l91696D27780O8098
35102D95878A95175E1427N39067a130776M1326A183803O22211J885280K868981
35093F560275j37492k398433C41898J692341K909323Q29262J147609r22776N31028
35084F528685K005035l60701C900550a021392k791137l494602Q02854K633259
35076c871018h67350D09925Q19633l0627k22749K457615J45004f2371o533137
35067f595508J099052J327976J351794n83690D29104o1665M523881A511483d404597
35057d290287a297516d31573k732123j962421J069941P70066Q19594p28693J587223
35048a607986b94621k018967j027630p52161J175426M78606p89485J511333j053409
35039b770908q50886J598599J66614l09798E05668A78846J594354J351376j408156
35030A716420q9487M50402a59667o843106m208413M770255L154785L94735j736144
35021d627555j162124K051209K14748f59103J06738a48345A647522N77396I75108
35011F23276J012082o49376K088304J732606k226844q10492k41281g99795j723957
35002b523752j51545q60236j795808k004148l415279J718179c247339B285095
34993E29888a97483j360385b62748k625545j28606A43837c07181n45456m89360
34984a341997j551292l490582j036615l20279Q78159J386167m56629J268790b02334
34974C105615q93601n27756q16886b683615j894228n39552j177655J521949a682606
34964C75735c15193m296010l37675K74991J409651J93773E51313m6029a959510
34954b554220C63659M109809j218439j507835b112055k719144g58010C762790
34945C150336K987254K398728l706070j558634M37792j448246a029442J80554
34937h48888o44310j673803i59136a87703p31010c07424C287806M81901j52328
34928C617379G19099b844769q79603J155562J276704B84196K271919N23482d61958
34918c102001j925711J919760p37772r79432g80527I66793a109707G04434J523932
34909B228366M73439A141863b213756p03677L58826P32010B4693J905255d78913
34899H05163K613518l64659j326627C08870a977711j715432m80734M73154a353607
34889a001411k520960a755200j864939K40027G44267l24002J010526K306078J798006
34880E534875J891034J888395k597235j982600G80903L91458L63448a99015k181642
34871b380657q84409j944792b111230i20096p52770C50604L826428o3447h1715
34861D51734M336492K05598r73724m72879K62560j594991b762A455402M80330
34852A935732j4408J134513e68267k085267i48864A267550Q97326j003308d70230
34842a646404F82956K626196J595084j009664j236384r04395J405393P64309j692742
34833B230753a204864o209297L80137c129899B664013J349983J480180J018744
34825F512920C141337f37472J21567A754714L017867P39840J152876j309444j309467
34816D046386H87952c527443l865564P00593c122136A14383M37291k07374J095225
34807A439525m60219k40743b481487j609444O48864R42586j938527K94732C96524
34797D233269O83415P3008k103609K738819Q12815B082756A039470J12906l98246
34788G54130J752953G77877M494341M632057O96312j832198j396533o26307k263005
34779D482544K87258k237668o14835J181169m68530J003637A006255a59325j203675
34770a363000j455958J238063k140144J149599A572269F16206d165371j185838
34762e351209j064005J475241a841549H03591b14875m76581k36210A898024K274423
34753D172447J21996Q59488j158341Q05626L759493J080982j639005l338559Q31427
34744E495554J195454r1677n78299B231920i88846j551615a095414A469136M229097
34735E698233J722466G22847a918578B530484J765090l49750o01335A340998g32311
34725b484923A978203M296884A213760a312771I10911d80442j08028j959305J197427
34716a350348A468547F58559Q65894O32962a67048k432787l91848a167861I0093
34706A740843Q78353g32214k715624k977435O84319a614754g75421D17484i08115
34696a391996M75275k383198a259811B171051j1419J35708A0307b259675I4351
34686C455330j424589o99709e11380k199907k063991M87771M14182h77918A531677
34676b329348C09211M048854p34734j164430b062621g25452D444524j117970n08632
34667B817922L449831N74661j571957j902811p10881j05188L634091N27103A523018
34657d111502m38658o31358J735078A138145K236736p31732R42657q74341M8890
34648B760355L08768A323156b75579l382698M48619a104267d30440k205721j947826
34639d583987a505301B805743j225981b844285P07246k206936j082131R50387
34631d475719a169261D191596F04960R74514J135258J388186o77451A324849j19295
34622A205554b72114k649003P00024i82561I6014a010513d16321k992699J307707
34613b101313D37690J997823G79249c0138C01165c223764k202521k300291N04188
34604g222388K826220K189345c4635j451659I46352L540598j648050r84699q89815
34595I64386e99993k793209n149033n639c909665a083938j29565l736607n94269
34586e544379J115906B77122K589483A406567J809230j72416N89470K707130k962016
34577C377965o01030q81316R78428J556409k82491j280595k2675j403041J328128
34568B769782L264938q01121l48867K36339a052654j485109a189623A685745L641270
34559E327015B004959n51779o62431j81979M260566K86859E15472A69314J582859
34550A752173J539129R89892q03289I22719J596123L111423A731077a673243l734309
34541e407552K229778A618800K48902g8929r94635F40822a32614m175913O52154
34532c656373a485531N99908p54062M27861L31364J4733b06625o69382d30245
34522C480365L410062j048014B024744H34022M95878g31471n137440Q98872a733184
34512a106218n53295b21203B069653J87007d53279k221610j275318n67603J295197
34503c222613g98867H20989m5492a667939L43397B92326P89143O05624F80410
34493A94511P7064a708871j726380P62316i67090q45293r34943j177427a709888
34483h74872a09990C09775J89350j35885a352553C561828L024675j163158j29930
34474E293415J980199k178972q45289N91876p68828j002481j063642J622141j33315
34465C495104j402803a265035M59035m12748l06280f18073b62023k351757J059316
34456a554464j56160j691532a106678A929478a531598M76057D75623b424562m35897
34447b860459f11465B366029L902385Q11571K359351j848844l251417A911012
34438a803186n65964q6656K1061k731697R56520f72242j153795p32914k573618
34429e132569J983802D04511K24755L38430C63151R60479J221453F88489N81178
34420A269667J996621J942482n23971m88549F25725a487376b9099k997056k941770
34411e967925j729605L342282e32520k765564k875125b461796J137614A287025
34402G88521K22242K158409J345456q07787a110205k580613m72453k101512k36867
34393f501650b195309j69138a016680A948688J463343b29618j036095j532794
34385b798507k765957o03716i85286C556989r40373a555389j594201l17601J063361
34376b403830B985758M27138H50031Q07023O84117k24966O12957J726679K410275
34367F866116k34912j137903J746567j060707B467096b339925P72392B563370
34358C819061j227923J276337A665428a983818l043750k616304L321980g91744
34349d170012l30773a772702d88968A704568Q51597O16747L944220L023677E059368
34339E26939K758831N88433j760248l94263E7361b161438k931826l172497K074985
34330f190776b828726L13945M6270J125695E88752J877094Q03609K392588P55896
34321F417939k387272m52988A627424A67562h34696j718017D59951K52063F7278
34311A772278K333054q63410Q0441E68283g3084A941559J566566A357537K311989
34302C669526o61845a393458l000063l30078j77564J407008h09078B022271J762157
34293C784428A817299g68990B951328P10566A680360r7029p38006a29735B774447
34283D783652k10561J419965q68553J103385C060710o61247M354175J093827j043094
34274F804371r04903q67066K51412k84686B222904J287440L949601K926743L97056
34265A0783744m955792B262594e22335j279651l81638j02054l41334j595509a331106
34255D426565A937707F22066J690959f57970A63097M531980J572816F79010c612138
34245e293034K358031h22637K37435j300852M44059c42997D573810J304209h66319
34235e238720J41392K439475Q74118j04690k215740a290886p61842p84373j538271
34226d375372j800248K685080a085797j905453M9639j129352J186657l87637r76704
34217d248647k407433j120710K385946L53827m5251j865156J328449l21524J08655
34208e831844j169762K982478A682804K726062l57542M27854j569831J143728
34200D053075A846349C69218M99586p9737J25342a383785c97011B314583E15082
34190b96750F96742p2004J064400K571248K34671p98443j271641J238769K422022
34181F085764J984429j947529B114177E47788J366864L094551J545617k062450
34173D492370B056487J764073j526119a351062j968381a656719B615578N357260
34165G972838K162508m810300a038325k29325A343928j16753i53304H76761d87647
34155c659453k109347P83077o38645j44771b412363A093959j1314L241106q57175
34146C466576a445795k231496j135293o05533m10955A255196N738361l043689
34138C949868O75757j753183b774184k219715J475108f50876E47124a212244l673397
34129d885641J420113O10763j245965k031621R21483K230078j046517m88464K64939
34120d250832j560446J07600J338229J326256Q280J178374g58079b91178A402555
34110H68861b284854r15048K67658b18195m84953h7160G59585a859218k500563
34101d359781a954256b94958B41890b816046a324141A220107M5715D55537j75584
34092B79953M677367N348400K962364k529937l607345m87595k14833n12505k631176
34083C284693A460922K248734K40222A449006R52292a400329l561565j710286
34075f672180J936659J700818a346683A1537c076834j930460a641966D95861a29011
34065G30257M447543M187928K080880m93682n010974B864664J66296r75053L327534
34056E383441L143439j568130L3900K74975O2354k416181j659382C53987a66604
34046F6223a265315k23158j747756o15493J162380Q73826A809429l8075J692115
34037C463469P23819A029428h41456o06769j735909A73953J870578J541337J137293
34028D723161P0013p79291j225359i31322M4664B731011L129289o47924j280836
34019C931540j587413j086106d2114C91490J705344o31037J557178L924478J876557
34010H824010C630903b203304k344194b186821I15896d96840m94412E421898L306473
34001H728371p20395l057229A527822b821815k795497R3121a033439E127573N44715
33992E672288A818888A96010J143996M96545G07296J598218p59604a630976F2737
33982A844563J144741J492966j443721Q89824l68177A62878b203833A629027j49945
33973A479082Q56475J526647o07628A162595i17635j569873j201345P124D92160
33963D104701o9392k73147P38137k4168j252729M62965J657990A875269F37209
33953A854278K5820J78572H97146a171209f3780m65869j52878G88114J372266
33944B160380J412867j551187C4641K720995M164423M094621j127979D105472
33935A557828K073468q97875j180756B43461K93700A30332p027J007933J193964
33926B325202J450422J688066k721419A069720P70844J691473j359976A64528
33917C75062g95288j241559r04517J233110A41122J013410K40806L353478k67256
33908D481560j17289o02326M18415l23904I56383c555060J169338E67235i9092
33898f98672j161202k34981m82555j305317j555214J805002a00212m54412A435846
33888D404397C18222c084220J449756M17449m15028M70331e71662j17244A917801
33878A241532a86592l08458A909473M82741c54817k042250a023430H37187R98939
33869A836126F58479b631203j418552a443581A73006b942822R39812A362655n48405
33860H14250J597032K050352A305025B70487b281360j855270M90469J612082Q51459
33851a182620k923890o21911L26743j328570a626088C073857J401427j350824
33843C124460F02121N36551A64709f22529A03791a752432O26511q08074R31993
33834a002002k577602n462196J241100d54633A211753m22816L669955M8583E72451
33824b147776a035840A208867P99228r87331j85733e173683m61969J742314j877040
33815e770378j196261c195781g4410L1828j601320j121030R21538f55191A326152
33805D123738P08085o31761a98340k969130j0599B72550K457837j311833F86255
33795b82505j458020j708729j156509j542379L00204a765741f65246D65205a2415
33785a719659j517064A31505L735729F08048c294860m51641J778740o90053o40046
33776c297860a54478D66252J819988K827009N1981M95553j325923j083552O68946
33767C920254H37671J606456M156944J315881k22183j192331l227552J797646
33759E072532J649792B590218e04023D98908b55090A077843C42407e302161R73227
33750d328934l28262k786281o37051k324611M081286K482824n15924n02526P59517
33741d099962i83180C80665M37252L80300A40373l143b752467j229803k744592
33732f726862N01869K372108P22978j305869k10992K115207B002482a104948j413685
33723b518633A854126N101385K342365J73764J117197k131976k168206q51536
33715E437119k399007R41061l54283j424689J783667J593910B143579l5629J833449
33706C941399J966524J206995J149164M60605l226602B637194K67094A227287
33697b673923Q50224h51754C163665K430447j948581l1464Q38610K605121Q44144
33688G901942K85928m0960j802745J378409L825284k46762m325415j801481J753279
33679F927479K47933J958893K383133J20379p67462j206383j194911J525726L411342
33670A3406129N542404N539444J9051771L6536000P2468742N8628401n8334408
33663A52838483G4746438l7056934j4256723q070585p049130O25574k554766k252113
33655D131761L303796k127740k095327j336735L622325K254300j822637B425340
33646f65042k843342J476509A106564j12413J616148C11709b264876c17911A967104
33636B227626L140676R34647R12197C572283F55140a334522j412427R24906O16322
33627a205721b07929B796333J899776A926214a052456D41111J105184J997693
33619C543988p09590j048763N86793N21041K486086j776704a69427j155421j110252
33610b435100g36713A007255J971750K174169q10255j38142K03832A872428I08255
33600A707833b15789F4747Q99382J646952D98601a710754l819999a933549C385669
33590D733841K638480K768156l023432A600530a939606o01953Q61650M77046N60252
33581f42611A947110Q32740I79099c143028l990264k267020q14137M144402a814205
33571c42179A09183K96851g70761A111514K845887k48049A091479A3869a659027
33561f871104M22916b531901Q63549O95483k26676A258496J890374b85103k868067
33552c153170h5712B845789N46749c35419Q5051C529176A663946A89830K11429
33543D01259a121594p10194A544348L190536J746949j03027K195414C603753j546319
33534B057434J905640K638480k117223A760163a400887k064354J35386a439563
33525c410737g2728B707092j038394n73856O3178b77350l283919L5999B463798
33515B926352c514316J625496A264399O83127r28697J293715P07327K394152J131153
33506F545176k854748b465290m753184J676360b218564l5932A25626d02698n78729
33497i81427L3060j705705n9350a079211D32203K887100K558695J347599j65968
33488G059629j543154j218771A978961D04838a088248d09005C513135P39678j254955
33479B997858o12268D78953c0949n272385l563448K624939K645462a520677A209522
33469F202448r20581k434128m45342L91099L35304J453221J447278j767357A350621
33459b65060A298171M469098J424763m31511k683397m94052A782788K0825N98613
33450B402226c216140k946510K920016A093566K695979j156089G96130e93514
33441B616444L55258J501198j548585I74505J108514Q8613a518985N85422A232295
33431G18560i0087C66021M91239D12476J638189n72232B03317a113482n85873
33422a699355e70354B397242G80577d214546K2274B02753J963949K39414E88717
33412C16646J470334K421047o93744k38851l3787A081132b405718J06840g86116
33402b219728A401445L198336B007961B80293b78859J28346A108143b122095l146377
33393e268472K182523I27630J048766O78880O55687D19357b77470a30437k93737
33384d24174o03494Q492j328725j614552A228149M903771j011329B146000b41739
33374B392848j181146L35184N02854J476319R68165k102630j108474b67365k04237
33365d71602A19269h15971k148645j791363a000445H30233a783680e76639H12570
33355C55448K125716K357212q44091K02871m75859r4611K155028N891k40431f43388
33344e388329R75432a056017j83335j877773J003035k250947j669223J100918
33336d933342P62973m066599P43002L136223J265693r45688j522803J821b288325
33326A446809K708758F26444c020823h53414L73622C228839K52809A046934b245976
33316b159683r11720Q95346k95641l383586L24914b105078Q25612L64674M38510
33307d76282a90730r26377k26808n23445o29999R54532O6111e37095I83182B16570
33296a331929n48505m71377g11274B380872F37256a243144j713451c81229C985491
33286D673107j419072k00026D38060c717018k673438j448622K781050J353907
33278c704121l2792a568718j724384k990860K57437K371663E41338J215042M155611
33269E911991l22014m50307n7363k155710J903676J451596k90168j95016B521881
33259A114787a09966l891439R92631q33133a547698B766864j321065E81141J435516
33250B016657M019993j339860B005019Q55240a717349l825095J804366R77095
33242b760983J049725B10034O041382m77452j516078L92816k130865G06630J084626
33233A791256N56987N74477j440306p2516K080811J325108k027551n96431K014951
33224D206786J892224J61226B801726G67373K17190j42352b011084F04551K028567
33215B633118N69883J144493A425391f08586A398622K757990K094845k500090
33207C751367H1246d36712B869632p77855f6737k230737j818689j402787j911006
33198g429956L258784d39375D68596A45787K742826N557011P21592l117745q15901
33189E233570o08834R71109J058027J477627k98134l039780k263347A045774D57141
33179b427450j428540n58180o41093a016462C14970J060663J986549A429299b53912
33169c109697l290898L74018Q56883J036598b060253n96793k08481B399144M413991
33160F813135p15214A561989J669112J436994J526927A303289b610990c21026
33151A756681q38180p1641J833500F33883b308477J105232k33617A291497L313461
33142D604958L22088P33958j114030b162589l453085l84992Q34054l023377J019438
33133g170551L218434f86146c13576j01441j447093i04A822467L005237J557875
33124F385579k038123l78059j513800F66626L260692j31528B95508b777640j14092
33115b891732e99145o986F38397L54924K493442L179352m42057o39312p71385
33106D813361M85449r65650A098590h88268L75984A954350j77219i93019p38750
33097a731769a09416j025590j131911j82443o18619J51792n71709J335243a63018
33087b792203j90327m13635L21355K26131B10684r7189b33036C730285K773028
33078F503313M721140J389993l222667l622462k147228e6185k970580J464300
33070a562465A619825K558511N43374A751437c214293L29176B292209J75226I23573
33060B982737l17664C60396a45708r73177A128634D09336c51079D5222J846538
33051A891760G3549a739528k087251J315814M35639Q88722K29567j39269A402058
33041A325261c625732l555460J770825b59699A825794p0246a316310j802231r9144
33032c217685a426570k31743B89976a31210k417720b19483A939223K287526J500623
33023E727372j554736n85595I91093B54314O5607a085780j000921C215330J042156
33014D257486j023803p1591j107361R55371D02885b936431p90913r52112h42761
33004F73130c77222B98119J438820b050323k716418J546139h14418E19571J040071
32995A559642E99277a13j625645p99387L25483R28742F25304d52147j722412e01663
32984a188120p9863j471791r15092N94254o51368L60414a231674M36753E86080
32974D98147j10401b545969R27440J3281k256067m140998k491825K715766J287109
32965f491263J044283o21962L46556J236190a786347A849955K404285o32329J381937
32956E003848J688900j370001I31500c98723D09332A76027K442986A196755N03800
32947A700555L018927B060730d97395A375418K554812K196639P26914L29601O35846
32938G819230p38686k215892j233045I39081O57135K884813J614965M976j528781
32929D572189l24864j318167a438307p76608C739466n45437j269168q04913P72869
32920A892817L677355L772483k624885B467000K112827p54958A679705d01704
32911a386523A788317J530165j621832A50698o1858i5415k008757l88862b13798
32901I18229k30277O13513J985852J873006M6755j211978A969590J495062j235283
32892B229369k42633J605444A526063K444602J240045j875881j195781b18517
32883H54871K394530J125685J127661J095263j325592j214620J490129N29508
32875F077435r96875A067958a601685l575994N01969D89384K946326M17972j646451
32866B207231a529127E05647L625520L336442l140549r3626J296477k279747r10161
32857B340003c2593j144939G89404c43644a00050k210747k434359D0257M475164
32848D515421J139835o29448J368462J866153k393586D71700g62511k527995m73337
32839c763843A069406K388525j468616G93897b922764m113880k32933k558727
32831i828304J416229a314722B60177b222418k902235J505519D021715K288383
32823F310098A601745K605441L567116p69205j941368k295594c49842k796667
32815c146509k591639Q95452a007194L05300A65447D8364K547655j05220J76665
32806B667464M31589R83334J334266k480580b58021B497280j65812p50492J61685
32797A742661o45637L592511K584879C441177A532645R54184H37709b336804l061632
32788e398436a436901L21258j922973g84929B531223r36164j77836K469968A68841
32778e52186o43319j435574n81311a252592d90473B577243l6404B50617a200536
32768i97664n6770m4754d58637o00688a87003F69949a851269Q72865p00481j411679
32758c090564k492270j203509K81391J707853c06624B103119K110923J734927
32750E948969m59207j078762j934633b288873c60394B060262i41423j885793o10098
32741c437314M61892H20373P42604l45670K60293J98377L71762J733962j1027
32732C770674A546155c108120l937910M33939J614872K041531l461648k77832
32724f695168K42154J034363K18922c66642E82006m4645M814909N10085k668345
32715C194010r86502K099904j063049q94660l55173j18663E93288a626589j744897
32706c371486h42706A369553g86801j301793k904620o375610J239348L931516
32698f197960K561748m78075j101056j162281j236175r69345J979449J247067
32690e356628m22299b770963C021106M693886l47074J131535n69363k786926j974940
32681C168224B63801a909639K72445H19888J283205a641413m593890b737253A951878
32671A381769o51720b32412E69878J289651b27484o50980A294865J519J720162
32662C016546O98160j425695a616345B42190L4768b043140j25609e82384R9055
32653d83329A546811J056540A41122a740054G66870N070738L196387j078083J91390
32644H147302j614070N46410J604561D317411I50566d15044j138342k367436m02903
32635d323725R2422a700243h02848k101592L5097n76970l69190O67360k575449
32626e723592J244818a156767E74890J546197K884983P67262j252192J188802
32618E709942n40205G44569b680411J220326j598261j541411a357405A646337
32609D901601n5781o53042A586674a118404j708237m1422A322346C06366b372260
32599E8916J352992a904171k957733J085616d90563C675196K37601h03611m735944
32590e539555k113131J085429b580311J105332k266942J337798B267930N75795
32582B843725o38430l83479Q68691l96769P49990J4754j523083E13407J596578
32573B109985e46628A108883K655897q04153j88672j103346A14380a912906k619806
32564d532712J038989J671074j19035k937448k666297O4328j733782k983310L428207
32555h769986d001070K3552J680091n1549p73930R4180j19401k734180J111504
32546d770803B90079a07559A977015L07287b075085l53269A570683L283370J396275
32537F250328k320593A379564J282681h89426n540450j897360J767405a907987
32528C977061L94774G78555a024384F11081J376738L515565B199712a077568c98678
32518E31397K856338m85124J04067L30076A075634a308392q70491h82702B248012
32508D822284q44553A149015c960622l628737L589869H09229a058350j340300
32500b398650A921365L997535J255548k725938A536550p36065J721257J409572
32492C931314J363870n00255M01473N60161p34916C30661O14227J340017M65869
32483B750774J864841k256340j771P26133L0210A083247J092451J650106G11929
32473i79839j037207i94729F86842e44210j646073a029385d09917j730057J035258
32464a104716B621124J470324H12680b501840j210584J689594j0995k68826l331500
32455e634151J716749O01498J425698C397220N45338a64521A550011P63551d9341
32445a112928k113834l148480j14548J349j991635o92383L370815K684864j585626
32436d702406q12150K390162B89819J564046L08191c692307l839270K019013b217033
32426E20860a10136k90353k269170p55674b82750H21849J398330P14009M99811
32417C433999K5934R50657L6034M56384j452211D92484b111000m08639h1369B774238
32406B746799m00418k65310J100041N17308j517377b31665j8319F88702d256293
32396c084244A386635K030581j012455a436976l36184B030150L149747Q8170m33196
32387D834871j894480a030181m781056o04817J077871M21955J497322j15746a278894
32377a259086j458345J210314r60020Q55478C918344M697253k273522c03137k149734
32368b452871B327330K670114j075140h73806l215640N13316a628099N55180k088056
32359c160975J88465m11207q81648j019669L93351j615388J188926K473467c19714
32349d56345o011975k054708J936008K783282b73256C205829J402329k185727
32341B422431E69072g25500j195295j163983J484503j011711a134506j611317
32333b745823M7666i85943j587916j871554J698644B2794K713429K611822J536974
32324F885019m39693J089026q3921k918712B017758K79412A86171L42740K21546
32315G50457k42640b208035Q12229L2675d63725B252095j092731J811337K102823
32306E073524J216540m71108k542690J106958J952968B309862E71714R44130f86540
32296A755895K900652A925175Q43509J351287G37793k76275e8651C014558J528268
32287D542826j631626D05682a221477B371020A109770k27421L258246m83047q40753
32278B816795r8004q32347J6251b71434k094742A80277J002458O7405C73193a668822
32267b578422g67900A935918L741631B769538j167030J934399n8069J632564j094106
32258D017296q29341K563223B433781d84754o42234k005285m66063d24011B780388
32248E376303K625493K55637k643136B722891J923823p81653A638235a533591
32239c415304e93264G94145b791245k293734J863941j020513n582080N81932L670393
32230e571306i88436c21079j778285M86613c67945A615714p06201a240119m19091
32221a659210k92101j54682i45492D97112J821983J274997A259980J848519J328232
32212D436731A337448B99405J979181O80516j241010E63322a922533p95787g36847
32202F03817h6393F78841q1490b564524g63849b90212k222938N12089D380731
32192H467828C812673A054602b1601A466029K527986j214329a404872j752233
32184c157105p08845o81951O28268K2082a831469B279052l83046f49697A022357
32174B397869K386870J874330k005550k9441J470413C11537b913420f25741k047710
32165b673451j311772o27183j081560b799375j762622k609627j799961R26977
32157h044608K289436J426010o18759p10513M07580J365205K64144p20819j018112
32148e360436k01091l03692J63061J838669a888975k060572L5642K78550h66804
32138D263861o2593B020799I94916J442833a11391m810939J623975o08094k1821
32129c928270J226564j855664J249300a23630p56698k053089m359799k678329
32121i971545j295478O06923j19248K191405K248457o50191k129052J495599c288987
32111E22964K212511q97965C78225a435745j5113b41916k031595l51758q24947
32102c450216a125437A633941a001197j911344m96634o50779a759947j030844
32094b790791H62641J126105a049599l887398r8357J833092p18443j059604r48642
32085e928951J008049J450688b61664B125197J198426M06522k64891E19815b937181
32075b674657b04214C271154J390512j510126g30713r29691l205675l31465b509149
32065c127385k39771j29900g31740B093127J172423Q75412J876552B459055a141149
32055E65643K427366k61500A272869c74888l718182l33182a192048j576210j810909
32046d579167b264794F44599L835346J21834J182659M85200C019153L3127k72236
32037B780044A054487b889196j62648C74951J327766J267886J973106J766392
32029F710101l146096P42986A036697c319120K04612a206298L59518B474562J60280
32020B634842a742389q70974j475718O90353j606818J6675Q83859p13014j35302
32011d953328j237407K376391I42128J019419M542773J709649L06779j234999
32003G285749k950907i9740m521843M50911J765404a0375p86047k815004Q14288
31994b797138A546076n18033b276038j210119N98277a67307D067247J545889k734939
31985B878197b592134J43765A776606J230515J778158k32641J61896n81627f75602
31975c442300f11966A450142J133996q98763H0420J744758L209539R65920P30719
31966F731356j60009J304020P17299B614331f29587k339593h76948j910082o78195
31957c465225Q77999I88198K897547J629527p26212m24888K268608k501699d80242
31947g57677k35582l329870l241329K453115a82778D141525M400483j057467C200918
31937A25862b085235j521747O87904a180773j106758j614k50775l188841n51314
31928f280075J816101L71178J594725B033779J564742j576720J788432p12831
31920C097402b21803j924693g46228j451014l242066k890024J900908c031482
31911d153318j12193d67440B476618l45006d1484D55337M043610J117361B686884
31901a530628M60476F59377P98964e62296o99634H83118P31415f13000j11396
31892g24396A896363L618342K155554l692179j46086O12990J567690K200046L23560
31883H536280C770578l80224J224141K581781J471991j788384m7343A273992c577726
31873b279027C40098K408572j019602i52888j987241j349176b01325o1026n23989
31864g86340c55645B830661K297198q25255M45096a9158E20090M78947R42399
31855A941436p24330a768995r34653k18754R33753B981506K566427A889101k22584
31846A666517L160378J109424j026050I12893f75522j146992j751149L56331G09591
31836B283870J116465K108609J443046n62111k204864q02904q14454J120280A376984
31826c286901l074138J777900a401250E78177P99816D81206a95969A6057b339877
31816b821508A072122O69579H52045h74855k002826J203076B30696j12392M07526
31807E25830M23146O85781L96970C81920a736200p20600A603094J208476K62754
31798C074324j091344D85939K151366Q66499F76484e54054E65243N295141Q17005
31789F677389j471774j264428A324246K102288n32945b456848j919771a971745
31780B86175a860241l229119p75281J110846b352037m94067j637801j457094K625898
31771c315101A461682J039048a875112m655521j773219m87154K470187J95653
31763f125166J126679a572620C20622h9653m75838I19484Q40755K608551j461792
31754B906998i21241L96994A061451a356908D3421J391736o71915J905135G25550
31744h09715k823099l589159c341191R86583g73016c0451A672104J342295L965094
31735F979493K007496j022559O52291p59787j681663j791570o93184I63543l72254
31726E91289R0177a38731C90484J634030K777239K69805j551631A605108i35380
31716b111336j778817r77941k505168L325168E67008d63485k037545j245533a208233
31706e71089j33214A375976J01482P6290J252391J936068J631654j524399k016280
31697B833182I07959b681858p75755L37217R82298C066458R76424K732824o45936
31688F129770B517906d46007p24114J58472k919708l650286a833378b05608k867451
31679c073059l9613l71191n37120a211043I87829O1808J754012F54754K54127
31670I08881l15850h0942j268156k567714q40604j208580j002085c244417k5114
31661c269531k097883m08842b626585B20088J092396b067458j148427j761800
31653d977685K62474K116513Q84067O39784C606272j474615g27681k368785a331744
31643C149797J044868j376305E93441e53460a82365A300846n27952j87503a225222
31633d662473l260698J46046b143840A46602P91449a089304B547218K355653k046135
31624B856736A141360i10546j352319d81118A459455C56784d439106j550212b480030
31614c415769l111196p53520j476436m313j697259J910068d09823F71604b981319
31604f651342j801739L391200b289512a15624B081504q28046K26210J906427H69305
31594a015875b40764G56377A06201L707675K135106A330147b102060l59461o89234
31585c150755P47439j450486J123950G8130K117537P22704J456777j275474n29725
31576B569949L40526k35430A285852L1996B17680i3856C807957K126434k136130
31567C798261j683298j025865e26284A781222N886520r09679j358717j882357
31559C516989j408911J645402q37869B07290L86561e17366k331046j55044k112048
31550e115504q88764j096740l420256K181994K229839a373744C820702l46451
31542C474251a200590j375689q41009j988152J377623q19332k558879N04037c155356
31532c704627a053224j04698k841501b43221G54264A82646a70656k880779m92222
31523c543657J642096j85949j620108j455326k143439l67135J28985j18620j377554
31514i040707R67562K02333J656798J105975l056074N29018L089937J457975J122660
31505a964523q16536k86021o39907N53578j823157k769101o8247m66335K119526
31496f160723c036714E08984h12028I81758O91913b217284c58936A362526b747326
31486h348252J150686J403544J878476J162776M72678N9254l55515J222222j154052
31477b508183O60543A036503J985121d90965m860340J463111A65914K079955a757441
31467c937766j185059j503483Q12912j090035J137784J86182J71188J369272P84159
31458c254846e65836E41578b60616B682915L43942A100398C15602a372422j008585
31449b381007k640105b281992I22643P99934O32505E16167g42062j748356j663692
31440d154110L28782p54795j615959K991967M08746B71255K702541J008092j058069
31431B923819a013678l990882P96886b054871l86052k342601n21641J059354a362492
31421a183515E16622L371086j61305A566736G852a743825k31589O46869k035356
31412c363901q23890j413749J597697J749593k435891J85871c30199A102935e61986
31402a016657B221320J477527A539422G44815d24084A33264K777293J378107j002713
31393C285951C10709b029407j357965J171045b7766r74790A645546P5112N38468
31384B259126J015094k4158f11580k299654a280678I81625L928264J230423j10134
31375F030178j840095A679600b194902k793921P63539P96247m564504l347688
31367a1341229N006169K027007p60728a617839A433926O61751J131672H67497
31358h55117k110523j941783j044140j024104k0382q14407k41477J496323J81851
31349f373759O97618a646546A033848Q42277o27550B44722a052428r47594m43674
31340b443696a179946j402457k63057B53726N04014c747652Q68284Q67873P00753
31331a310742m7747m470864O41152J843136n80631j901255K774617F83239K321022
31322C004261J14448G81161A47319b559072k095021J396786o72654j180078i62486
31312A849382F84748N43156n45539b515057M94772B039379K089619R71943l40484
31303D760457Q5705k189561G79940a338755n37293n87347P70225Q11337B520296
31293B905882l23629f64143l880771M93467J130506j1579f31090A251903R47388
31284B199291e996r84261A446459J029440l89337k73681D68915b815937p6060
31275b891997I197K167734j033232a710501j499218j39144j50905a647844j413874
31266c061718m821063J359385L209602C90674f84621l122222P61947L4512R23321
31257b087063b34375l39587k126853k374152J948320a97842C276461K005205k094446
31248C187220a200719J28477D551319R74064r45571O03838J78681I63990a137142
31238a748544j578302l94566a590446A480639L671261M149511l42263k046183
31230F912965n19753k80489j994265J152234K436850l094132A911164J549002
31222C460166J80404M853882J387433D192516i64225k437105K58346l32448J202712
31213b272720B532877L493587J828610k210774A558511K550263N237897j610413
31205G736258j809919B387997L58381A156097e23414F10748b92885p94887k875629
31196c963401f69129D376725A553127a061982B89360K305229A096227d873244
31187g816393L710821K019474p52114E36808d0763k168120C07861M536335M499969
31178I344165Q123081O45850o837348m572654B336768q71467I561a810713O35210
31169a175503c76530o97363k280126j481773a687222D19098K163279J571240j895090
31160B258527N01914q71345F42099J661111P23083J778378p54216f41630l312003
31151c953633R64997k219384j37606N53849J797381e76848r81508j04407m14269
31142b077032o0564R57388H43670J74389c58813A992647K162296L73276H44645
31132b984130Q31650A00419a211208j982317a442904A78926j1416K54672J88464
31123F10646H288a363769p74262L33242H19576b283913k600186b057059D3004
31113B909052a153917j063142E88460h48834j367969j572399n00074P17471a024240
31103c079590m241869J807718b422952F51298j75105a312587k983306k447201
31095f743094r03731P87978J929311K166858H46060M49518l43408l7814b439773
31085i10422B371868R97317p30312C09973m314a727049c75396a8202m2103A624069
31074C397998A599033O36507I48533C71824K081322G58591b71468E218210J603621
31065F821831B180746r02526E899d837280J089529B807859L741113k58262J158876
31056G449586J332905r15265l777505l44154L682806J199661k268013l121255
31048C238766K609723K537298l054536j936390j686789B55067h88204c62675A893176
31038A28462J833972K105129A882257g39070l734844b064384Q11337k86281m9556
31029a588884C00931J721511M88020e0964q2181A360530b073659r40644a114424
31019A111870K698205j637138p7578K29855N58836M14435K760973k94971n80427
31010E184060M772695J41607l596078b73954k936642P33706J219593j23367m54439
31001a835103m17849O84784q08914q53231J472304q75418k755877m403442Q67881
30992h924865c709604i9106B801938P98294F75007a294426G50712J854599m06108
30983B199203J345021o08277l42961m24908p35170L96876f96605j404481J85801
30974a915285a6195C22708a827314Q60437m995090n60710a677849A099256E03833
30964D86343J775098G69751a445259B22445N07752c1897B210220J468093N19789
30955D198102L71053G35383b738835J09761L09987e08112k052820r60430f00346
30945C903381j240992m13201M11880N79875J264323P0797J008913B337045a940355
30935a780228Q14287j02384k729427J642625h42721l70973A989872J099872A291557
30925E6846K5490K76095L192632K752263P15248K49036j568838j887288A502164
30915d09292k866346a016851m48865j441381C014546N221302P42525j617803j027300
30906F333270k87900K063367k507603k349637m06474j09886J540379p7036O6769
30897D265249j557273M60446j535095h15794j788699J28663J18623j911158a549903
30887B813988N19659F43107a085318H59946J184747l56904L966058R17444k516256
30878D055035c77320l197282h75025H41269h45734j474788i83529B015149K850270
30869D865419Q59864O04237A453567d64938c4591k083012j413694k584919Q04340
30860e311876a40111A769671b18254k685269k224942l94731J576556j433511k272720
30851g652871K520042J21201j975234k709301d030906D445864l85425j601050
30843B459389j97513B16485b428386k443294p34751K530356j70106c36094A200159
30833C704373K042808B804484h78389A278745D12833a871818L19340B509946P47022
30824C256968H2074Q69353l86048h71610I53136K60522d004739k210078R6830
30815f117987i36449a43547k2154j992986K33577D11564f11271k752975J218171
30806b146075G52321P00412J179370b94561l884388J851759A30148C6038L124635
30797C160673k8351A357346C30432O96021a044194k805551R82677B191476J159745
30788C351221k74466J56702q14942c98421l362130J416805A45675b29204l94329
30779f23533D143893k04878A846693K13516J701954Q89863A418760c84444A680284
30769B945103l0027A057708N848K770769o59082a999667K83472a46576B440095
30759A918152L35112B35569b795860k663754j255855K201081A117219L076060
30751D193279J936806j026765b32298a7348j233201D88700L674310K457684l35587
30742F285107l108795j081527h28395j159119B31378f73164j942E37572J759731
30733B297303F82626c955520P38667f99258r95085l43713A95629L150786p43559
30724B602856C46122f89443k625665j652769b206929q12253J288653d88244m67544
30715i55788k419822R20665L01922H72252N935C52735L07455M46450J600376K262921
30705D969937K196892m72467k112424K051744l54849k228189P78841L964687L07427
30696I101599A556321c128892K25873B110747K921975B040455a873940l541049
30688e414989J047138O16838a262364C098218J442723j231658j437360a3747j579403
30679a593150M37343m296618m14261K563553O30968O76565l48218q51601Q00050
30670b395369I70465R86679a427553j95111g24360k063722j339312O74775A013620
30660A918740A3901a099001D03693K025673K250696L501751R64004l262041k331031
30651C552745M99530L74271H61375B09010b679620j24364d12143B946799L92152
30642C338951c98045m798147j736888P65865K33755K086872O99898j790820Q39788
30633d097722L33825O37320J298297P31783j103562n04336K38973D43931J338632
30624A782563j09456k91426k49052a436953d01847B057542j23639h72326j021267
30615a893593j976100g78401D91514c95496k01817j289554B18463O92003b384275
30605b321603h20389B423974K839376B117334c100181k802271j202732J030003
30597f075181K331841J678348L71167b0114C16891M15883J901693m50085H43443
30587b723667o50797j89984d13089a64958q86615J29122d12386j296998j025669
30578b735053k378453J879179G56391L21399R99739J639539o42378m1131J273400
30569D306959J198218k204422H49826P96623J920261K550221p11284o5721k331738
30560C008188l83028i13262A204979L678571M75265L317281j592100l315411A69480
30550e406634p48657a708304n62496l30959a237400A009929b034287k449334a135584
30540c18004j59217j582376q57886R14808I07941K350181j414612b920907J018257
30531a902650a85699B206327q19087d207524l317120K40853K251058K332785a116753
30521g85274E69167K890823j068160C55300b287198j615042a081848C274254N423855
30512H698109P64461k853159A816872c56870o66687j677320P30536C1592K28678
30503B60270a894253J08181m64282j898936j211201o66247J045262a712855E12054
30493A198393a214550j468095a74436C007599k24985J068842I47853c595444J391870
30484b203574e57029n65311l38805B54140J853279i00676j094563B55973M913583
30475E169556k040701A379829J969754J175226J77253D17834N16275J589770A020251
30465b53142o8392E2387Q77503J623007p38236f771730r08638e24621C030026
30455B158171H67420a62689k107371A015448h99163k929540a154650j010966j028775
30446c194391J124274P23656A012012B40011j145e53217j685644J008164l84584
30437a615281L9827C59108J815294b79759k698355k207082a879210A857801J55908
30428B013709r50461O6200K010057a064971k242911L70603k814848m457585k728141
30419a2937853J966799L961013c437459q0619J524478C161343J992138B065123
30410H59509k06037K68975a005232l480264q69278O28716n31468M17364K060578
30401b779584k31726Q93494k786796n97642a218142C087464H43387b457616R33534
30392a524082c53735A451633L575090j597805a099339j808669a041625B58992
30383B103349K374111j776347a076926p13467g88005A335850J37819J41513P84088
30374B399270J868619N27088A094497a813413a88730C132947k42748K611469Q52053
30365F353721B696261O55850J119975M447642r43388l361478E42771b374237d54898
30355A607329N66556C54874a110925B205916J805006c29183p30186C60641K74913
30346F35554K561607b58965k514985l53470j80128j313839q9640K242994M26360
30337b041673h66223j745646m35542A25279Q44927A96109q5909d02910A673346
30327C870082j811094c223105l153642b505328i0517j611586h50565k302363l551232
30318f704160K301611K047869K81234m79876d83103B760399D68996c494071K97387
30309c196684q97794m443742m436873J329128d762376B454129J601002A767050
30300a177106j10262j226513j00926A165239K222181a307752B33298K768929a287748
30290d489545l193386J2363K489814m01170J693894C18697L673305M93303j464771
30281C020534Q31684A246597g96844B519111P09106A477753K464777K740233k322868
30272D359895P05596J467531k86301k613962J773203k327095d292480k939316
30264g231796J521652K641745j302266j048313N98493J006704l992977k22553
30256h029311J090694p50524b131131A942982a502156j579386P48895C33544J585820
30247A919364d31239A749866K913270r34509D60984a259639B317840K13441F49050
30237c607141k647447K313190a732680A646098n11981a453661N90708C10734J424426
30228A735160b92523m468541J32138j92649j11478a976948b65495r48149m46306
30219a659950D33507L75258b039364j826245R43648a159902E83221f89974l347
30210f93321B282920G04733J870214L835217q32975j508800A742512e062940n71664
30201e634604K670733j50367R3913f12289B052173n65785b501019n917693l706443
30192a2125155J487879N159882K407229J321168A647495J070964M30807j130926
30184B018340j88689J414806A308307C5200J055082J756690j256206p71466J895423
30175B714723P19008j1394c06281k646554K87496J98210c38106B087182A12851
30165C2939M48857J480262L46082R81913K088642K271787k787849q06613K52340
30156D308360P21783c817l394215A314558J480567a418718j505908R89963K6097
30147a908566b88945k67122j596826r34666j974919K195428B487497L40744N29942
30138C358183N57083j862733a98528k920792j974790a839956f18450k011639a249987
30128F76957e77984k729682A443719N741304k369306h02508c45952k183533K39946
30119b289539A57960M80220J774567r43587b730496k049780a266644C175192R96370
30110D171562K039114J367377r53882M177111K181069m511222j703340j960762
30102D807027j110306B41750b475228k197426e19602A630564J70128q73234Q0749
30093A008207C3046K6251a111820o067189j77158J941682R56548J371978j645670
30084d731629r31042c8851A068052M50859n73675f96127j162928j511815J560619
30075a810251A395259P76234d42438D01668M553518k56832K59655O002073Q22643
30066A1782725E801310A778567G45575g09395j343447H31093R25436g00428k028574
30057b729002h34563A402258n98188K406878n8048j543631a079685a36724p3300
30048b10024j238340j378292h04764B481701I67625d401446a654502N35756j469627
30039b588373k848765b703200P01705l807367k191842o06551m20800d472692b049065
30029D56977J473611K366521A366626a217035M95641A72528J99603g48484O9292
30020f79192p17888j773689o97170p66668J122248a178352j08973D52974a745899
30010c089800J199218j413421m846340k51036j18750b722186O09833l106163j37797
30001e356313m45318K784918K91477k00018D00664K167612K273935Q49291K198882
29992G890384j254813j798223D72630e341626m36214K654534E59837J043809n75246
29983A028400B29569b565468j857642J753209B988587M928885l165900d56393
29974c001725J169659I40150K782325A212811a453627d80610q58961k716197l8473
29965d094241k26787J390612k46491J01021Q17399R98314D16248K564333j284902
29956A695679p91080O27016J535885o00114A115679A33219J521726L768452K467923
29947G891320O66104r15402l236827j391528j396013N76854k03788a135319n10665
29938a645984j697235J387449F79251c380831q6640h21040b76062D155905r9750
29929D056155j078664J757142k2338b29038j770687f16230j884350l458282j159902
29920g118764K655726A934114J648432o72960I13841D27692K564901J393303O52193
29911E038089n33914I91562a184929E09909P56186L133067n4492l11082j060138
29902B973450J26425Q5786A02920L94437c23307p84204l04357k801669o76770
29893d890307P2929m88250J923202R06128K30891P97385q39487k465995b069189
29883B672736Q91262A575846e57880a38039A015693b110792k615540q51474j228541
29874f806347L40788a809739r11110m125175m183465P24928K003675J355473Q80580
29865f064833K201777a483039k816416l93400K185745I185K75930M67524b605861
29855d125046J014112A541867J883297n41374l01122j274575k19130J017799F20804
29845a156605l73649k142585j209754K417833A237218J924243J78386k54976R26530
29836D011401j581205b47157k953464k490976p40098K723816a311991g2781j359459
29827a432240j169244C48098K659209M82915p03525m46028J022868A55475h31068
29817i72527o73496B496181L158443J702779p72573B389421a022127H1885P01326
29808G83211J946783J263894m86640J074149B235826a921198o87347l2956k800341
29799e441842m41322J700312k3035a199821M47249k800030m64295j770050j98210
29790e985157Q33784j66469b176062D537020J924468k400229Q22585j907095C69282
29780A833119K253570k87852R46641j006322n07163L55886j487668f95823J18845
29771e76978B113963N52495n40657C27433j11900L568005J283063A307718b78476
29761c097195j160751J645629a048699A617019j41880B88316M87745O59610Q55978
29752B291649J921617K25881j20834A288660N31136J680284q9366Q71534A751301
29742a481647N34695A278959C49309b756792o067324K315157K330980a677908
29733A55193M19435h93396J42203D22643O398c516934L25823a594606l109722
29724d704328j012762K315237q60453k35943K0787L43795c35095j26496I87627
29714C193964L50907q92581p8415K406517j58324K56142B090249H96849O10505
29705A507354J112715q63314i75759K6146o45092n22376n61245q771p12106J495977
29695a903226O31637c41797D14027j17183F0198b047214j355540P25039a180261
29685B590580R90531E84205L067360K854946k763069o3211A063690J427744J162215
29676C653649p43446j389313o39413c581797n76506A470735P23239c086182P87903
29667b298279C564898K328827j088050O24118r76221j84236A967981i59180j876070
29658b835250A311807p9291b715165j056612l652262j912649M018538C4679J802361
29649A837040O86824p08916i304A405024k00029d021783a114052B650657l47251
29640B303406H46030a702953r69554J061769A582058m02175h77524l776606k401403
29631g055533R34073K563753B60587K220712e89678k577890J304302K84185L87349
29622a191732D62255M68421a686191f65211A874768J836188H39791B49095K32811
29613D81906K70240b82952j235541M4675D92630J828497P39553P77696A479055
29603e8732k018216B003613C73296a967560j881089a509881e96184m409491M86684
29594d518991g35355B191677D87932a275661j281864k95595Q4127j200087r32293
29585d901373j871701J637255j324381j280046J982363b022613a005460B256696
29576C298419J346914o48711A934808E46662f42027j949795c99189B603867A134179
29566D216777J820390B554005H85083a220950l723263l398403J151174c539141
29557a283396a00921B08035H2252J237665Q29149i06240j671434J220722H55463
29547i61033D97102L085459J482847K503705k887596A810163o57348D11191b160763
29537c65961C779248M94881J520633n40957B090973c101520j405898d5297B57493
29527b91330D96328i45238l077063l174374N33497l57374K511647a090089r68194
29518b058283j0093j04578j488652n51873j363457j344829K252627a892355h38570
29508b2998k569999N88934C15119M015878K592941K019765j381352l704904d254924
29498h491104K496345K807966j208091j798479Q47035J614960J250477D82763
29489C112854o83912E879h89504j523063K21056R19282b10825A048222J898990
29480B947212Q56785q21600A473083F27452K239596J753606K75775D02273b233815
29470b502607J085229G59242K999139Q14079Q9528p26986A263400k97110b534435
29460g462814K736333a745986g29948j043114P73204A193382K8214E7L700069
29451C700126j840461A88705P47856b732822o61887b30374C61787c650240j791340
29442e441580J619762C44155L235674f8465n968035J599442h92374E605735L357947
29433H963682l858642r96313j758085a73012N6716A090653D09387L04184b163130
29423c988628O36976j54521b5274C001873Q68862G60430f22874G27059J640775
29414B367834A099900c368775k538023J47982J783606R46249G44025J135621f47545
29404a078144j476581p21481j053732J540793b84822m86915D53068a086839m19189
29395a506028p6039I66245M186323B491979q59888K186460J509401A051974b419165
29385b571236C054833M276321q79162B160705Q47370R0155H57088b479742l204738
29376e684480K047238G84999l28781a865319O79582m09824P95478B514959K410146
29367D925105K280579j75281Q753n9369j576364j768314J018394k110493b851906
29357B21425K622186m20045n86691L43080F04828Q81836K585425A584423O90906
29348B275329d4848k621640R71990M42976c60729k42661A355925J128812c92476
29338i50542k840796l064864j03260b903685D93397J765986a693663m839768J594838
29329d938593e29294D743610K48728j542469H60188a781254m91719j79777A928829
29319F785117j509432d50077k250779o23611M13524K95757l57215a13536A88819
29309A152044L694716L311339j988459A933280I12138J985410k04493q83554L49732
29300B159233j25513J022791I50570K247605J199929L8260J827624l27942B458598
29290b710444K7083o22869e16626A184125b05198j493363q15823a248155C90110
29280h36609j908371b76513B200730J210473K551962k653116b05148C906526M667487
29271H574013k137134G79867a715529o61881K78434g26684B639215K090187k257638
29262B471764k40684r07870Q53512K980459j971125A204722M085020L563812J446399
29253A0299953k709585j022694m57978k428074j172299r79994J601062H98232
29244c26499k060379r32191m68136g33911H08020c574298j1301l877789K768031
29235d695357b271279O18786E04349N84357h99399l536018k009063Q43486b067818
29225F29967J384045o10022J249009H64692J728677K93420P21281J066440A934005
29215A323872l32508K892286o95912a323664j126255A695463K920099A833689
29206h04654m342913r22485a438965C494815L03008A13375a23297l302641l55195
29197c781133J665860k642032J713587A292325K280418l34243B84085K086669
29189B370754K798026A10195b167601q66563N00977M69260I06413L047346j18343
29180C835416o62133K34956A090766a844492j323185j190395j021925J085909
29172d294088O10007j303528J822747r93514k57229n92252l114245n33799J256591
29163g399310K907214A75367L192251j476821J256690O91013j449069a275826
29154d57394C72534O33855i8354m34233j194824A103626j16270b272176a008277
29144C826232J848473k798704j437368a175006j45905r6087k273193J590469l27379
29135b427101r65731j453338R39134B147297J637904e10685m776080o32894R23993
29126d995666K363370J52631k674493J80252K224724J328625r63193j465454Q87103
29117b962101A253198K580930K055523k795873Q82333J571379A566946a797116
29108C0917i32218j780360h01611J5584B13254b706910g16686D621513M006178
29099H627691J536137j317486k327010j289712r6902j144664A977984J103890
29091C081874K647206A407941m73580J74787b98279p01357j969862L38885k656635
29082e287248j150460J213898a842760C673222J622871K45327A626694c96981
29073B230780N801252N30235k956296B522757p53027J950657A012370b008207
29064b236235a26032C451255J006150F05632d00127A170986D58870c951664j294066
29055e245730b005614d10093b00041f064C255203O06286j03000j557321J122065
29046C323233j035306J053397k895a676855k937211k25505K32906j384562J474930
29037d516297o07892k60430a627266f39184r97532B503249L614268k053664j911681
29028B152172l24666a685643m196654J576023b076886i78477b54181k166945j848588
29019d269714q81437b97048C818930j894587H75918Q75269O406820k045940B853940
29009I64649R4061J544333p25852H02950e80924p67951A243846A50120a505903
28999b922203L54377B064349R15242j269727j59592M13083J876730K058607N8847
28990E957539j628088p42198j657833B62687q1871A8302O16141C05086J827593
28981B132679J244825C58989g90289j0188F8020J061704P66470F1158f55596j863867
28971b519463R88934a04051m60737E295518K335471k18368j353945k831182j148496
28962B078998H86936a517955k101977H88259K473470k11309A566610K68273K471621
28953D306504B043907A6500L43559c56653A215793l26959C27808g7483j383657
28944a461140j709463j720072a867880L38422D74069M229920J256714k634881
28936C325822A532933E85200O46304J911688R84418J943602j214723j417063j147834
28927B291592j138321M109493L754089l354215I71598d561563k309620c324500
28918d035903l420330j336082K319371b053414B456271J074797k45549A613121
28909C415089J311593A922334J128207g1743j759606a65479C215598J656401G93452
28899a955691j719417p31717a634116H78140P94534J561807M58018J074939K264338
28890G031776l178474A543623k07488o57992B08820N776547L75644k931976J531901
28881D960936K219627j841947k593918r91750Q69282J782479L340619J975602
28873I720930l146457B549477l59952q93874a179055j630425K4697f93626E06365
28863b281074l584294l802588J63803L131795b725059j087679j618405n54495
28855e985638O91718b436815K59424A914383Q70648B51665c486511N20652A07869
28845B966478A035350o8107L044205J741323k353501D56481R6600L044205n57432
28836C039854p69227J482222N66343K267473Q37380C224888j5980O63225M1266
28827C913399j014935A259432Q21860r37309Q37114B56560J361046c346936k12496
28818c559432a010716m32054j001934j181175j117321K32245a369941q9255j535723
28809b994919K59073K40231k116265Q40540g92030G32163j35968c611718k493253
28800f104971O98068J112927a503218C70413a094062p54816O82658b82294j252174
28791a534468l118314Q67687E7373K155514J20734o40249E57588J077615B29329
28781a235996c97680A209456D05170Q35726L54962B08448a030712l987310K69477
28772d748545i48341o77832j293334j711112a638820E00488l297J258458a81102
28762b009923C31912K87100a986996k563155O83174C68493f42481k140222M3497
28753b739206o81856J368642j621148k015791K313176B700846J23709d42759k283699
28744b726458O58027k58563g83826F2385d097769J085406J395302p96370j231767
28735c645198a254592m17470Q19494E69492c785869q08655b07036j093670j330833
28726b631539P83323j015829f19564A753694C11334b087274l93253i40430k745741
28717c686171q25797k254680J515672e97900G15498a52851j685290O22816a84758
28707g64299B029127K087719N64595A748497b322227q69989l98956N52003B98987
28697A833782f01088k998769m183631J815730b583880j235074i20978B606835
28688B006734k85756m90590a638430N20952A901252J649267j189544p5214G56653
28678a664673A397933O60496a079110k262662M10640R35325j367718j579445J335809
28669c607161Q31341J37920L7759I81554M014080j70827j989171j033240A03356
28659c98045n74357m318413k245011P56676K831374C37572N558590J182849l416303
28650C662708K41536N41078j466705m69066J326634K70636j84696r17456G05994
28640a839387J72303A931900K091969k37304j07528G24900B27574J842929K954967
28631E025470J87609J076456l2670k187902A058504A74816J122789R42966k7924
28622B212647D81297R27946M932014J727024r91123k756517H55074k72923A2016
28612A51276L904434L178498P72862k743620F16089J25933R72616e01652k98046
28603g99698q31293p17499E95217J407845K157224o60174o62295q9739o49488
28594B098590L025845j023495K052669O0443l082618j117805k22745J48826a618616
28584c639385l44759J930495A866216m87443M000879K702054k543249K755080
28576H293537q04985A494979b657286k308050m72189a602983A37196b553640k657790
28567e211430K238550e09092p03853j052444D86058K503693j312003c227324k67286
28558c494610j80851J321476E96340J951227j063317h26638l770518N70598O58941
28549c367617A722474K035220r52934J609132k84745P25630K113426J011531r11416
28540G068318l304383c14581m92321C196308M077196r27812l046318J551289n70343
28531D280320A201688K665178m83796a437773j786823K2291e70876A639015J834201
28522C473216K01564A818905Q39016r2888A116722L527691J306998j503407B193490
28512A333879c83089C075569K300977o62676o20172N9859J981908Q60322B272370
28502c942643a485092n58174c95439E103112j598123b219688a081171A932586
28493f84854B157433K937475B122441c89502G2760b703357J30218c42205E81710
28483b080735j573684g38764C994992A352082k07169C85384J501045O61221m74382
28474B073268r81144P99677J16033J150529J830625j507495a937140j263766d88753
28464f18308r08323q59176j643432J023793A043257M109695L525252l030805A705369
28454B694534K058853J629552N46682J314078k401171j284187j200782J117678
28446D475237J542385k357107g18635l460745J468712q40577j306665b130921
28437C15305J710250m12280N14451L629982k26651J98847B213004C89108L362669
28428C751777L224483J101915P13315k568665B51353K37235J185367o1237j10428
28419A502290L637502J10043J118924L19761M46047L940939j102967l024366j734463
28410E213710j297638A383549b73339m57208D087497k48030o95007l96889J259569
28401D007140K761326k123844J270014j02276A869823b858381J008289A069120
28392A654996D05239d79114a07001B467729H2298K235766j075976c030443J049635
28383a980808A630390K90715L397642j415864j018320c68637k285086Q20226K12371
28374a621126A017816M265588k14922H37481a503390L65689j584396m03701h65694
28364c264129n192911L9051b128236N75182n00292P22824A696229D23712a489896
28354f44428b1669E68454a024908l619468J501050D789708K030268j757306H70084
28344A592215M342071j59045K374555n21358B280353a499109m91307A319523n2439
28335A267084E75894a847469J39527A13495Q47731N18410n94116O711O38511a49779
28324C191515J91721j039527K36181a006931j281491B069800K217110J417269
28316E704179j9485J13558J352166j656782q60695J093420k734412B51163c17233
28306c375958J73512B58963K5980b528605n82673J6557J63633L85786n83449n8857
28296c187608q31833j245934J303152q14679A192799L358530j258020L696690
28288F989999k604671f48605p48577n59921d18985k212770k54941l34547k0065
28279c241308a191545M36087E164R13865K060909E46926e321461J556914J827414
28270a937133R54215C095682E58518a442268d55727B640829q57671J050014A291560
28260a979843K84818p37002g35455A02489M26099K93986a071918j322116j79354
28251b573388I02784C4930b175962r02132J055230C13117J15301L309111K691493
28242F429022j972135o46802O50240k045447k38045I4323b308549d51382F68435
28232H6642O92377L03803b48278r34534A87659Q30035m38335e00249k585366A944562
28221D274955i82775m933444r89299b761616C665752L610208A32335e883619L35271
28212e548348M05807k98773J915131J204938r45761J277194a71786G20843a482857
28202b473648A983359J407609a159356m467051j250214Q6996K424296Q52349o12679
28193d125659O8128c7801E144365K564022n36300l82513j598025Q4602L049774
28184H325925o49072j938565m47745k179798E48299J84492J759558j241123a693901
28174c452319k56090J151824e95384F25448K172468q75073j43647a251292o39527
28165a890819j884001q22744j685890j266795a273184E973436J191264l51713
28157F812987j663167e70483n939050j781424K985819b365219J173517A538374
28148A153119b6611A594518m94946M590039j24174k559302K295143J75621j582455
28139C894444M57441M14788J826656Q79263C655672A486598g98778A04578O10853
28130G15431J255489K751304J876986j626973a355912l763137k745329J43192
28122g721186J184365J786563J033449b7818j233359e49177I64726c90825A309285
28112D199337A867358N241745K264631m004010B350008B99501c67385A862714
28103C362136A201848n15426K026260K96600J307837q76090N60658J829521j229681
28094D601527j541186b37290k617786m32840J554558A483425K830009Q55511k126905
28085C042040P4909j498925n09333L1154J811142L77293p41110A164745d7055
28075E36278j75236a396564j933949j746569N21777o16838L909o41933j19311
28066e929478k835210L063505a690486C293g56722k981315k260751K32477K638976
28057c127335O83660b51642A268701B83882a397082r67425b06429m30953F44471
28047B536947j210920k83651a54930E25198a025899B34693K158062J709308J242820
28038E344883j847242A713910d32250a18739k701914j363209J251674B18974M9242
28029B68216e064086j8450J394499O0002j35248a595093B974437E78383a849673
28019A673145L29516M56389d8332k903449q55707L56917f01593p9072a33174C423272
28008C395133E89855L59022C6421L22702J390490K467943O43693K211647K73172
27999G346068J300315O1597l88716C064967d96538A989628J280300r79002c60946
27989H0346i58729m19320a806j559984k258366j889464j957101K089766a695160
27979a113331I5621K12005e96409k605631j064859J371123B015659J088909e61697
27969a043722D109652J551242k086316j590289J513440B09012b107061H58525
27960A198114O67417a65911o69692j07563o94556C66495n2221b071700I0960a775746
27949b474782J228588A23203K011709H91425N53967B44557b039489K62045k15112
27940a992556j489347J232583R12625n69916k875783l095599K438443J931020
27932c508530l28281J384722K50978J58011a97301B928164O42584o51409k91065
27923B628274c514888m709672Q37283b416265k40339j122425L38895K65214Q55713
27914b319207q66317k203200O59225a204785c36531G31881l12442O23057g20958
27904g13466A302157E36992b292682P15259J01442N79728c0447k955988k773139
27895e759574R3297J919104a775811N0893c98526r36006O54830E11481O90636
27886A202117L10450D64341a813368l487655O23075a962022Q55685p00015I92045
27876B966981A251704J080376R18898J144380j35710q51408o85180a264768q46166
27867b110934N72690D66879a546269l751431O77796c4155A907971a627267l180121
27858d807388P79440P87018N13949J068130A082560L146545K438719N29178l66590
27849F830412j901511B202648r88914K84203J051141K36552M21561r95507a861685
27839b914784D00552d01397j641148j847946J208286b64481B585781R26934m39098
27830C073617H16245b433079k20941j340628k825884Q57925A193126J62813a072153
27820b327609l65149c00644q16858e33048B654359F20413L73368a281596j230410
27811b512006e05546A464953a356650j631929e70879C366504J501814B248723
27802E19356J753611O62244I20051j22423K007311J413330o53958A086192a168138
27792b935903l19738j548937F51505M627247L810289k091658B86050d286776Q46513
27783c440263J436857m619123k380288K480263a875182E07579J286952Q99947
27775B694478J637945c14579p15744B644930L1030J076374K19015F76209b470040
27765b242084d18369B664026j245078b669390j022221a458938H10982a166999
27756A786546L92829d80367m097247j219117a520082A01277a148750b64863l262515
27747c527378k181902J090143b034309l92377M88084O009L53585N54666k740528
27738c764870l493297j21585K820659b039656i72269j305324D89461L867755K668387
27729G025603j271675A139283b407487K13486j745819k586702J045654a615074
27720A944926G39815J69338m17762Q15806J145825A18937c57664q12884m534876
27711e705424a718652C558155M4983j764665L87655K82385b08348A16760J673560
27702A790320a810980k230740J247102C53068a059403l706896l639482Q81363
27694g524418L334175A200230L609613k198774M74983N09264n3091K488269J743816
27685G774310k417503k307912K366751O1878o46564p25368j807855a328425r19275
27676b247700O7362k436928a222437I21677c246362j502158j221515k205325J203245
27667f972115b909889a279718D42823e4645A217495K14639C1267J596607J396091
27658C023965c09611l677692j964546J006465d21084Q4923j905914A39858L169152
27649C309010j422140E11474J637901J709402K180275O085184L09332l153527
27641I280041D529110C23365J455701J540570j439421f12678j043587p59605l79025
27632b794895a37361A796697a69351B185800k01874c23076p33297j707168K64426
27623b499115J210578m61427g38628C974322l95997A44545O629N72297b267359
27613d873778k026032K7113b303591i71544A242896a168348l786469J891416a184339
27603a850652o81356j412266k60274k254421M57095K391781m17190a365135j165455
27594b530590a012023p73152N94986D084018K881954l220164j792828n04661R05569
27585B353888j154456D40906L357106j150727N56154A077757c011838j545748
27577d557586h2967j676213F19532L067099A332362O76092H44977K176172O94821
27568C715970J181086O83966j797482G73311b744042m831893j421127L077362
27560e919700K910026n30886a301812B083581H64076a660159k330398J68023R52622
27551b869912a026903A908256K056800J224198k198988N73943j63423L36535E68415
27541a008571A559629k65993K42861a906095m58963J095005I33403J477262J040011
27532C450676A479347b289080r1154E41610L118624K45166J134565j784130b734417
27522d761731J770012J91137o90971A75233O41121a04144j466362k92784o18050
27513b481340C019573J605188A511626b108167A250696K627946L51920j523334
27505B707228a537458q0528o69034E10154R94120J50893J231375I87236a104841
27495a858302j181913K72580g76904A524342p17888j49872a324684l21095L43714
27486a302065o16991f07634A268624L939034j232877o43442Q22975J667029j68078
27477E653265k507198Q86473K156909k855790c47331l289361m789533j302376
27469i728601b644054E31612J349490J759218K382918k303981H17858a245252
27460b425693R35662A573328J299811j94300d31732l453848J603176a78942A840758
27450C553830j428193C8414a567780j32822A337689A9582b305354d24488o78064
27441a102552J82905j11287B085766m94571J094452Q59598A71758b530320D55108
27431H76667i68589p51731j645969j589846j704144l148214J416745c973544K13736
27422c759808j541437m35635b013355h10054j940983P24529h80911C428569M804954
27413H233523j912765A480074d39162j319591m680782J270439a889704A006240
27404h7394k574242l512068r79157c568599f53835B14277b128233j699117J46061
27395c681289h84971B236783J604332A331512M16111M578701O74967C016499j323663
27386A692836J029654L24281D48202d90553B127157r80701A25214a955362O4010
27377a891352m88786j971278a51076B062222a21318H10061M60144k56459d85553
27367b113700c51965D34002f25116b19504C153706L07247A557078L25142H10722
27357b05543B400853L094363J603270J570292j51791k17108k13270k177485B936281
27347A133611h48980J80599A049561M66727b828635j912373N93959a283442B60609
27337A340076M98950o85463k25270J472543n80326a242382R6288B091530K421975
27328D513505A463714g138239R15905p2364J81209J084524M92022j277883N45478
27319e269348H48365L166284J770567j741058K730361K64291A948460b140830
27310c150793a69178D65171a217438Q475B680108M164068k071015J841295K053647
27301H668103B847231I50759C09675a173335j066549A034459L978144A194241
27292e116137j891363c075108c49473A47215J441615M12931B09449K298375H57059
27282d072640k307951Q02264a957728B42842a148222j786229b0868D049587A490876
27272A15500K280806r85189C42724P55044N09422A61918N019751P08057j326924
27263D562802k090507B98245f88095B042980K957084j024079j964239J42509o59409
27254A494846q0817R41670B39292b960949l045666J229720N29485J07967N67052
27245c572391a049261c44801j55254B430564J984670J615688p44489A197748d62744
27235A865926m71412a364950j098072o28575i02310E99171J303225k05436J166756
27226B863716J290391F52645J114015P25933K190289O57153R92902K71217o38140
27217E966014k461117C50082b187237l303469J863908h47964j423664q66587j248158
27208d386373k99116K205270a016775j091421N42100m23357P50888E421062L655577
27199I076639k674551A939841a554263R488A504644a050874k692955a054600A303171
27189D855611k164434j202026c65908j898892g64201j461592j84583e97623j628151
27180b225774E99676P16923C5960R40375K315750K058103j9324M94576J219129
27171G044569P89308B157775c738279r4612O00803L56085Q45980j623410j377181
27162e030614b324014A061849l21697b506903J87457d31444F77309N039600P38868
27153F455777l009072A109191P64944H12293k21292L873242k76831A442232a509457
27143a524179l41871B735992M57965j297184R26591J324226J774825j802055F58706
27133b217519L03029R29904H31129K49607m02498a699033P98287A872242J707333
27124C579575K873748k775894I35604a178159k949145q74768K358500a275898
27115b105204b00414E530692J713958l55271k846878q49264K760743k766815B1604
27105f435r5827l637515l928025J470136a784783k85716j009688h8626G0249J983791
27095B054040N3872c16089A379356J448313H86282Q46712J511903B24573h10628
27085c45144m185059j243229K621473p89225j905192O61126J831417H67541J256739
27076B124280I85253a289502a62920D208378j62422A324112J218498J216046G64966
27066c27044l351120J368929D38961R37218a432450j448477m7109J17483r36857
27057c747410l82364j368548l084832l06619L007400J131691J42299J388059B53361
27047a970403k635024i50149A644376a257880q91117J058434A671654K260692
27039C932346J21608J032952J144079Q94724l453702b415411K69112A433350R7937
27030A531287n87990J792249L709272J771852L41455j881521k212694L86945M251073
27021I101928p24680l674014j869445G27412e36440r46583k832158J763159r48930
27012c500952N24745a429305D94304O104099J189554l876989c94830r13666j680443
27003b988939j132632J746586a64793C963851A240241h4127A851084n96701K88123
26994A542506K469546O23279q03195A89270b899807a019982A478677a41541A47826
26984d42337j464613A159001L731066k284885e32122k666260J308692D59048K748622
26975C207670q36784J781765j472282A007797Q25048K106636M39676A277789b76426
26965A143847P89095a534572j27013f34508A777104G75127c534835J155173A261767
26955B519506a56435k441060h62977L19965m23058A158903h65545n39898C334670
26945C037881D34401K131890F44879f89776n71655A6996L01543a742429j957690
26936c700119j489684J609854o11049b39347n93991k267566k074900J15956Q28031
26927d231817d23631D943730r24168H10502b458093n180571L197544H99598B65194
26917a505901n6481j28529D85661I3227Q43328J527764c077291n66606m34247
26908d078144k464136e22722G524510l59146G63408a262983B448449K82065A290624
26898c396688j420531D52430N547792J695269m01531k463103b61983k289322L96941
26889b154364f12976C138597r07359m10222f59914j081904B22351f99896m586679
26880e286575n663128K626837a954171h85741b2349C026110L50182a369938o51682
26871b021620g99168j119663j352608r51365k186797j99987R13083b594060l09599
26862b903659q46166D15836K168139K048681O11319j151139A640266b670163j421955
26853d092118k713910o23022Q84525K426874J398309d56881n57634l898012j851216
26844f763743K618687g90932I35274k89094r1876P85881N8209K319788K707939
26835F426121j809576A733985E45509b342343k493900N55022J376686J030729
26827a873806L32380j882209M76959j193876K17642F74447L079137a321579m029091
26818e350670a969719I81497P71658r8242P35702F6071a163489l7179A041780
26808C271755J988021m72380K136291O11829p95886j542876B540756A228874k76815
26799I52059K081298J046529K8191M90562l61824E71950b334025J80051Q62709
26790a291265j138010d16023C729135J908029A920360e088068j109258b230653
26781h90889q63185I47518K935371K920398B854198a754338L86294E52979B22121
26771A062303P57959Q32872p259P21544J846847Q46452j223741j560632j50255
26762C126090m73622c162865m582671K180258b181697N29903D86506e8371j893015
26753a951386F8873J715901M80834K412233B169991B454a933753P98262D65192
26743b251699k591925k726038L160412f07610C354450K420238o48009A3689b823606
26733i00327A701004L951416K054561l716273A73698n615N27880K815175A737409
26723d043913j206729M56628M06317M24738J635271d86915p05689q08133j3390
26714b014127j066239Q09188b49331q32393j360411d37864j48567B681293K565734
26705E247027P3880J368189j206998k368511L923921K190913l645037B303680
26696A466939a51318j622636N58661I26619i56874k592466p95542m97966M17660
26687d425188a419727A088365m52946J227450L80998F39160L599528J906903J742677
26678G888268m30200k314662j014376a011180m636466j87867j080947K694751
26670d221709A3617L088575K907247r08724O88084K226966K70243l755199M44597
26661D975406p06184j49619K53305A78764J203656M098060n74534q77421J296349
26652E324874j9570j627199A249995F4839Q72694L293996A859806c563084h77981
26642C623794J998875k372525k67248Q623K644373n35373H75490J075841E86340
26632g09117A1110M23881J603229j2167n54171a017653m844676m24473h88843
26622F65472k22598i28950K58431C98678d22838k136729n00735J399847m39675
26613b100130b57221q86048n81169A896454J064838m56200R16990j235730J825763
26604D012115J372288k022055M277556M226870K75144q39469l453257m55180J615655
26595I009667l43205l179999A573154b384145n544082m778886J355286e281085
26586b648453C703138A850397h90951A307324J409463k23628a143789n149392
26578f293181k869918l24869K016752J732448b654499B07311c02366r95739k944677
26569d242782j586519b048697C42296J476212n29130m94715M30063b073535q41684
26560b915219A468773k44518M0083N16809L83996n99564a217001k648026o79556
26551d544583J826799Q66238g03655D977810K81079k386519q10515k94363J56754
26542A924246c24625A137815L264711j18193j160234N59209n23192Q62315G38428
26532A83026M20645k5820N48099K142726K833513J644067C231414F14030Q76985
26523A491015b48625L7386B580126m40153n89456r3400j65335K900427P96992
26514D989201B234095r17640K916398P83592C56031b559443j212541j92878D16822
26504C242927k64941B34807b026162j010141J326230K6205J64028c90672i8872
26494A30285J530175f58552a62412B733470L634920P79151l362764E89208f87734
26484D059034j493333J338711m08105A117932k95475a882435k291909R37557A036085
26474C145463I80928b876918j361057k122624K03128J486264K142447l5831g90695
26464A729042J231034C68587a225420j821450J050750Q48019j269930m407476
26456f825507J045648g68758L5649m424524p85504b281585N4579G29099K877334
26447C606433j593209J08297Q80284A157962n73030J232631E82957K022671j165403
26438A440225R99904a49496l251587k387150p88308O17310j849883J182872K002946
26429d623296O07385j074964J648240D20041J614123J317029K145926D77112d920427
26419d549641a310022j171709a031363F43035b487189k854394P45877O58536J608626
26410b328544J70386f25911B367098L215666k736406a115485k892387o17772j067900
26401e693544j239656J089982K690280A141007J335312M45517p32562N18111k12950
26392B494435J659981l47691A211760J702332K595472R19707N80291r58722R44453
26383F995293J199665k130370k052723D74346a085288J98701H14502M173693M589281
26374I577476K688300k595602n91132J51668l853439j088122L31337R4380J874632
26365F589498J38489l115831A284827O76841L294414P24328n85154j07642Q8649
26356E376263A892246K35948n31564e63287j92959j081858k12818n38219N25397
26347b063744G19986i55157j026925Q30671G39587K81039b965443o9889o50592
26338c685924L12660J116623A42171a191187L51315A714227J18931a81996k9165
26329b11161C59921b111926A452744N65660K014494A444413c604199J278190A43528
26319a318628J73995L52573A810824l56723o13951J383466K65739J330568M464349
26310H284272J336387C708654A587026K510496j269269b299315j411482j865107
26302e575904N05268J020151L08305P80839O1368j057433m51757h73035D11074
26292b625790j053824r61631J475439D6182L534486J172890P7401A074126f09585
26282d13845j413211c53497B164558f46517l315931n33486j874481K683075d46641
26272a56200A682712J01383H10685b05535A868573n88334b273735A91884M380357
26263D572241k003044a108612k363605m49569k155745r23594b367290B555800
26254C910424j597705a78075A20171L01752c579051l768476j57643l12511j042828
26245h860509j240427R38169L267805Q67717Q83639P00271j435146j499520b649445
26235g53739k73260M17312B03869a800378k542379l461820j061036L420983d09396
26225B213033K17491A081524K730702L009562B465701a747616k880834j963785
26217f592235j979754m09673c819570B15826a382818r69826P53142e79745j947433
26208b527178l71026D40624N84942d135311L68843i50325A15226a875963q12703
26199b688666Q04517a39304D94425c461756J28064a351475A310920m40863b037442
26189a435238D00600O68250a562196f42399q1968m15875n25710P24217l97345
26180a339080j263142d41355d7382A313231Q61590e64814l154393a623382q2866
26171a706248g73959B572098J072412C19197M82706b62064k892976j493795K206631
26162b442204c32138A484616J932507L77991H28136J200824F77266K70742M84648
26153A432656Q33950J713667A778300B85875J632481E86344e093851k541519j46630
26144g782000a949344A105541R27155k74518n87952c7910l14486E08905J689617
26135B198522J523927o17729b176777K55066B830272I31237A5506K962571K891816
26126E869893J348748C192267b879705p81166R71331a264501K58062B51119c057781
26116c477173P23865h67330q09011j061946A62600K63800O83463M247198K139974
26107G497035C630567a168122l366188b020693b34991k38744B794030M050828
26099F844858j061998k030895P85395p53181F49844b345507O7602j028630k811950
26090f118485K178934J932043D31087j70629a492740j363669k6098a394206A040190
26080H01288A31451J077547J380744L32662j58161B51249a246772k767729J647814
26071b366687r94654p79880J662331d40527J42957r93821A319206J286162D67744
26061F20744A17733J264127a53531n14470A518894f77526k484277a113433B896184
26051C295253c101656l222422b925046L95145P39620A95793b301561m871729j440102
26042h613392L134452a136858A925870e08472k849048L54851J274130A266020
26033A607850j17073b088668J72984l254956k83418K327640J175045G65487K028494
26024B793981L9154Q95365J414526K56124k440948J056209N41956K156191k001076
26015D711482A645589J917942K484860A631142b297488n00401l44520n12321k287612
26006e942342j788560J478432J293097M04564b083492B005634J300443m45299
25998B860778a22572k082219M74179O89479j753031e00388D017402j493363A729
25988A023124j63160N34020J131142E88996a458397G00983R02958J726984A284144
25978a580744k572232b057193B700633Q40448q48371G85509a299238f00121A77991
25968a127140A643196J264700Q33717j986a1444I67866M902776J463963k942054
25959D392551l83953j009120F70715c708685j923836K328585A203752J314110
25951B517862l82008F66337J107309K618331O90169k20134B334140g98464B57176
25941A134801a973634r2913O5005j831969Q10026r9554l470086j08261J380009
25932e321377K010737g25268D93176I2721J700375o93738D62639P23302D50152
25922G29171L131142L446065K30271j769218j473236n17977A602557f00656I14055
25912A432861L12083p9633G37927f83609l064451r42846a792814f89404B80456
25902A317849j83298a039430H75564L63864O5346Q06793M70268L015138L650255
25893I247228j956242k788772j502671l82924N29949K70814o95252k87538C86825
25883B14943a59134A151137R23436J023866o13498f4079B164410J296581L1026
25874C492017j180977f98424j530472j406856j096624J569077b57464C358150
25865C640366p38233c22440k88473J86407F5533b273342j607583k309269m60845
25856f651039K581723o70929n002420n410460L161873e713106J819556j9100a514839
25846c94328p81607k209006p83489K97164J803584I85747P11823o22021a40456
25836A231978K282488m79372j319966A60657J913707m97279a817783P91541n48297
25827a574539l485291J545389J108578k294006L3149J193593p60964O4677J53213
25818d016201j011727O24546B18328L247077J84647a99805k148407L5954J2073
25809b300185Q95391f89109J54693l74224p103079q08856b540521H54808l18699
25800E36109P23167J499205Q14387M74056M19801j116849j77178E64631K39630
25791H04261L581794K095335k723998j12773o23012b620867J17820J049529j795341
25782c248859r19111j060935J846619J354789k917975l5067o8716J08432K267963
25773b672860G50655J124740L152449j417578g26702r16476e6585j266860n23211
25764a846656B837746P90158A082090b109757C25625K52721M36457J413739a511325
25754c71608E19017a430571l363261J12722k6995l275898J507129b035345Q94145
25745a141200B429409M196763r40101k268145A682733b63578D46055b40173k927634
25736c167807a223874A622765E33707K777841L324071A773343a14796k53835k614003
25727b982634L97491r31052J050520m98252m014299O47935Q10137J708173f40239
25717C598199A753950c89628l81858A348207R34590d87743j573198k529278O85289
25708c904930j31652N22635J58709J44492q0362j589559a003384G34472i11246
25698a186876j382732K59598n60221k544173n45291o4649l570652l105750p765
25689a2708511K457083K647845O58251L011962a383730k811424L83003a757245
25680b251082n42482d78342F24071k24823L54483J215876c18591A099290L182540
25671D281830l14112J22464A570783b565370m798629Q63700i76456B492269Q12495
25662C304764j44812J28194I41919b222022O26978H42509b294117l256479b489570
25652A340764L3721K139688R92605N21891j163081j907567R73979R60917j598158
25643B294759g01969m908517L79517a460640G89528J89591M020171j27358n80696
25634D291236J86490A912761b758879j520233K71494J053265L96179H03509a655595
25624b169110n08134m464637K952018J781078b32896A322440P31195C89546i95159
25614E47460R21723J00246D65827a11478C10561D3253a290281m25450L46106I12588
25603A495924G24652Q50535l00132r0777J196044j051146r3197J538901a0160
25593g020674J404594e16353C536819j079848A016065a498042k016561A474210
25584A550049m67758O27845c35471l340312k442593n07426a811339I78851h37081
25574a207382c74938B71417L84362k28388B08476a153456j315501C90081K150574
25565B540655A223563a682252D73274A66c34958A18745a608162a04367C220244
25555F853952j69436J077527l026010q04201j372748H69700R87940J255720K03787
25546C317147L9100j281908h6415l787803j021953a020147A076017a980400j861575
25537c841975k148396K99285J564535R548L94483a066371D34226b395497a180118
25527I43101J22010J827692L474905A214603f66872K1831k762423M73127R86553
25518a947784E0234a916243m691256n26830c308703a606204A832187K508098J020347
25509E360632j969048a423558j600161l76529j047256J547722i03756A75590M299360
25500D474950L242551M2867l035255J77343K084325B853553L96695J475371q50941
25491C874678F47062f5456B111268Q00350k26305A278036l90254J078988G32402
25481A160544K054943J020732J343051K11264k157216m5541m04973a556358d51594
25471F24083c778571k526731O18844K107316O08109a292598b85183o68493n108891
25462f062567k240052L363531A798665N81398C13003J728397J301812Q14086l99025
25453C758273A123669i9601j539129j110359h98868F54628a173253c142j918323
25444a921465l988961K744660a440295k56722k560121J670461B402350J844724
25436D247074J273161o69395P60708K156217j602101n03659k562585E15815i81105
25426a134747C896791j559041a999309C53225J402037A60671a115570j668838
25418b784408j304052j474819K454157C8925J352548L16683J278796A277076E41471
25408C128921l89581J015218Q92006J81279A646176e49861I93850L33319J895674
25399C222843a703360j270181J308128N90460J08781A270353O88536a237501j902201
25390c139702k638385k36866j470992r61178L70670L344266E26370K816532A274717
25380C33383K255541A230471C40627P00391L577787K978675p35518k978393l73572
25371C509997M080555q21217a156483j897220j469730O15087c08800k346705j577676
25362d233181M95628j062677a127418A165912b513672l34986l315307b872898
25353A98971b310965k590437Q20773a062906A69864b128652K541a58335C799875
25343A322923a104296p90128A066550J555086j021966a011517n506105k960945
25335i478567K381966a136047B344868E02938O19613M55759h03050n21387E47909
25325a661299j833836P03259P26367l79574j24465J2186G229J375013a383884
25315c393297o4799g93940D3283J936932J007363J535049L99034j367751n84337
25306B969573K644380J068805j80495L92350J523394k360630k838288b465059
25297g741612p12431L633775N96180J921253p31611a11435A250551h84153J72500
25288g11653j84055m78457j309750N1755m62591j324501J210379h57365j80395
25279a037760k064326j757951p891J547893J271732K67290m4602l30195J071923
25270a083887B332169Q94683j072894r04206b738780n817405J419590K715563
25262d421032H14488k41338A04657J463829o35647C42697J477041a795121k521632
25253d316753N98803e0273D72321J41307a518392n539391n54656L797845C56119
25243a938754k020945j79381N56769J0658J670167N48451a53003c0281C374347
25233F196494j437963o24366j596010Q65864Q33949L499107l506795A369838F69847
25223D06228a912504k411296j84092R47966k77151j94656D18683K327317p86401
25214A959599c86664r80285J23069A358907J696106j419130n79783a067529C81395
25204A202399L411062m65869j095402j230936J680006J99580O56456A955004D73323
25194i9309B97048L772854K211775B191398c01792j633j596287A206130K727625
25185C933755j767206a75962C0351h37241J97509k15444j827443m29787J334990
25176a777416j083334a178207A521954N79675F78542c16838A768892K752536l51955
25167D169473o35232f0386m036947n53932a806000D66667K165765J336818J380436
25158E349686A992978e469272q30410b899537G14411J95122q8119J82635K946809
25149C950858J487420B271659F17110J331184K535410J224534j580654J03577
25141D231161r46546J564891J943685Q64045J319390O40861J787693k523668m051127
25132D830385j968638K348543J129877j346924B214605p82103f87388j297989
25124a985377G29021N87599E41591b50095n74064K93697H51890a73698k873713
25115c047411b80584j924359j872281l44732N72029J313727L7630A217162J690240
25106B907402a08024D40877L217815M73665A351255k47197r3493b894965n43892
25097c438857M07823E71616M157379A580026c290118R84928B249426K791594O62319
25088E703339A265181d980130M94675a942997j003438j523127m8566J404021J406124
25079a707983c05394B665858l36419a74949a8047B988946K011626J867606K52568
25070G120746k914625n46661A653849M45762o12817C00736J552071o34888A20608
25060G55431k02943b066245R47111D44077b857357l33744a58846d2711k00262
25051b42973H75933J336054c5649j636187j051068B707581R67748D90434K439117
25042B929551J399120j609925J387062Q04946M98916O41048K813262k423619B595603
25032C179646c49149m939547a945201d03756q49123j190869I32291J893924A2770
25022a071167A085889a450485j86899k51755l717856j536783j617525c990770
25013a81955G17653J176426p08361Q59078J225512A151135O4011D8342c034238
25003b499770f94846A312819K362956j577155b66997C81699b841298o34805J399528
24994b076575A80377K288454g79660D9473J14787e98790j701836i09456E93624
24984C827595L764420l376789a973263j827103A494015L744122k483202A049756
24975e393162j259228b241100D028397J532925A513638L61001j83431f59661j900479
24966b560140D7263J166636d819558k326091L1581K780455B30240K495177J397288
24957D122705j504839H38168i60888A245484f20464k047211N47543a77493j249964
24948a427457a62808B177675a190964j383809n18775i89528M64395A230877K229353
24939C460230J047852k01265B02518b06267I43792a777853k80524O0512g16737
24929b133124j227560Q02829h67414A743681M015995L989203j85202j327163A689238
24919d496162j909696M98064J327863K073385J069848O0012K67822k49411j02326
24910a460601o30345q78476k503244p28355b251203H06564l1177M1130C41714
24900a733968A887714K134023j572418n04743L279231j83659k163781j071035
24892A805332a25609A259710a223578i6649I73057b3765k83096B264071p91402
24883A472669a289376p35195C34175J865148l76033M53369G66057b61490j256905
24874a518395A935346K46229A38052J320290J721728j254148a965679L090g15029
24864A466101L1906F37106g80908l216743f8770A335224I8482a366837J61454
24855a205383c09298D65953Q64622J205654q90918a30967A300388N17978a320028
24845E30976a1127j377484l638032J605061a213982b5495E374467L038584k491566
24836E921485j57793Q2639k576822j136211m53699K731488J112070k000019j186171
24827B336967Q54086c837037k884704b593891n12318k938000m98086P08240j025685
24818f859740c375312F88959R02882F03041a544195k816840K74100j89059Q63204
24809c412790A26763K181658J42701O36631A114797b496106k547345j957440R27427
24800f073464a873934b10332j369926j571169q71555k915837Q93988K67141Q62925
24791d914765a38606I77308b80498A686095J179572a283187l612967R53551A267292
24781F132473q99556A405140b465455J088876A380258a03257k43103j380204p91880
24772b518444J82361b82993m17949A27468b12467Q7689j025481k372126j126801
24763d649186R05492a453033n41780c83391j233507j015212p89696d58514D689468
24753E032355k466418j18753r22073g68588b13689q15713k097041k022730J061279
24744d087894K96997M70111O95695D98974M196145J763696A469424b645032r45731
24735c590763L99099a19178F239137K186029C823373q48818C56192d146734l544926
24726g691660K28072Q04402Q85396a549066J31257k57914r05975h31848B171715
24716E764760m54336j850993K575238k117548a118435N26894J74393m622598m753405
24707i793151K85629J322725N19342c785992J680116j930897J090943O57277B53182
24697c917321J910311D686801J056657Q80385J302104l399203e21608l416283
24689c937891a887373Q72624j157084R81220C217745q3085o80394J415753P97455
24680D667474O29781k306430j030333d51720j653724d71699A280172M63150J116163
24671B859485m57957g65802d8402A504407k99524j29755J72442J365752j295893
24662A317429J019596L417828j808404d21284j292786E92816a986317l991124
24654e977441j847851J338016O20290K266653a190227G0145J139293J847316N44434
24645C601188K25738l15610l12017j242198C94276J41433B30604J979155L581548
24636E791307q65583n87479A302841b264480k020221a257671A068714j19019b057785
24626c851569a313463e95349j819784k413651a734025D038358j89045A507765
24617b3860k515724O31597A932021H57668n3134J415353p57459N7103C77726P51214
24607A128940J625990L038929k505784e52038A175756K54943F98509Q39661g13471
24597d8751C543796P14038N01880o2133a283945k434789l74836j304113J971991
24588c425692k013454k2855a511923B519583J158326K500059K364757O69545q32787
24579H379483k516965j258099P95761k239061c90913B136612K437880k23623B165106
24569A231424L157486A952276c672655j546008n29323j77876Q82771R41932r80609
24560e081768j694542j97974c305368a133474D46839f99214A466496K083734j48703
24551C401527I95847B76223b713997j617353a973630e21759B483502L546544J970874
24542H000920A925057C92813L759716n8757c21573j189737b20649l097811A53113
24532C140587A163011R91994K456086J689903q03616B568465e58848M3467I21597
24522a473046l178660P68546j653126P28470O21527J878901P70214k27725F13925
24512B293606J118431G57072e70483J0007B25913P67365J354878K8173G30011
24502I37788K018238K517741j954700c95253r35835l570109k251132R91484J239647
24493d921198j181702o48680R33992b208610d18511A39171K101753A49366c354335
24483b734250j67894m321415n656265L1100K624058J258247d343314K094077D33942
24473B291735b682492k925113Q5218J973628M89911o3981o31365a230379c5416
24463b19321I73444e67771j942755R68027k203446j937100J612487A9246K385378
24454B404624j75794I82253R57962R97045F65978O02452f84777l817481j084140
24445e586398L9493J378384q28161Q93372o22208L65663I6658a549576l051295
24436d600871a769916A737944K32936K539666J321337A302183f4844H5031b36835
24426B093140b43927k661734K08327j864764n48464J300565h45383A585390n22766
24417A062624b312922a031142A785362F47620b173660k202095J323143C299224
24408H849043m228971a248681N1829G57748a135105o32031j094798K75685d41609
24398b332157j866023Q81860K39232j556757Q41982O31311n729355M16987a752496
24388B153042q99473K206559j033992c670049n287784L630818a322843j621481
24380b944324j691119J57549i85217D12025e53910F45639c763567j463373c27500
24370B768937L18479A434997l11427K007472J576834m42186f81794m116865J733731
24361c064928c82935A360968k24588a61730m860525j345395J329856j631573K513797
24352d155570J422751A08937L839599K053911J27533L44734k600601K11887K241610
24343F327610C159549h18824k748838k910631M41174K019383Q65007K82176j691679
24334d562232q76740M91078k752115N95623k947510J008907K88277L48569K174842
24325f231301b980285b39552j156602k340688k149138K25391J15118g78025A838479
24315a073297l046370n77607a372827N67800l11942j67948l66500k27007h31440
24305i3020A756143N96577l35372a238351j802191h04772j749451k248172K179922
24296b622473F84251a189723l185898J460674j35114J102273J83495Q77638m9375
24287i36030K85405G70951J40739f98475l815021J090784d61755B940330K025483
24278D965813A628279a253506j194826R79307A353518J023986J378187P30360
24270D486051q76503J723442P15478r2909A526152b916279l92787O19339A11110
24260b286481B14421P73501a521107k897210j119046J349529g84442G41755B61944
24250B152973J695247l39278h1061p1410j186076j61237B271411J991128E00388
24240b075778i32611h7289A021045a76329A796137K646311j069305b5277A571143
24230A924362E31800o7135K274635L043200J554475k885025C77887a031335A79030
24220a976285j911445m43540l1059l390855l729484M503330b934303G92853O37266
24211A430119k29266J256992B84828a213030m055666j136620A47400K945796j507607
24202A585589m02809b14059m16935H62127J682715r09357K336247L89431D56593
24192b236498q18780k48045J413011E151775N45901E78318e340076p62940K974929
24183c128087J225560A752999K858842N27418J07804B244065a575996j304696
24175b880692j75357J48221j665609a854686C093518R11826A824465o14734N496482
24166F706213J351144k476355B580314N11269c9437j912583O93010B53268a12746
24156A001760L582865J721719l04395A937124b178850e29151n66277b63596B653153
24146B66726c183224Q69662g80827A389165J388791h97074m264155l841994j026514
24137a0029737M711647B38899N57515J077190J649553m35220B57534a149064j334400
24128b483464i3479j473539l902027h90232D94275a032908a49176q74648r9484
24119a123308o38323H09718K95900g16678r31695b64363E51864a348570l668480
24110e017050j210548K783630F30214E0169a686755j918122J302799A300906j46541
24101A154365a977739j824077k938939b819447B140008J846741j544776b153451
24092c059614l8906j686535j592318J000566b140800j539421m86108R33039d49887
24082H42445a90117q62130A884109J411512Q5384c84834J77735B071402a294437
24072b363710B15056L790510p70618P90274J212414j412278A551437L611482K515629
24063G678548C708099A399259a059793E71097L147910j099793J772207j949864
24055B441557j125976D41325c64971n89427j449946B19627I6108a702136j481125
24046c183261P34855i19197q62047l572374K439988D9715N2678c702982k460981
24037f163963b545635C73880j22143L033712p23231j130445k01365g36187j617062
24028b353249j121097k350818j503495J603665a445415E664210J891648j274567
24020F281291C055450d63197d7283D145624J510155A735518c444769j508505J678644
24011c274630K74917l210942K22975K030763J182887P90078E30378N656240O61197
24002F847815m35645j234434j153344j267643F34487b5626B728950o44715R64635
23993C048870M830279J023119k28612k66756R59794k146309j581635J069028C051083
23983H88450C4061J116536R14766r73163e91472j096476N03405N32442j527053
23974b179154N81587D5658J935686O41250Q24224j148775H86910r0667K310385
23965C106628L199103j576429A686162k41310f0810o76936E10007a52854r61322
23956a114176j22497b82513l10586k217883j958943Q72429J328568Q18029j289744
23947c040643j857836a510336k14161R4753C190298J360283J19771J267195n47682
23938E389865m87246J249151p49750B362375n56688F70740i2780A591176C31786
23928a105696A824569L543250K79937j264026e56053j663082A222649R54894B13581
23918C47421c364034o75608a483874k040382j970543j008838J799546O78737a297910
23908A023680e62542j440033g12100A686706J971886M96434A574786b345191E98590
23898A074185d66764E74515c78223D25531b960947J101418o4918h62488B851392
23888c01539l064696R09349J125685m06151F86519L728232j456372q73228J706845
23879C791996j052324c84007R0634A18004b201489J79362O02389j380260j373630
23870d173628k336277K415165g52116m51236c83800E0737a188997j174053L05031
23861b058019K46979A111152b209455l79109a132542K82743j801009l938804K465435
23852d124177J169316k903081J065519a664425J31537C85034J571991c24697j689973
23843b014670k482017m15696j301487N50927a525295K28444a92175E12568k5629
23834D86939P37429J670095J674376J11519j038669i81145R6214A427709K45887
23825A673596n94473G3253b105458l882525L54727b256714j632549k797037K10727
23816f475573K983847R20988j245116j610650j266435J605534J840275a032982
23807D46302a864280j033314d97744j14677l894809j465845K088870J524098J59236
23798b200871e7897A399366o33242K937873j12599K613773R51195A226242C19698
23788a033159k369556j199739J3494m45856k358064J18773J123085K37582n77828
23779f491268N56392M06309J268772m17700J306571H71896K540310k89398m59043
23770B663765A331839a998910h38775B437491I02111g25062E60931J010249k6510
23761A544670J026845L106566r4868k594632p70323K767559N1863H01460c399865
23751c069305K26376k137216p6863h89512C47534K253373J144892J877675k474323
23742C149151b428544j897170o64401J020785J641163C81442K522494K080897
23734D984833G64546b310893j058112M34422P27625f04553j707994l121740j54723
23725e589010J722149a562515A678694L970870O87271j521753j558400b73734
23716A083567K672558A542093h10567l547163J447574J112544e83362B814611
23707E999718o72129A766133c084249b68389E12820d80961j83247F81779J831193
23698B512972G72474R94069K612786J566752q11003j512491L33526A909695D28873
23688C361550K39922m30668A500994o87033J184469J537174J619134j773069E89665
23678b178050j604565J675667h16885K27176A11353J257731K16872c79969j379894
23669a759863e03264F68448K813640j255636a968265Q41945L51049A14619e8740
23659a809832j196491a359714d1330l047828a377719B181510a281260j70355R4457
23650a357158f64276J55676B19380i18761J11108A122917K038161L780457B582870
23640c300992J578282A037120i17644A554979K714436j24495J604772j982536
23632C767156A539543J377137m98911b35546k921928k232580K32535a165081C662113
23622A49220b266513C38041L789817j324326h78351M18049B190620K445280d7915
23612b657416a088411I00106a80373l552353p13914p35030J259633a360533A99684
23602C692051K23592j952378G31937g54544j075261J27385j2385E05086J232469
23593A737555J864927j372565J384202p01854b117007L18792A318786O23447K886885
23584D829118M697644j277752l909630a228893l953950P78016N21267q46866p51779
23575e482205R3230i80869A938502C38729a220821d52935C057833H74135a989295
23565b781108F06935J791117j52782L42605l53136F19147a586555K59671G12351
23555A376561J280306A137123d187037k996940J009176b703052p69244j139509
23547d611805J424684B11379d99663k287027a324606k224114m55152L35674L53902
23538c314296j509605o88597K275241G02669J009114K64272J925457q92484F89936
23528H36184J152796J138481N19126K914748N39189k863991A613161c214593l835753
23519g050346K756001Q20761o1412J083662r4586j684087a799627l80817o44910
23510b825354J021359B198255L111985J214611m47763A565755j24828k87298J481445
23501B635074L435234k61542R4713j456678P26475J850153r8589C140383O90970
23492C831353K48899j195617q36715J764112J860992j36252I30252c639118a620125
23482a304239J91545C32004a899746Q30241F36395J281262k9930O2306E9659a918395
23471b599376j870674J89338i11563M08960j680608P24478k752251J459470a16323
23461a504342l739198a477267H88968a72512C63326b11383k098215j374208k220968
23452e904774k083613J676394b886184L35743N77486G77067O081848j017578k275026
23443C566311K36383j729594L107363K170592k63547l353883A071800b83428k888898
23434c172326J61232e50840G07525J15907P78653F76971J99114c70235A920994
23424C680087r0278J980310j355473i07723a92536A312129Q36605G25880c993239
23414e753087j89764K822588P89053j271942m73889k050322q10507K2667a284973
23404D130735K783157J359429k609013A080115b539189m94091a101359N01732
23396e99627C32886N161607L789722k800744C181451d634356o91506L30939K449037
23387b545886M33353J033846K36981k082036m46950G70689a649262O09897A49393
23377D81663P73817J483625E1504i6272M3050n17011k2273m61340A842413j5521
23367A826892a975638K01188f18369K86742A445049L09225a68112m185643o59524
23358e013279m01833p61827J630972K31773O44193h73653G43968K400892l1353
23349C113507j149920O50147A022505b204317M1527c65980j304369L84351F98447
23339A407843b067989j217368k025966j158056K677426f25619J73912C361008
23330D910162k408641g98400o79094A223979J169698g2244k545467L9057k630489
23321e209143l260047N84393J803069K952911p32583J315676k312129o05912j685619
23312g149384J035324b507228R6293M14014F99840a080138p60145j140879k480718
23303e461880b293857A347129L734577j82751k262032o75576m84980R54589L266649
23294E697605q15236n45305p4566J162633L95614n66239k282884J555512J080156
23285E607290j531639I03425g57443D029820K246514M18593L57086l250272F63397
23275e960689j971375k16157k486263M208729b917319k202466j749880M86465
23267f383200J177391p74362K100140A197332n12582J52728J464186N2755Q95968
23258C250387a880895l322161M65041K046195J46318R32551g41772n308428j031582
23249g081782L384969i88726o23570k955977R64693R52695j80292J084297A108592
23239A531951B70621N62902B95576J1484J725578B23430e054818j133360Q2003
23230f106175J929326O40470j233716n63605j020783J223787A754191L055484
23222D809675q38258O90300k293875c179312b82278B484670L181193Q25620o85936
23213E805547k614223j099451K629708M30267C59680J810931p83691d027663a736797
23203A65457J790473C39481a283412l058496Q84838E5155L455567P23646j201351
23194C033017K414206q34932A973452r80778D24122b397385k079888J636992e65575
23184I05404D35354r2943K319447l66829E96381g38395o5678G71073K45429b499025
23173b724891h51421C975342K419618P22638k694935l2192H48437b561929G67318
23163B972720M72395J473960P33458k493074j451678g86648m390720r6776j81989
23154e456133k395259b424895N36892N65409C542793J951163J041464j165592
23146E369828A753241F69286K57344c57016P1479A924001n42309j03331J311535
23137B589896A021870L6485Q02581K067339n8331A635699p09945J96676P99970
23128A922400K639075B088156a266927q00927l873938L11890a626779f84066M7185
23119f36881q5847j84564k80791l33319N16619A408544o18916c59610m866100
23110e225710l575145L324387a479169B40548J445227J908738r2216e72623B357661
23100B577259i22051k153611e885A496755b029140k268206L41004J890691J61767
23091a903884j86923b25030A292648J682356o8439O40665A350447P80053k98128
23082A832372J404912c48668k988501j497882K113622C02560M37736K66304B70053
23072a12561r50787A899074L483148j251419i90347j606172j707509J190709J524433
23063a588886d35779I04317e16142J1936l793621n04503K049834J162666A132665
23053C222766P96999P47065k82388j392049a20802k318907o68294i82293A181986
23043a071210r79504G83754J184262n43519Q94301G92700P62467D50962f77987
23033d98470A836165O93109n29476k41709Q29025P39174a107993j392290j790166
23024d290449a950262B194079J811552G28176a637153e45020K71388D01662P11303
23015A112965R54651l08803k90399K593593R07231d88606l572183J158815A949804
23005A743457J476524K271494j953554j059412K12275A191850n47306K181113
22997B825657J045220o56189F79311f35201k474837l890266J4117K8162R46664
22988f011361J782997J467727a52037A565049o28460J452560L217170j671278
22980C935041e3888C8906J791905c43712k17136A608465K801267j23940j161242
22971C124550K637866L945989K381528K311514l143000D512265j622512Q7801
22963B977554j58294j168963b268987j725696p79244a320974C35196a232907j877306
22954c110213p882A392581L073581q43733E19117f50774k087632j760904A107757
22944a137429j134541l6166n80543N37082P13512H77649f5161A243216J39711
22935A382927C43696L69473a539739k589853K008892E64946K956709J278329K36730
22926E036714j651441j185669N55176Q05158k17891j212007J542694J472157L509874
22917H654765j985719j145824j600251g91590F63195J792752A011711l55938B74174
22907a241657n03457Q28254j497856j253958j475925J163001g07942F39215J875120
22898B514335K634679k4442B350667E32598O61370K959901r63675A180910C06239
22888h60762G84419a771780l202323b432875c602B92136c78022l564846K61357
22879c681511B405605L404799I13621f004205k064782J885064O36648k9354k028912
22870g605541J460821a201923A594502j77528n45674g82563k374737a111697p06845
22861a818542M87072d28637B99846M659233J54800k306059P48696j543080q69484
22852A143952b673121E09601l408e713960N24765b242594q15572j294634N87456
22843c765344a39502D642a892743j622703j31713J16862c02195i743l125686B13928
22832B501351A18062i39699F83404K250856b57930A670162J146137l72310q84605
22823A559384Q86984Q56638A421130h28513j37146L44325F8755K179420A094801
22813b481566j750625o50623J92366J691307j3622j547266L24526M23219M74690
22804c337594J098436j078121j192389J121953k452159j823213J462975b801982
22795B632363M255245j584311k291739J194974L24136B218773k84968q63628a12238
22785a004081p80060M25482A454492l31655a842500m39872J027592C048092A37595
22775e959059N38454J40596J472162b74472I78737g69534j245211n34492k62142
22766b811379O5880Q78874N52763k65007I29765K827654A334965a300677N08871
22757g91806j211081j557254J685255B262398j37218C38659K051707J900433P85692
22748E076491B129226c645309k110272K84125o59888j538064O99521o58513J506708
22739f121692J102629r25316L95784J52944a885031D7425J418282L417511n46837
22730D336381M95346N37079p94200A000164B49126q499J215375a317704L72726
22721i44978B298557M98177b625803o56640m03148o17370k91157j367853K944137
22712c017834A360866L338899A621971b663948J112808g74782B084793J343998
22704C428791j286373I40183i16587c06519C005780J077727K57546L08260C93056
22694E36400J667677a884432k076825A994300K292226q1469K48119J010704L21726
22685E785606k397894q11862P62968j381592R77839O01992L22940j681410n31169
22676A647418g15754k434482l42861j462207j22359m04093a877530D647528k48491
22667D399037l26373J730489j888699a791456p08572g36959B95034L018638R02295
22658D215967M41600k195218b633072o51536i01515B962445q8535a04354B106213
22648D328243o87051A251270e250027J85288r9306n84245b414406B162110P10678
22639B872788j256964h13253Q3806F13980a696939m687987K310672c58751B282200
22629B666524J4167J346490A942427K812260J8874C19974A20228J523078a902467
22619c750378k623615J492992h46710m71485k503935j153865J759180a386206
22610b739553l753855N47687k186833Q6132K682452a973971p88989k055984Q96279
22601c922665J798160C14957K35753J372520a339991o424366o33868K085729K151597
22592d160899a316478A024208K35859c94448j928371A55939J407376a606190j335415
22583b941605k954607j833114K428710K517248J89164K55143k0052P80979l51325
22574a929459j373668o65863a583711p60279k491996J879378M16150j821442K95189
22565d066711P59251j69034j113125k182579q42460L115483J993140A662824D39215
22555d947538l64228a97605C832645L369300j721680B114705O78251J006937K119089
22546E918982K768782l183967A228484e33647n46994A372576K42938a138791k6790
22537a165581j016019d19056C306955A559285c597509P07258a083572m15546B51166
22527F083044D71104c888174M60308a401199B285772I46572l35383Q13806a01409
22517f68513A882261J133169a188883L55518F9821M448795o54860J155421L311665
22508H330842l50471l89334j661304j821821j992443j020275N39741E62481b434395
22498c846716r89053r71795b533407A575893a391938j659973J07711k782894l274696
22489i001790J512318a484410A321959b507243k643605m07748K727211A6926d041135
22479c348107a514882l113035K93771J294598B823675L413977j15461k480465
22471C641726p46187A389364k59865L521316N088103L757967n05179j891498l285532
22462G814676k725307A632279b529480m73506R21843A96410J132288a322989N49924
22453g73065b98331j85239k166999a114684K03240F43892p4775c815275D68657
22443A616578a231379j368726c32651F24012N0119a577693p69165c49146D41729
22433B507428K485690j956483I12612K727776L407238k717792j741186k23945
22425B364703L14955E35322a288165B50931L274124J020154K04494J811764r47500
22416E613967k716165L449615L445110k206601l401033A692605G03745J161255
22408A865000p67344P84435n98961K270570j127661b811285m607052Q59341j330136
22399g889132k26506c685601L8619l259791k36495L256796a618169B106562K659697
22390D766259j247331k03453A321761O31216p29115M71184J956301o16987l71433
22381B662927r21641j19043c484602k826783c08518C972374K744826r09768j664186
22372D143246A063042b669791a228622l477422k513895J069626l33935b677520
22363G65778J231361k98503b49481l041737Q64214a192892j828966m149055m36829
22354g607742c765500Q56693L31019A147365R99688B39617c100769o8606a382117
22344b195112g39500C731280K834877p44191A948532l84244b22768A090291K253705
22335C343996j503117j16774J2850a28715C3662i77075j012433C94290b172293
22325e117270R49288P15694d29479m48683F06308C9114d95957j527401G0110O58801
22315G28911Q39827J15295b363809n90490L03441j875466k928214J970843a825394
22305D47017J625053G14796b425265j932380N77741r23877k044640J539010a720126
22295d664270m93256a685463o45026j50524N13455E23099a062603L88608j87829
22286h61824B0388d73156l196428J073860Q90827M30470J82170H97850N00598
22277A398448h22430H27967L012629J618852p20400J596813B096244d088793Q82027
22268c206766c68336L6951k254262k701021b117807E24424L360055K060183R20140
22259F864802K72923k543587q78118r92384K54451J472256A438666c290005K07461
22250c082544N00435n65904l9134k70100a590022B069586J795533j7922o89370
22241C157827a049147k241703O17845l121636k534430j045756K035906b769748
22232b568984j562811J929210P2703h49322a75450B930420r78849H5540b568789
22222a075341o8105k98219g20328A769588h85273j203074A9563K516921J021884
22213C558368g07164p22678l03384P78794F4229K73646k0499J083677H7529O06278
22203F93807f32210c04682J26619r63385p28164d9095j142680l264939n21933
22194d978647q32309j244835m93329l011044r76664L183512P57532J124533K771745
22185c699506J766442a82838A094510d28072B44060a27818G23759i52934j010745
22176a963679k63263R63706l168912b112789A98559J40755J42138b488282l018110
22167e506392b734119J349287D4438i66781j93588I03237M685203o61788A22367
22157c044051J368224j659481a263868B710029J149959A309455a904932R5702
22149a809230A234298J845007A416257B02511i45832A734390E92730a185152o96819
22140a881971K00857c22440o99283p70553k131332q49690J936391A107354J304109
22131B411463m08534n1736Q59110J166551o74762l9038j011775k62118l48716
22122A640445K770130L2H22607a165279L02777E98709B96150e42384H22474l38673
22112D83801e47145A560158i49234m235892J3323b369099j68991N48058J66677
22103a823355b68782C322511L91885J885026p72640o89282n22358K069620N51719
22094F236481k918142j225305P72849a011310q35930f77163r18714n88906H08716
22084D249509j03078K213114L499648l46490m695976f41357k136028k040490l80060
22075e197935E37085a57870j408799l85182A451337Q02102i71726K95816I37314
22065B753552O16607m12943b374001j435302D71077M42232P40859A30544b351491
22055c421733M13199c50558q45882G39863L262703J973703l39528B093180q13673
22046A279507F3528N33004P52583J204081o02013d93416c0430A614229J901442
22037C515671K576460L575760o02856k884252I97600a222703B48094J042072e02588
22027b882589J042453E19563K692359o07661m90591e66514A197540K689079E60362
22017b667379h30173p7379L88169B677592K275632q12968r44044j500158L051671
22008D747725j574210c698126J514950O89216k724121j248104J176478B456551
21999C731615A386376Q68830Q85578r6293a13768G29566a95000C3503Q94087m52608
21989D74982a640855F92322e29191l293406L56054l95271i1903B069741R79466
21980C049207j413274f60536K2727l15971b64047p86243h8096B719292H31465
21970a067533A32654J129702i62938k059313K53920a070103k565143N6F01551
21960B293389J965967R76430j68585j580817H81494a358063N70030F27844R16281
21951A544125h22426n98783H69758K468412o95553I61958L35170J296121A097536
21941f03027b24971A496245N02752l33725E31103a82636k453093j461416a819216
21931C27896a625501k621942m80627r5878a246449C320474j292960a09595j927016
21922b036611j221102k701990k819512r36776d483343g51685i5200E42504h18360
21912a801653l24225A825750l83945a405805j687033b56737C067860N98952D69010
21902D3802M9053L270206J883792p52264K68036A611956p04167a109417j001329
21893b110746F31244J316669a456555K70271l80388j039648O73909f58293H01166
21883C329715O74744k27912p09217J755665K867841j753641k575710n67224E15407
21873b490889M55649A263211L142879K76259o43327A112997a555571j068227A93301
21863a154742J50641B5908b254696g18749E2380c758804k200828P51449P69129
21854d439054j481093m518531N88009K398562J561758K108607J154117L94905
21846b232720Q66824K80216k410652l09608J059293j234285J381897g78451N1710
21837g26741r33514c14485I13979J577771K198492A550997K147020L649855m57069
21828F890803B897639a10921k291269c86836B995973j343562c83932r13979o71074
21819a968985f41218k67019m71999Q2538k031271J76468a410006e12993j460573
21810a973566o34991q22135o95105i54062I74175a419704m92392B68410K216302
21801B484712J574113K013857j071743m44700K10017n79696A692770e11069D7322
21791A726273J607677J315153m68522A502823b852971j97313R51636C31130L497666
21782C828796n40411G56590a695462k767802M58477P00192j852388j072601K970458
21773c259126a526809j447140q2683G85625N01857C49381b792053k639468a706408
21763C24658J95784L757579A430488c79925k500463l690462M32202J359847Q26577
21754c952224N81237J050779O25097m73937e60731K12841B290602K057693j395680
21745B952615a332243n110720j469451J723269J341261j313826p866J556782J243097
21736c369697p24502a378764C346303b06912m255529Q46174B98953K185727N89900
21727C074580G74346J220692L738232k328630q37504J037163p40262J000945I46324
21717F24659J205568J413183N16079m48583A611993J127619j13013c6430k188965
21708b225395g8047D195527L96635A612394B95407K84831K436127K989017k853446
21699C151936F409J97526a169879j350523a220298K29850g1653D815439J596520
21690F411959B471079G6482J935797K305454j347036l72258c15240l006405p54168
21681d075813K56026J765754F74516J587421a263303l005024J674440C70558L32707
21672G03265A72864i50423k157213L45450A367998J749321I18074a236875m58998
21663a695873g25703j154499k343731a736163g23218A496447K851763A339988
21654c83111p61868H2428J864794L11064B78196J128541K388833j696936K124971
21645D223605j204840p22823L84621A043717a451652j690248k170369j106689
21637f418958F32193K565605B36136k7093b267412j781169A14650N395366q36134
21628D673882R357M92325j176801G89115d80057D10996q2908b343417i38325A463119
21617f51951k192797N90919k213201j654242b522654J90322m307543Q11903J13512
21608e714460J377863a970264A078290K38619M85030O83485L716846K117628j878625
21599F441273m8732I17326e144476a842066C112296K337090j136620k028650e64132
21589a442115c48230A469829O53066I40582c761709j69183E70184a8287l974215
21580c992502a895623N56809A531739L055611n00663j852657J211240K186135
21572E631405J726020j817227A393325A42887b186606j014275q06624g95262B544067
21562A19431j3824O5720R90004m53297f28873k787529J57143a446110j461104
21553b907214J226524A79885a904160r97145L41865G49065J923632i40714k170068
21544c110782C1965K479338L16103j239954d421422J156483c01329p13024j396624
21535b410977j078055a480087D41990G31K707486Q68929j659783J689844k71827
21526C335380r16593K915883B511796a555438A364108O01987I67042L398165K873673
21517G238880K900422k854156C388363A178886a664274m31223O05528C473726
21508D606497J192029j279622C1537G415J759248F90702e93545B680678K203683
21499D884361N9630M8773j488685j491314L12932p64841J460884n33199k70091
21490B218450E30219d791677l900236J178512K062472O5197K492259g77123A593441
21480E191561k159323c684082k430090J337034E36111K727762H10392c674787
21471e003778a805554J5997c29658B428753J133451J702289B372085J54939K689597
21462E216621j17298A761407E46211A40610b049612A151304Q61603J443054R91411
21453D447372A551611i06500l178235m98116J746290c42219K7026k76944n82417
21444a174554K51343E298196N578398M92687l896644B470200J37449a368782k413024
21435c781806e63917n91057m181402p66437J721434K148525j834613k155976b374391
21425B315604K606803A740657r8091j39672D13163K114662a684199l11921A367795
21415C322325p51580A11442J995938M736892j482884D41783G6054K95216d260908
21405d658211J03797e42084k282889m69125e33067A225052J338100m08548E75383
21395b14626A976837O13717A30034b189523D59688J065072a8675k059340k58484
21386b336499N06588I21008L146100R50340M48469K233198O65786D147810j891615
21377B256195o36575B94416i38885Q8994B195612F13409a168414H653b031135
21367c788481d55987J344A516884G29230a292504j6886C547295o6942A94837k5238
21357A69599a880163j169429d43803K11324A15728e59606G68011J984350a235959
21347a427673D67499a903221j346862q63874a788864B10514g97373k772548j820997
21338e390918J463685E82054J186012O39278K823771j80586N94545M66294J31721
21329F243089j052301r2268Q03974j389428b785053l306106K622327d55889B684685
21319E783702j950026J654064K353161k513927j793352K276794k869291b144757
21310e63127k359351k307204J14944b009278C053416J161665B71834a420636H00150
21300d15894k0983A346726L025547L645702n58529k652538j920819K321544k072021
21291C135612a628432A327121o13808h68653M24059A917661r14140h379020j797034
21282a0176054d573045A127350K586911N53533j930448b25697B716286j000943
21274A715343a496098k775463j660322a907510I57647b590344r22439P41765j529832
21265d300850p57743p60929J679275a715107q65495L98461K5504j561750l840386
21256g558773K604222a694100A238909N53483C99966M10599h88392j690803H3361
21246B172966M02176M92048R56574L111449k879047A095496g12652b34292c0516
21236e99048j235380o66997j92933d80782G33272b356434M53765A384054J230926
21227B614980L578706j702059j498801J044136j304169j074091p0520a405479
21218g147581m460968P12964R25928L262045b640383b44683j525682k001625k25790
21209c997780N54412J523761R50105I36384M01865K52541D12738a788847j720431
21200c509278i81194B305008A31321K613097J869351L17269A871560a355703j183173
21191b538876f14599K03224J52144O5163E54868J466610H39991c17522j812405
21182b129927k94078i96257E24390J594442J311699R73609j418895j295294j01835
21173A588116J345695k83601q4967j85384j126897m22003C69928J893842J249470
21164C513240A152480G5348R48102J927443n12801G16816b502562j029122a549419
21154c202986F702N675083k583852k77672q74053C04511J75819K70426L148278
21145C899034R74574a524752m470716J027381J260509a526612c14475p85711m47617
21136a547803Q5049P25503j707906j988802M816r71273K412340B252916M040044
21127F292960K340007l435996J257697K629502j13477j302868B435864a955656
21118a540571j095924F68225i49740d7557B274570Q772L250196K376931q50786
21109G059683B341795f07227r78655B312554J954940k64345B77265a374230l445061
21100d819291N81927j38459a554314C35474h05138F24972K177383J149792k32291
21091C719856r50207E61499h44415C91335k2727g41145C202064M52229j106493
21082B547800D32149A18290a120326j129640B190014J820762M65637P7315A962239
21072e3441l139135J9121J339686l18427i71631L26648H39011M355878I76759
21062d151703F64176e11732m664038r39113J0774a535739B192512m60064b399561
21052c031645i60372J66157F81950f28844n60151j484624J219239A084802i50759
21042c155330l327073J053692K257049i09515A682292N768158K890189B265139
21033b930731L77117G78977L415118L423979J474025D197679C74523a094488Q8834
21024a005654A537339K960058d41530m859829R86464b17867B193710p2751i90607
21014a807425M20845G78207M23488M780341n89378B218166j005705J88391K389033
21005C789885R98850K250764j268151B075576K316789J394634k568690j392836
20997A825473Q39886K295709j261571H41888L269733M020753k676496B259881
20988G65478b355725R90587B143289L434199j870363b436738l971896a579966
20979A759445F75229L453446R85540n22768A864259c48569j942899p77158K01831
20970b866795j212658a008299B578626N553208K157307l923439k908836r45323
20962B511543C30918i61046C70813h06143c53431n49271k443489q06192j496091
20953e648474K714133A180655L603747J212793r48503J004614J240293J857993
20945I151592k833438r28800j071756B45208e63665n39266p19877I81653c96269
20935d359454o76130a032192B490950M40371H72582b306347j279213a282109E99294
20925A33431J215603o63810b850316n33826a596586A93980a507708j362544i48510
20915b925951k189897a52437A036199g11349D11279F2930a087269c09149m63164
20906g72313j184813k116860j642392a590148E86791a932800P04255C060418o21221
20897B439197q18831F96696J823725A116461E38870J01398c91622l311395m369852
20888h072869m32369M176008K091042k95629i85772k208067m046953K356862O54139
20879d229791Q6424b02676m13513n14434k137024k361821j995044J52576c713044
20869b805442q47955k337590j286616J869346a783181k204404J579974B773755
20860C418540A09093a246838p80564m22140k119904J790236a040576q35372j332725
20851c208673a303467j547271j192247a02444D198210q60743r00799j99979r79990
20842A256699A84882K10237L85456i83097H55429J588411n75848i13231j580371
20833b493602j316537d21545B742357J75134m18655o59824a263050K71974D32315
20823D687338O174444J303182k674927C221643l43191G76043c123504a329639
20814A583046o19416M522488J689834k685533k086748l03866L446711Q01509N80319
20805F928344r17574k440733A058253R32130C46102J871091n89377b122318o8219
20796b190537j430517k38385h90046F76702K115628f9124l656947o7842J409879
20787b384034i17368A827753B02422J955463K635665n7823A490065d662909b197729
20777a029451A600310P9254L74822O81748L25422D92593b965505p09416J345858
20768b329063j97362k521302j323122m13346J752510B490869J703395j358262
20760B836002k49317J675688k010107g26277n55792b58628D887495J045522A091198
20750c221841i25706A729840c41308o833855m228868M614942L356867g77810B072547
20740D328764j187480K84658r93869A111599K049774L059567k293785A97162a959305
20730a055295l38205n10924j531459j833409J692518A015902J491403J144140
20722C651445J531089o18800b243721n645089J044125K667729J423684k728286
20714e481558R17567B845323O93065A445825g16609b05862B556165n58570p84455
20705A213140K170169J505335o89020J48322J884965k81361A142458A37226a027848
20695b073521h14304I46096J403053q80539O51163K317196j40181J445845l45576
20686E397057Q93064l93008B244770c573617l861794K41767m22747b846341C628484
20676E697909r49824q00360Q48941M41986j264039F24115b11922D11323K444805
20667B856128j275496C50671R8676M011309K455075j720824J167724n13385B790219
20657D44868M19899C51918b09009r9735A925783L345673K01975j717195r44910
20648B811326M179651K029053k282649k020818j297696l78395E14778K44859J214939
20639A974576g72631m13777k02499a16239B4597a512135k37376J17170k81167
20630a913508K01637N11306M66928k04781j763081a085194D525445M493242l621512
20621E397175B417456A017201b328045j129012h69657E46874f29712j408986n50630
20612b589328l610583j76186L182941q24783k188560a765790c49470j705907Q14708
20603a240669k34468H75600M96506K045084j53450A555903K66049J997278N85991
20594D405221k036191d03860k415706l657290J017996J3321N39964l33247e76957
20584B065486d41955m185249k409749J886002M62549a201609O00231j158661b90728
20574c30184k152263b27576D386496L49317q57318r96369k73630J906095Q87338
20565E401929J243856k041132O41333j050678E13078J89465N93458D36912i46666
20555a744471b17013B570415L26409j311012N77111L47918r82598j879H2875a715744
20544a028766A285175J10387c08706j646150L52966c72688M6841q73801j179780
20535b379428H46046a845434d46683D70052b577274a209835H65458J170958K493571
20526D529987J08686j505909K94940j051544a077770k001071k471812j417604
20518f968257J670098J594115J615754m053651J634005J352700M61020k243822
20510d938038J024520e24217H58587K12359i5253C569196J963261B704983B90975
20500I06953J010523H54622h42748A19811N84772L251515L766282K967011k026087
20491H663304k836761j895121C62167b473867k51996j595872K093705A226519
20482B619454k65740J090563J611094B273734H25511M84263A10251J643951k72979
20473A481223K701945j692487E03335c392250m684092J614482a461749a96000
20464b387212q99437N57391j010372J249031A948248a57884j415100g5292j586316
20455a661608k108912B03034K807679J272272A544582K538378O26994P8294j723298
20446C064950D80239J428042J765949j277719l86698L26954K501073M31776B440616
20436B834023L93956E6748a055974A700384L480647p32790A169951b235641O56148
20427a579493A860568K406501L80600L69998j029877D70941b138574B56026J011601
20418A267627J135937K59685a947041l824263k66652N27514b133014A241260L147767
20409D389027k126189b99982k489662l39709h57327A344041L216317J792399R00899
20400G253656C043162a832010j857744J233636d30416r92003p31770n96077I86773
20390I33731g3182A626968b237254j695413a906986O73405l50358A197239L52758
20381A549997b22678B478094K058644L671197l69866j645974j040104j869212
20373C282779j388862h33554D9381L671999L550017j748413D1683a267345J82137
20364a085208B45550a417997p84633r47253n81320h18597j947013h33705D408020
20354G416257j445335Q2770B094491c098646A13800M412215J116996k024874K412900
20345F031037J647081r72136A492102a533831A08025b358533d80420D768176j553701
20336C214475a544635k93088O75883L78645j378911L09330B620713j262360b533530
20326d709107a254433A983197k81669k45343g64878k20878A625744K091105K088129
20317E804978M286050n48006j701357C311511J173895K023653r9340l095235j311662
20308B002822G79852a57160A767508b57517R4347B499121P20188J168992J944403
20299F332704k329534j121636J303766K502151M27730C542425i8543J7224G46258
20289H73893N84562f8279o37702B869486q58883R37984J501719K410807O1948
20280F923061j344458j204200j998618b776258l194223J749130q82919c98572
20271E455825k588453h6229C15307L820305K278070k473143j285002l8340Q32524
20262C449721p22049a673136l59448i44450k315016j504986O51633Q62083j847856
20253e098592J697547h46934j048099K76604o1879l093022j25441K161194h47291
20243C56805J161853c81541k042099f22339A099615d13693B147054K17394K68596
20234B633044k47057q76231J489970p05326l609l58225J211722j239281a179183
20224C27430i79136k221321a222398K74160A417645D89130b765811L56437r36367
20215c345741m46219J829475B619456K340378j386167f78032l89799p51525H08969
20205F067960j034870k350395B75245b267906J043963B858793K539571j826807
20197C571557n32785i46610j908195A22148a573847M15016c43075I39074j00552
20188H38522a640818j431297R49200b03892A34147a831004l237732J663794L15082
20179c089860N79291d50150C29286J396941L616736p61191m57025m71725j248827
20170B404195J807203J977713J605929k508861B418883e811367j489238K783369
20162d517236a830392e53839j692863L44496H37088g85945p77567A232750R55867
20153B188617L42517C63731J323436J066306h74701J37739B312843a393836j864696
20144c258532K9361J433864M32535q45538f7882B130719a354246l636895P67795
20135d223346h63050C678380M67424j550127N16089p92037j80017K214951J992114
20126F346777j32660B062281h19777J39606j379025j044647r9856O97531k169667
20117d675835K90244B166231r4270a831082p660C857951R85119A010716N21343
20108A532059M01380E38823a505497k247379p8193k220052j146483L250660A791846
20098B064980E5776b525259j244088g77643F69656a328803l416329j549868L41214
20089e953786j567197l72355R98810K181660J069954r64344K032863c06984C550800
20079F840784B889816D98035A8003a785376m34812j652519j10433n44243g77952
20069B086235K6807I69770N65277l30392O58348E82737J66754L825080J243600
20060E818171G40476b419373k235377K210002e79855q30975b27473j001684b86504
20050B60176g57611n2111A750296L389618k456134g93058A994632a6225l308103
20041c324328j797302K21490a581476A308250E02908a835824k691029J115699
20033c411154J415880h09818l30645m75536b76505D758233O809436J586386l432585
20024I721470m762901A253037a727212O19173B272167A98816b348919j042252
20016c391171a353218d85139k74785m50770K73217A432975K717345L152305p5798
20007G226827r23142k785733I4455K874477L067477J01011A854393b804514k007478
19998d811992K093433K22119j585992j025358J384941c71641j118941m98812j752278
19989c741672r5941J757376D88710M571100B103655a384127j797274g23404B703205
19979a613438q105b16194A109334a89118m38863j416351k59095D1257a194528
19969e092813M98549K88309j931823K47340J435406k141037k266918k074238K272913
19960h764312c171622H04889b557483r10949A378817E0574a818663A589569n36021
19951A053548a594668q10048E6313a16317p37236J40979A448375f5938l40779
19942d06717k57239k75710l484499b194144E0028b34665j22112j500600q0939
19933a938316A969994K019141j132909G78314L039255j413142G68901J264014
19925B032915C59346a640451k377538a395318C79681J498238K6824b424362g95337
19915A808265C99817K204273B46931a367858A330360B82084O44135P50373a480382
19905e572995Q4387J781893J9204p23075a688541B54233K394244a60124A087087
19895C058801c70829m160035J749582F2636a01772l789058o23721i60599B994539
19885F676244j35138j954592A901683O28497K166776I86953f69571A522377l88725
19876A133652J167325K149722j635445r27127j26572J436268J08745O62647K69454
19867D238669j819420J08393P16671A317845c013898M60485C808581M42759o82618
19858C568722j39007J250365J921318k149509a089716q50608g95208m11217M65002
19849g41423b9715G67396Q17231d08369j915467L81259A71690Q92539K923231
19840C987460K898575j459363B322509c294062j45945F80505K580514L77291j604612
19831B033698c76901m41236p05247l22960B394412K167410K12390j196164A367282
19821E94594K933670l92015j027726q5209c9155l331657j411127j974453k114705
19812h871097L72553L160838K91069j357593P59796l75704Q01474J471176c88053
19802D736390p91100A84904J06719b85292D355835J569808k878166J696293j504066
19793C239704h37218j874882C127062N217803m039300I29166K170173r15968A27013
19783c868869l00729J834696o35866k316540J198306a735729D91160J628960k21722
19774A898398J10649G77724M01481M94064g04715m985399Q93194J427058J661508
19765a708354B313921A039265b402755e7635A193573D95661J08911a71111o29967
19756h01078m183589J531785D92068N30212J661777K544481j651295A21335K45656
19747C66991J401448L200704j63655B303543q07359A22959d23854k457643d43656
19737A010325j96164J220431o74304g40895n431977j512551Q34475b514986Q95544
19728a619442l871051K450325e03108D85164a693126a59903j938662k678923L23287
19719d454201b204623l262661k804483L006009J33769R23365Q6664j083414O28547
19710d576827j45001L36321L27849o71966p1214j170222a801307A686277F06329
19700b731113j10472J285332O94477A348986K71290a275215B198610M346835P92818
19691G338263K80705r82868k042859j825305M14567j086342b351462b26934B46840
19681b549037k056493N10387J088562d7093A519858i83741b98601I74051R49523
19672A923574m54286l47929a466833b63035B77275K28345K148344I62330M572266
19663E534596K904481C125175e06987J90041r47295E56076J886475p67756n22528
19654A152267J251723L486336j546061A821156J719241J760595j925722A072699
19645c681193k524249R59520J692916k34927j228761n15167K692763J359373e36142
19635b3039B628163K76681M58322J833716A424031c976376a541961m586068l151510
19626i279539J833697O71327O48382R73026h65349B28182a722415m256297R49279
19617e029433K124308h93416B55811P53257a33248j003425j587947j46985f85615
19607a176077A231683M62551J223422K550494M28527B924352k21588l47180c19060
19597E95675M355687j358505G50090P31962L594993K579278k150441A156403l85032
19588G71371l79964b00786l440934l149561J562594K048619a271386j176247r38384
19579c386017J199431q08700j369616p03455J071465J95461a698698f58249j61775
19570h20024k65234G71028R48957D36941l8142b125547l0555C20665J507891J671972
19560C500528A713468B8992a931147j710195J258983a12722A331768c03761j049230
19551a352991B522997C59388i58046j900846L12345H86543J81459a605934e16803
19541E68065b127240e26935B640686A132953D49025L906260K672588l352859c89741
19531C807999K150491j227377N9849N72102J905797J868611l141279K051212K486230
19522A0533635k213681k331149n62458p28922B199725b511049Q79630C35251O1682
19513C96933J485161G2417a616108F98173K268698L797273J38595B57139c051176
19503b758486b84886D317349L457031O58647N89023J5656l345694b25695k575144
19494b800839a191305L50863c78071D45985b056810l755739O45748r73969J436933
19485d703837R91364k80046j169255K389683b33181m15824C990964j104321G69935
19475C158687K543078j218488A794007J507310G80211k47227L176053K58692J37655
19466D105384I57043f88632j726375j11333G38862L369172j656777A204732K014070
19457C218802k17388A228163K516180J106585I59957l85370J788758m04608K036977
19448C995714A539439c64304o27548n14167l047880J134312M26150P58683A134782
19438C620512J848489p24516j242933A499468d12909A885748J54644I23637g95056
19428c363152Q67922M38692g55350l27129k90900L50436j305135p22273J476046
19419a574305H80591i65080k280418a013493a76684A990703L06307l38772J559486
19410C517724K278295B360148c68677l271824M92002j67298r60716i54261B341412
19400E996353P03528l101555G0896c28156D34248N023203n55695K036339j448057
19391E490038A774082O73697a043557L24682A187694J60472m15562J641706J618471
19382D192781A879865e20579D4841K805972P54339L093685j048878J78318K193541
19373H021818K049949l361155C133015A527184N63570N03079j200720P21715P98964
19364B913792L693700B991591F021N82295Q97286K29481g00892k540973K96221
19355b945644R35701H97091K01427b413701N00030B83177q6396a000605F17059
19345B145292b7097k621499a312824o54257l206192k2979J758491j681575o01411
19336e720747a497473C195625k76413n65624J419714J311064J62040j427410J09027
19327C928023Q26540L56246L434260L25505l830126q13257P83802k472133f05612
19317a810833p16115i68894p03534d96278F74454a0855l255748j001692a570553
19307b612300j88266M89635j530656Q6874l0486a286221H19567h58354k491804
19298c350158J073256E51332B7514e44131B58495M63783c28577k390142l360345
19289f079064N19509l72582J137372A654240L601783A942340G3050K406687J98556
19280B678293J047958L540246o02132B544671F27629b502670k445309K001737
19272b946242a17961k88889k697731J107413H12684J696098a04146j709080A243614
19262A643211f75664l111517k345875j538702K494280a243338L02304l084557
19254d025591j155363j910702K15906K688737a475373P02814j847398m141024
19246f760981M01830K650853A39957J700475d79855b18629I08611k45826f523802
19236g155123L099253m744737j714333L96633k99640L296179b057226C650759
19227G657673L6320m5261B726116C75692J85396p834L592995l07848N06872j95703
19217D149570A485560N41948L06609Q45440J008371J79499Q35021k51828j81915
19208D768705B344710R09739K39426J806162R31886J38461j632128P84640J251501
19199F774397j550537k91156K005679k215847A280908B52232b039329l515849
19191e555178N92635J304501c86908E40635d62139B199567J961415A066629b939556
19181a523234K41657j906310l382206n91544J712288j588419K397467A69183H4038
19171d419178A556741L929315N30565k40519k543224a400982D64563K149545C95955
19161A67073K734808L08545l55557j049270b775974j657107L40184J670051a059297
19151A260389k40368I0811J688734L58598I1992K209853K648043A457832g72316
19141B002579M39425O55884j513093a014506j822081a030937j673381l534960
19133f239278J927534R61385o0688J682665N42745f9929j133212l399097K093223
19124b509015a253113q48345j757648J185452I89082J28907C28634f208213p066467
19115a3274680j191428J509613K338091j0732K058405L302882n8703b485072R70531
19106a514541n68222K75958O33470A662943K437564q65174R05149j105642j04501
19097B930339f08607A339407K806880K37112j861646a871968j26538Q98543l81965
19088a481928o60101h40548F84647f99604k531151R30724J27501A043180Q0319
19079A123499a606330p39629k544896l236979L741240a546440j896680a152925
19070E38269i35168J65935l001960j076065J860812j392722J394667P25738j465719
19061c724482k90057a449219H28864b588543j090974k785971R72872b249372M40749
19052a808623m66905e95052B04203l3148K841130J121709A042377a597882j001665
19043b599547J148128J5606p39318k337517j858394J837009k416256q73079a676623
19033A941025n82245a111974k11676J12676I73344J872703J012441J690191P53898
19024F302577k490130A821738a76176q64821k052722b84148A096933a623759k56374
19015a880133A659460b062565N37834b89065k418700J15822d68389A523765J843630
19006C367395M47115n01186n07725O35090q88379J874447B162715D43114P17697
18997A160811K18273l75957B13937a794487G92891J587141p82124K913m81235
18988A119586K451314A737709c59329k694373j215809a739458A82043a408514
18979c142635J172766l24387j397372a810357n70899j011171a029004C979551
18970E029588Q67911n73662B601145a09810A358646L785264j45074c94877j153580
18961a548457A515767M23259I0353a343186M6949j563379j079047a545995N06766
18952a039229M56025C269458j60289F16296a826528c31981H9693a034023A008047
18942A507699J308609l37009J329818O38570N21572K440077k197850Q63732B290345
18932b965468J138402A133139N93247D17899a990867k381545k506942J008011
18924e871343J427001P28319N05305N09041J287551N21941j728462m85402A70380
18914A710060O09669q21393O07515R87666K82165A624905J194828j85251A124139
18904f62758m33568j94425K22956b73003A631042o3946Q30357E8003f75017D89478
18893h99952j04182j810081j378419g87846B396650j088139a60211A277428j07136
18884A170292L04948h84703q02937A3646b289208m117133j587590P95610b785270
18874a537006j441727k522212J615208i79715j938457e71969C93177a240776j376023
18865b616799j68802p80700q45726J256560P93520e68624L2444I1170d98063A166726
18854B756139j93524G06223a65918j068720j865556j368325J905275J103275D677589
18844D983570e88438j735096c59907I21834L402861L704045p25145M61303j902052
18835E862846m56663k148110H80095A31693a376952n101777J92072K606090a149148
18825c65937B148869K454078j112559G76688f40110H32868h1517l379512l929540
18816g390569L621556f36640m94129c79099D579294K825459j720168k058016G19370
18806b959146p67938J041340k30744j001722j15437j042334j156595L56080b769346
18796a306111A367882J52874Q27977J981529j098270q02743a333995j479500C46973
18786A490602a333182F1699N166034J548683l180002j357416o5947o51945a075405
18776H37835J730720A139465R02596R34153H45198J864079J42002f19979a97478
18766G05907a120393A101397n11914e06110C131299L227759k475191j677050j25845
18757B080972O12585n72493j11453a16359m4698E24404b421867Q08704C218431
18747F462080k730952h67973p71441F47494M843600L390907k758796A659966d79735
18737c082824a471839C51583K6629J108484K918288O3515j594695j21319J109983
18728C862468j763728j010602K670528M27515b641473j335489l68499N76819E89310
18718h51966n040163k86055a808825b01570C513621R51803b388570l255704J07428
18709e536846M37388q871M39107J770126r69825o38120a548906B027524n62699
18700A464825R59353K067994j912771j009105d59382l13799o81396P12737A84826
18690a852990l987830J494076p54566o2977J857807a219722e60163k70800C55435
18680A360488E62168Q46423N83582J32490G51378C06418L15904a11639l031340
18671c142979j265368j095456j259603p87189j47754n76871M70246b818529A469187
18661h52161l08975j974431j647373J284054k55297g05597C478251O30939A034854
18651b198168p62810K12691j91791j273701J181461e87404J32195A177002K165872
18642C342874N145228J633406m838695l41573K570177k172315D53986c187075
18633A652670L214244k91980J30221n20113j843613J20594N88652C70611a992578
18623a270508i5413E55878B49554a169392j142017r8756k79194i18585E76524
18613B649100K382841O08080A941134a765217c36223B886778M249416K489070
18605I625264m053939A440784a171541M76314C36323N10680L907746K250723B757902
18595H96987L031913I37811b24495A553187N71114N80346i92439m083048l761584
18586h837071L16249c942008a80433o84734G0865J250477a869183j414790k97855
18577c581828J254756a009874p34327j200566a128566E05653b555221j040897
18569c596118J397814l37912k660554N84840j029851j063383b940576J293910
18561a646666m73073o54142n68800k125060O47749A005183d40482k961547L21168
18552c080861O24332e70748j8631D41370J368719C50784e06604K31019B41762
18542A210054B45227c121614a017176n30741F21145M196835J9250k58506A811334
18532E06835J975784L927567P40126k252214q35951j483196D71882Q76242L212693
18523D560817r84391F17182a17023A066500N17847A79708d10025a65390B697820
18513D998311k402383I90691M84876a391898k481976J17983p14524j81038k106151
18504f757604b117777B173533b33415k844904a318890B347111J441305B77124
18495A398011a210752j509816l337985p50926c397732j027531p99080k56217f47707
18485B439351b286566n189338M10518E35175N588152p39876j371650j55067M958556
18476H815290l178541b961230l669492K42459J486124a31582C925880q70850P63933
18467C818963k91389a855421p10141A850089K808662j724579A330043e42811o4613
18458f07424j911078O82489b78843a17330H43963J931681c09807A690050M07022
18449B097072B70422c612219p03730A581167J674252q22483C51K90462d34680
18439a001431k234650J325387P43054n73024K85863M02841A470104J285493b85743
18429b819051j910296j773183P95401k479383m38279K698799b095811e88445k030997
18420b619442R20676A344602J586338K076198P60335A92078b808725h11718L46550
18411d65168A37791h02395A657464L116759A468325c199130k28742a018647A155379
18401C714978O75995A723302i66486H18150b11132j058457A021104D52455a166124
18391f63320b94016j906529k575372J383393a050331D457853J563262A323748
18382A197019b812933M69355B84425R6896h08994k938758m247129N03376L341668
18373d149837J154766J410443B72380i27374K20357n42970q79716J046657j363595
18364b446641k205461J977419B110156a12682l093019n64247g72012B157907C73300
18354a989799K32559k760404o81941J073242a674716l022844k947089l183719
18346a0828368j190302K461193L035721b692430e70734B498031I52069a72019
18337a283625m187779q3609h5335j046356j276782K38649g22334A207481j78848
18328A028633J702308L373269k216181j319283L29352A259067J24552J200427
18320B584046g36463o933170q80591J631681J773893k10969K418378a182826j023534
18311b206360l116186M78180b343409M02032o75044l19994d61398H94613J300821
18302B195434C02276a542200m48782e44954q13409k225019j071427a841683e68410
18292a146315l783250l289976d070904c17596r31873j848039J542931C43885K05390
18283E49275b81892E63256N77313b21616C558507L87310j089485K31451J456434
18274D544217K104927j204272j271550L0436j808712J775320M310334k86921k419576
18265E774203B847023j112942K698436N56477A040384e18208E1835M465507J002193
18256E519535A150092o8241l14242j89117J754053B89166a762900e33973q69105
18247a403078j227473J196095j48775P80169B826044J822980A250432a510374
18238b293F75241q2926a634274k932272J825728B11743K009563I33489C89512
18228E03676K280445K161033j294030J903217j194497j531913L443876K678138
18220H949945C907919D34771J657560K357449I21971c212501o31209l915590J299861
18211f459439a870058P97247G48722a971455P71562G3299P22339M25734M265980
18202E487352J414522l22411n26575j588555j789772F69338b324272N2065a77674
18192C851233J677025K101344p66065j958377r95707j270705Q31216L95957A554839
18182b168598j071651j032209k556860K20648J919641a906331B469174l46200
18174B122974k61476p86133B20261c876956j252738a416836e21406m15924p31239
18165a668569k529964k351577j383301K231355K676934O32523k44202Q8519F24443
18155B081398H31154b05254B137301K845220J498362j209887J220942o49591B730967
18145A044776a078066l358240r53344a450803d33751l91280n63219E48013K534824
18136C082837O23890j580083Q94588J451332m45581E78954a872873k293633j362100
18127e528606K41524m83803L12392l69668J015330J708734O23264Q88201A79833
18117C557411j22501i60336j916358j454694J825523a23987A007711m02374a218751
18107c227047M64925A261498K47429j003M53432a424032F92965K759913H19560
18097a312951k115635j384018k315924O58411b009051r14926n00053j613125J409351
18088c627804N28523c74731B220394H14447g00429o51125j279088J59270q11809
18079c283181m75703b73267Q398j483638P52756A529648f38628k680710b40118
18069b098852m493794O9569R89209J584659a604345B810321q37826I00717C32931
18059c668031k296159J927973B356981K700739K895991j218808A178365d239800
18050f013987o54429K024426J926568k955339m38912d09868C687420A314022J533072
18041B847094M158761C157376a238768A356461C23257g64029o27365j402448j4381
18032b808223k104765q77221j825574l831321m51530M675701b160384M35934m44812
18023b169262M27553r79599l073289j311035m42554J423059b495431D077683J060789
18014E138472E49937a917210r65365K681J348811j16391A2326b783952j449406
18005d233358Q28504j156946o68084m3813K443224g77726m221727o48718K641049
17996c007122R44843C5910K502204C22605a085935A648967K395917o84461A632602
17986A421454g14624k827162J388498m82316i07206a37422k66232j677560h82282
17976A891495l92347b59809k09444k485990J108196k63066J041588C029982L624738
17967F654720J136827k589179g23214k024321A322755J629920q27875L511615
17959E636415l52369B053189C25867K056294A032414c384549J173007a97936A985230
17949B991317K57647A465636L81386a179416j699746J134843m84748k145439n17950
17940d892456j225340j034358l24148J068859K093359J263562R59466a024211
17931c42711k093055j732489R77975o7532a363205B603129L66564q01366I56749
17921f62435K31298J96777F23307b803735a224775B600176N126009j2310C090431
17911I85357P03296j5943R08024Q52031Q38819R93866N46609m0551J29186A672561
17900a216383n71145k52109d00351j463910k475816M15454j934411O35896J312998
17891c910140Q3182J837996A50196b225812j978652j208734K385169a351229r44686
17882b295915j529303k141766b805152D08998J279768c99052l751015O8828e4136
17872g78194B175454R4939a109426n621904j832259P54090o304J072956c140474
17862c708919k651092k96454L215381J595072j328612q50232d32706B156636Q77715
17853C034351K002285j853262K439594L502246l647876a673007e3000C866365
17844B420960a289970J92370d60303A051499K772866q04060r29167K74393H31323
17834a837691m046532k072130b158561I0786a878662C40831M97824O19140K102453
17825C560248R34400A265438a102683A832747k03837K490394m22866l60659H55199
17815G89034H2500b248969j229871k4482J67521b85827B01522b516690O4969g32849
17804A442115M81405I17470a079941M61428A918057o6642R40098j84937A146614
17794d90395l256669o03404a730534O50157A112812K567230k33567j03044K016549
17785E359980j800810b343377O43150B810649K953985r98154B53501c428018J417660
17776b010358m90910l488978k590288k12988L154400g58285C94573J165835J966934
17767C527342J565161M065329J173882j851485B200675H48138K109751M475635
17759G433524O66662k556684k613825A437641E31329R74797K555496J510932j58784
17750E413770B652801n12405k5203K911276k198636C90738J489548J072391A171681
17740e35275B256721K764529M61961k676603a496853j397842J256853j01932D70112
17730E48707K17911K60365G0388Q45416P0172K33643b11363B341254L227403j269481
17720D299176A394333J503944K513500J719929j196699I69668H7731L076476j05133
17711C059074n43875K981017q28252E88429a023636j319463e52245l093111m130670
17702g776026J196952b239505C39347M049282K000902K052704k185689j516671
17694D739875B042565J36205O19180G23058j20421K73519L208947o22414n45136
17685B917553J217190K094349J366091k114955k070410A408849i33925j012170
17677a946095n05091K12692r67918C85203Q40822a873300m68380f90832A33339
17667D453475L162866n94581j019949k940864j217641F46528f2840j228205j563765
17658b854810A78174J565720p07740J012708K396650A023563J96815J472476j173816
17649A519038O16571J343411M91351G73894c690228j727628R75828N91079M86729
17640c364220l062224c161159B64223P35526Q99501N26548h75792l440256R73607
17631c342441h33979C77346J737292G60718O71340L565349l62330k076765j078066
17622A480246M991289O6745B117175a76202j497385j408594J03066Q57263b41597
17612E84116J526159Q17748j263457J44384B31548K34348K723512J622391A996124
17602B560116I79443a798493J44892j791543j343759P81300f67142A506725K78311
17593A785036K106502r0334G29464a792618O05192c24953o44840K09723k50633
17584a010703m53903B431898K892196O05218A460409C28990b392042N93158j311016
17575c109900L24641I15929h79023j213892a82543G10459c65980k209580k397060
17566d972620m937179M44421M656186j959445J608084K258105R59985b72877C717187
17556A243417d77664B90700b354111i45741J16210C21433a853324f64127A545024
17546A028210J858613N452121q60858C111891c762425l266164a51537C231078
17537B507550a861371r69252i10537A117468j50900a852821o93765K50657E01450
17527b75169G00764J059994L80716P23261l89500b009413L24034N2143F3636L097391
17517C161027J616044j710083a467328P27919B581858P99215m14501J65198L834997
17508F966767L281933k953481k586282n1408B222129A106021J505235a476466
17499e25615I89209B43712h73708A679394J587392g17704k497126R28929a052496
17489A361945J650524A075552a766156B659310R46810K46056j505660p85649J109323
17480B670190o19466k24379k78560e8742j456296l35587k165181J640985j30835
17471b505656j290995a644781d6797A805211I5069e032715N55267N54344L1245
17462c891859j978979a164022c64174j814401H80654J554595q72146a114019A1984
17452G31826l0927d39115I50546f96772j401579n11362l87412j131357R35550
17443c192932L94580g07901B925215P42349b28288g6925A677860a274611n70627
17434a845238f1570B362780G70884e88735q25796D20426a03281n784013O41677
17425e245617J381144k784638L030816B055377o41833b38514A141904J299437
17417B441341B69194a317871j435882j341268j316503l296872J93063J75198q00407
17408i140542K796044e32781B333317o75197h6241k039696Q04138L75948K40412
17399g05439n50082j85985a88324B174261N77706J695964K459710m47581l45263
17390F114797j528049F77363d4525C34009a218962l39074C605519J542183l14472
17381D833230R03409L287292O59630k957045k944520j637411J82351J008442J470746
17372D806124J032379k160685A708053K45023J074761B1412c542626P00068A75798
17362a251338j167632g93186C539064J888185j934299A370023b139856K21930
17354a917926B531176q23260p67003C36259a119484B67621K727142J649724j75806
17345D468681n66421J777010A100366a975160A104024K491290p77087O04932j124232
17336B298927J94615Q10063D70299Q96013L566504j568539H94836B61779l2438
17327B29341J63267M364522K40090j123317N61514L76324A221693C19542f90337
17317a438306l065019l037942Q62148b791885J079310L9679L97150A958509L158612
17308E117121p94482J134575N62755k874230A212059b29414A21809K019899N49519
17299B691227L70887n7935K63356j66672r76573K536145K23043f04652j388676
17290a993328l37561i40401K49179m7114G66080a123367p55047Q51430k8550G32046
17279C707469M516707J08226j690741k765517j406810r04652R17078L8091c46359
17269b837893N40701N37285B963304M013421j403764k705139M233268J754878
17261H855968k501630M83958q81733B867507k82709D751a768680b75941l976725
17252d252666j539754K75654J395755j439374j055743J224085k85538O60452E6280
17242A04601M50913a196542o72407E82824O657802P95766l859255r04719J248549
17233D520967A567648c64566F74134P82028G09957a684679k922043J766553f85141
17223b184064A55184K491136G2597a773962a80476C423399q81573I57413J620008
17214B577421E99883b437912J011895A041625j90923N44856A76002f58551j44565
17205h03116j780696j326034J210754j50369P33549A108704K338171K5402M71718
17196C943995j919299L59732J792167K93851K241259l263771f95352k63056A974789
17186D264568l27069j580429K02780j010333K087307q04244k72880J441409J495483
17177E496592j118806j399080j128711f87065q56690o26897J063584A377342M738722
17168F116064J881294k098785L1386J140299j886711n46707B053678b179158O45423
17159a533735J2481H37014Q78517i97710A051815M262544r73865j641801n41224
17150B157469b761873l135341J936523A414780e2929K4179n56787o8750B28250
17140a870693I53321M213656M031533k343855B961443C4831b411761A85958K987534
17131C173492J707823L14700K359833k53371C181356i08201p01495p75219J042527
17122a342388B52834J13917K325136m45503q33595a148803a47745G42764J953188
17113B695952n76769m28878J808988K167455j985410g50619n115336n99306a974248
17103B583683h19755n288191K335204B17006K260002J048834A315109j83773L109031
17094D240367j120884j381871F92724b81448o48151d42547A090854O21105R34505
17085B646464p21724p46189J965387N89840j021093A056649c342366M47783E75187
17075B165318c4579A137493K79744L98130L46311K101120A127796b199095O56000
17066a543095B393596J083270G09566g60391C15099J943082Q68844J76061j046441
17057B256645d12785k307557O39719A4869i67013M28190B128152K289934m67065
17048C951021A54146d967610J71758K3109J270305A869776J59627j53175a053319
17038a585331A566949B66080d013186p29178m62105k93018J901118a797775j774937
17029c572712l74692r20287p48486R38815J6246k12807J548974J65416J81939
17020b977594j724078k450337J544391K728028H76911M89675N000871Q85647k747743
17011D505361j937495A051771j85019B70752K348525L768344K213860k509936
17003F091545B573239a0838l27926F56671M88556J04441g37627A347701L164021
16994D511722K152295j647258H26575a48443A226097n76907J868573o29475J253492
16985C141780C94522b775267k692842q46178n42382P14594l50087j967883k173301
16976a0633346J468750R47630J801331M22484J314598R21271a830913H70708a634041
16966b279023L22536R0276j78161j32856L13463O20156q11505a90226j656260
16957a846486M35414L55790q50988d31549k45988G69690J087667c305751l585224
16948f890975o7297J10405O44932K422723L21782J674175e21149j493255O43127
16939a371277l443095l713082n05053K320639Q5797n02795K031286i82065k55712
16930a237777E56722L562300M28423d76400b07929J4101k920691N02138a076437
16920a22513D09115m4767K81420Q6248P00049J189225A013302c806059k011267
16911e817326a53970C303819A157822n45898b09344m78854k638894l147899j56985
16902f631976o78452J895824A4958a358832c63043C151930q83466J360120j543737
16893B084847a150489K54281N7276C19605a339533H4252c92212l18154A526598
16883c35115C60804J358222o06077f60541k308916k139897p52824J538549j162117
16874e485746b539186c70305k797015k578337a980300B276174J212153j643436
16866A844891C14671c279200L7219j329850n73957a809778A003556J023161g37031
16856b740561h60028k9310A413486J701518J18973I92736a602379n94772r87942
16847c185093J105505h17330C30088a301822B523087A030161C08437i16741C10359
16837D049662K700714K264220j741381C189207m65289J039152d51758n367379
16829e819137j612938a796563C261282j093700q25127o34551a366543G39510J253189
16820A992699m66981A35326a454285k937308q5257l329540J281093c46058C506234
16810G020103K342449j045412C088710E09454j94022L070933M67044n38078G44697
16800c181611j6929k691046J104167J113244a629338l504412m03530j137211j90814
16791f865305Q73663K076861n58217l845073J755611b839765J34384E06689K804863
16782C311552p13350A197489d196100a243725G3440K58544R59884b546298j096096
16773c642394b43486A337620J935096P27210A940840a79276A556517A53123a970808
16763H90245R63403n8911N32358J287350j031783K469498n33834B091936G81635
16753b353481k480002h95912B828589J722453j38370G42692b689098B18236J018688
16744A236924j94314K566638p36250f87468F48649O58187K629322Q98301A348807
16734C70254a288467k671355j234595J031221L51837k481965Q86897a655515K88728
16725a366787e53404I95275k10169J851312A032287c889235k909863n85052K105744
16716e278406J176206o15786J28598J010624f89347R6236A944800J043145B55892
16706I71951B48841J185123a324844N18556B044736m4177G25673b159468j93430
16697b352898b17615m02372I11661J639790O510088J364752D220122A457661D88775
16687h07390q37144C19702c65539A79265K671844J599666D02897e807229j845719
16678g652948b032945E75193c90807q51751L12334m63078q74801e32463A898952
16668A337106R83583K276054j629980j403450a979233j656033O08491B77849J968957
16659B246806a302466l149822J853010B10735i49958A995120J958494P6101j641469
16650B388246c10646j637217i06564A987752l72309a366905j938716c44315A602147
16640B623536e10366p52398I84828K93994g56099j087627j313720j56789A054894
16630D109154k25916G3904Q56882R97564h94603J68487j591528P64104B202812
16620A623789b462605J191634E54709A71029L325852J975810j007984D91176b928497
16610a663132C441909M779659R57628m066842o10780m39525L69713J126018j522142
16601D035638j810356A42463Q0220a15438k824632j178644J50848a462203A920180
16591E432079l90579A638688b99777j697468Q04376A05795M22123K402755r44133
16582A986540j95054N56931D04895a595927m99662j556935H51033M376052k04033
16573E023052k239474j244029P36090k51978J198362J271699J497895M266953
16565A0258570l533054I76115a166060e44352j25198j328220C003160O23408R74751
16556D601319L921913k903218a128513r90300A558479K539767n6j779062B22588
16546b891773k486385N56870k229669o07640c485975A41542E946J38211J734040
16537A878197R89972n3874H5283a855156M76027C62685f06685j998021m44997
16528c049703B01346L784389j61607p05319c88146j276182A536507M32194J258827
16519C227528N29679j53577A0196b831992k597589L8643P8439J353294a373810
16509i49338l05674j024B01005a754043l804410k430040J700636P95283b440374
16499d889884j785192L172561Q92526a030203n31486m645981o64277K96383J913937
16490d661627J429650m96475m73794Q44307a495640c18526j478413j467064a450557
16480a797567Q14932K07844J08941q06739j730521h75875k24023j475268j727455
16471d302621J148790g72330D571881J171698A720799p23167A77188f70494A903304
16461G857452j06217K56714J129430l676395j845634j496573h07582K79245P015
16452e21322I06272L0218b185919b67790C048224J253470A335847a347229A620022
16442B452991J883962l85692a238617k692894J084328B178718k33111J333367
16434C278974K751353N26391k472914J936096J289172C590539j736482h75196
16425d572406J856453A110894C27280I6340R33525L142578J467039B331689e041528
16415h737939b555385N18564h96689k364504r38984c76927C16537K043092L751716
16406F111345m73102B032274d94143k313851j912999J925383B577885H68819b88094
16396A281005n22472K54878f33060k60291D372959K123737j792371k147056G24878
16386A864074K124737A976736a554460j449675j145306j401965K004741A215159
16377B183752c25388k874909J001871o4104j797303J309715j65956k637212o68538
16368f221824J343605k085663J160919b384461j053427J239572o38404l486217
16360f322937k706775j418061J252986b089935G69982M33373b290832j82019i65099
16350a665548p2463h51499l078534o07785e83371A302924K766358k23811L20509
16341D165980j071648E75034h925D50162M86479O98383J309005A371182E52781
16331B772431J842241n92105b159005B65432K681537J585096K732286k456812
16323D807539B178329H87543J185748m60710o11573f9570C85205a154025N72615
16314e81410D249064O27433k56990f04834j395678a42322B619006J51282A176563
16304A883429f91843E44636K073263g18423K2787o22511j732556l119128l561198
16295i731029K7970d722016a49514B10235a519774j369208K83993K803o24575
16286c226761j460245m15994K546354P30941l602893K296898B335824K482439
16278D818263j05259j838950A29223i78397j109519j512523p53936K0988J988074
16269b345313I86345D62617a186719j642581Q24953N76855d32534o99944j396437
16260b528915L02702J083774k400265j27328k146163J066003b137409A217607
16251A935337e34434j288361B89089O94168a616685j981682c50014B191000r29294
16242A261706c27093A252400J796597o87893e38241j327490M39217C045299n28446
16233B516853k65945N16846A062538l67120e387072m147053J503348c111765c31684
16223b900312k721970R65569k228235b513824A689926j96307J931003m92159J92769
16214C125232N75136n54500r68645k49966o00637J262516J847018L391500K019756
16205I847410l997089F76653A06381J976873k98161c2714A017259g25551m963585
16196e689136j029669R85145k33088K092068c17745F65367K384450D2901a421541
16186d25376j733646Q19514o70221R13475C041696A111983c463991j891794f41988
16176B695784a360861j282716j662572N0712a504797A118529a429078j003735
16168b432813j107674O54825m755j883645J317997I12312g85678l181624e35865
16158f34692A007530O13780c94401j790727L76331a78606B169372L022162j086062
16149D105472Q98426J743476P32097k028835K49247k176251D91247b510814h99557
16139b563857J41955h52407j162245l457957J436483A876210K302561E56344c309284
16129H9251L461286A752754n17052h6280A160022J92443f54791l149839j171500
16120d976130a799692a92306F79514K624709j32354p64330a033294m234052k5675
16111e293021Q21169K097126G0500K096362L502781R4362k179130O48071K005360
16102F238306j556476j309204K056454J866032j754757B590433e89894k185755
16094b775649r69107j99632d93958A010943a195338k194048K36443a089243B065222
16084C765643r64994J327292J598153k050959j556205r71683A49261M72226J336216
16075A957703I73850a501041a1559o21644j10620A904422R88656J072349O28460
16066D593887p8856j40155A682850o09571j22078e61821j625536l41983l75316
16057b904656j243551a111936A278961P42562K034221B82378d699942j162194
16049e862136K853602J092847l410506K560393I3879e23642l844333k724211K458314
16040d633872B59262Q72839a91178n49213A73076N32792d40279J19094E04340
16030A49330c354390j725404D50865M355865j657013E52450c065994k87461m7084
16021c400539J424772o35573g21546A069406K071872j015939a553554m020107
16013e573661P51738f61210A034213K359947j157392n91891O65449e21741H56367
16003C134248L89447J801860J125781j564790j891621a573661l14261A587807
15994e13494o131507m335906J868950b653392a073556c17272C265020J126474
15986D391494k155077J106807q25579b831353l920903j44724K837637J526371
15978b532972k94307P06394a038932m53179n71403e54755A273403J19690J629302
15969C022395K679343k68260A768579b783594P03616A434554K14946K848557J253763
15960E751820r39415K913066K31769l864411d58540k99044l528619P70876a733671
15950c143727a282977H40966a975732j671756j310998k621841J459301a194657
15941a195849n496215N00751b512761A597452G77623J274538K412501I86010a34320
15931a948867j332734j259988q12061a750640h00315A228825C53747a992836o94523
15922b687359i25121A216367A63973K742427L72540J34269j241626g17799J21886
15913e95913n6748F42241J360474q54702Q08370O68287i31566l847413k172231
15904f951210j970752J548703l03522J793170K920092p1777O18576O23671E15821
15894A507836n03767K341813J332926L377678k672822A769818C32351a216466
15885b083053C00665h81396j032758A867528O42812K853126B064467b514595A781171
15875D091508J459037A020883Q50610N98869G7866J451923Q86368h53063j937404
15866b790467O3455j714946J225115p35443j923916J208902R04805f49847b20154
15856B376296K854950M45611k232707A446812a002074d54250D61772o8282K411607
15847B805097N723345J857134l350350B198295A99629g24165B072372A004683
15838i00489l44294G31347K112780A312223a796615l629180K79761J347270a683855
15828a978948j379527K54416r62526j32008a682037l682656k852616L521170J769161
15819b926978k56369n668079l485829L04563J878914K324079K300758J321210
15811d207731K57706j474552P80473K004302j360175J171524a41722A857296C10968
15801b315565j627152J623061J01226L24749d83610B211418K080799j339728a585375
15791a966133B891713J039718J525892K824809j510635l029293A829960K750018
15783D579978L29766B354479m56060D46046i78490j464701A847745K261447b66170
15773c982600J530472M81139m03388k81050j465094J041930A096272M99786L08654
15764A904712K006243H41357O12326J183481G96739a857567c38264j663202j313229
15755c314695l327881J92822b443484B8422Q43834L836904K778140q09410k675478
15746D002412j924842o74793g15245k095293m4568a336662L32773l143301j872647
15737f019837m567195k422198J743003K900273b149354b72717k186578l18022
15729b777317k74597g48117A295681K974810o6866B85954b918089m11552H50960
15719B116115b459665j857551M35779J53076a358554C459769M99195R19125m65299
15710D412790P49536j956461J66260n59868e69898k715907O12423i19393B99143
15700a881624l1158q37021l56438a421836H61320a978584n489547j585707L372197
15691e681641K404118l87472J395746J025835B56118K820056N68625J790135k15071
15682E219863J510127C206385A597328G00151i20376j871158l657106p03366R34712
15673f217294J712270b097719H34572a825355j012782F80395M124847j012147
15665C793095j161851M95430a125957k217987M44561n27825j826622O23712J899244
15656b730874C54092J821448o56681d42940j944826k360525J11330B37956J407507
15647A645463l4219c81272A511294k89509a942318b39859C026414n47179B45228
15637h5022j97351j091132j974683R28039B175101P02540P01581K863776j416112
15628E026886I29705n3704J373499K666124j15246L21310J751781j60095B853897
15618B631967e61326q76445D721217J978795k682737b67156k691062k396453J254563
15609d100108A95448L857217Q52046M43818J997847j347576p96951j64187j742257
15600C295405M82912J047089R25220B271475b108336A825182O48106b30990l81542
15591f12532j939615k196289j509567b213258E13071J266741k9595o28562J032930
15582B154585G91453a351690o95386L06348h67813k246363J31370l88878p9226
15573c450910J631485g08250C482905J093253B077932G09797a329565j152235
15565b481800n65681Q67745b13082E30665B60229a188332n83243J34835I57658
15555I71411a582828q4443j775538J604643Q98023l93336j32034d66594l86144
15546h52738C352866K56120a747915M00394k81092A298958M523400j480335M67130
15537D809153p58615j876592K550476r17137j555693m65805d25061j836181j460056
15528c721298N60479i90358k121686A130991J963007P8600L229255j525566J272815
15519F149102N74117j839175k21285j221134j219176K738615j752727E32055J35356
15510F67411b451094j915958q24099j712962J901745I43537N93726b919929p40023
15501c659952a285031A610746a126221n739961K651953D41782J710809b162556
15492e820367K036204J828204B089949R51739O43499A725022B23227K389970n41235
15483B071962h82451m084663J076193a216433l04640j402793l048787p12329J831618
15474d853364j01806d53441A816378g72010l42585j222033k965882J428720J774835
15465b098955r86365K5804a284484C556517J152214A24569c885315j840855K802712
15456b923458j081744N3768P03427R15418A013817J706949A020272a291236J87682
15447a103554c71208I68426h96482J79491A029514g37546k027849k133117j385852
15438f284364J447989b102745A978200K312939K584435j438232L04159j510009
15430D231492a496939k035056G64828L072806A801071d16713H51673L43074J344250
15421B538997K080469J141855J488004j945233k108792N5586j406734k64876D1533
15411c282500o24465M30375M43717J257693j624449i67273B406867K357239K153986
15402F918092J129652j493564k184831j590420j8945q09062F9114h32615l164730
15393c997345J937720A125376p8867m12551K318120H05600b681599M37344p55437
15384b999692e24671j088177m758785j43070K631085J361553j496034a078726
15375a894072j839572A318166N396132j63625G90705a119057k462234J347142
15367b234149A10761a36375A64176J362671e15366A338954J890263q12581J579851
15358C996487j651646j073373J806462J006878k70185a370034M79521d11007q25950
15349a236957e75121k03659q34282A150737J707628A004057b505443j056711p09664
15340d271818p56503Q42261o21296l292001k87583J365873c326361A887327E84205
15330b613230R47092p559g40791k081160k25994F9147J421928O62976e17986k360748
15320b878734a035947q41843K13649m74772C13099N401715j333432k32389K191379
15311F340372J261439k791019A655322K79909L42280J758805P26868k77225k237580
15302B248379J970557j902392c00177o25452b24562j274874M02736A963287J028255
15293B991542J507371q27177G27405a506101O24742B050086K379417j325974j290275
15284A813254K420813L962605k811245c48333j348807F96836L475978r56316a158094
15274b725685k07929l41640a154892B424889l64625b92411l306713J100918i61784
15264E54538K621670O01661M17451r43968a33070A301478K159767J111881a490236
15254c367813O1140n36806n91898e86102E999394K328924j36890B937674A179925
15244A918790a00882j338991j683209J433092N15611G93169Q74498m49371a940655
15234a396482A512712b356978o68052A149667J740791a401621f35301b94577G2597
15224c89609k595993j214542L81197l68038J841000J690h96602q59367k569620
15215d325589p08986m22574J58367K622493i04986l00355g3085C134369A367173
15205g87383J05541k45914B303219K714232M08406B490210J946753N036731M59351
15196I933045l026911l326722J040680P61556k250115j057140B42717a961924
15187a853248J71674b07004A101211L210721A568045k1181K064931H87349K185974
15178C073323p0753j208270k1971p28774m10225K038855E13216b702401l72924
15169c075325a096950L23770l575937l327444L38099L073285J910785j766493
15161d120885l072546M2777n6594K169165J889179J133910N36800k520272J237251
15152b761215J76950J79574H89572R18434R32934P18813E1559J470855L321025
15143D843439j731173G16591K72400J068510l93192a350873m352441p25771O70423
15134e758662P11103K51237J587471A045508P59517K084835R24237n54705j676138
15125B583254j185721K66582b836860l905082q78775Q03597j678664J174032b31146
15115C216738O9888M426610n42598k545883i80028k160046J171712k697296K63647
15106d402011M30781J957752j055410k004342j25839j958803b415913M77296l712376
15097e650993a821304A977353M87344N28663A266393c098869k58151f85952C36017
15087A069107K446999j492925G00902d34477j030258m70802Q4612B35664J235940
15078A471604e58336H93944J495314q50449D77178J123554g63087k286352O88983
15069b360456g89806k91798k450740N71527n86417a307819B582979o97943K131638
15060D016674L443297j93435j157857j771664j183771K73574j099686o64134M582910
15051F245908K929412k241913M66558M320908j762147l424364k280080D79299
15042d505555l025468J405430p27420n07594c4924B872846A38012a572363k21797
15033a794160b68849j13720j986040j45629a171873l012093k784670m71307K816056
15024d623887N25112a722348B097154l13794q64803b13272A202335K200367a505284
15014b224656m71096B053180N256789J018937k914314J761261K134656l822554
15006E487955B512542L58310g98899l806897J205485D013372M380250j262340
14998G131282j952007k45249J252259K078426j541564c75095j4908B347051I48041
14988a882769k940690k312241J028551J943732h95818n60523B66243K024185e20430
14978c055379L27075r6373f78927A3921a290828j862877g59826A49036K757010
14969B906046r91995F12621j06101L587043J446532P22213J931458l789995a51041
14959b39547j101265j65804B626690J834788A126201Q07362n43592i9360C095607
14949G661722C530562a694041I33066M406963J499322J275902l90135m37293k266463
14940E021362K78584q63649c546408j307847j46094J081020a693415J14927b23485
14930i33443F77977L930107A228564a26193H41986K360130J158432b75839n41259
14921h17098I49151m19000L52737h71456k01287j566004r60037B167556G90187
14911b437989g39165I46559J497505b189894j508162a805379m27716n24034a209798
14901c032691I5424J964822a420259n148330k081862l3917K680639b062969B792371
14891B958361E94a365182d32477a68478j34270j570852f91476B660938N540352
14882H201290R81990C857538A772877L03507J135856H6397e031154K99443K065396
14873b666315D02845J94051h50029j420411k646706k580589q79160L427841C299343
14863H417185L14538B725284b70816E07917a220995c88373B059013J17119K85246
14854B461378p73837J879957K120576M42898j548754A717150a292108k374581
14846c666689i44883d16915j012669A628715k23372c583442Q77888D00910K789946
14837C190856G75634O81300L417982j582819b02553k026156B63601N47016O44964
14828A455581l85817K08930k43405O81284j41125J602150n76145H01697a701467
14818a021756c11471n50771A446906a86856q78343q88562j575188k99611a056130
14808A278663k40450M52558K161165L149960K942497J88431C844541d697498l99604
14799e097102b119130A05690N6751c466927J579236A503771J372749J063433M15864
14790D355817J788619q60650l6524D29252b789888J03427N53492e33483k95045
14781h28528k022968d12690k290294k008320J267957K94348e909B124874M410729
14772F535603L463774k922968A908386O36942J096714A348297a54766H91690d84963
14762b810968a072025A17766K895338J352605A198337L17175l09501n98970J464858
14753B071899b528982k133451j091709L92602K648359O26177I19640b74597m393070
14744d667667k15652J247247R73375a013354I44394l70m47108J033502g54669
14734g71417G34734R49037a698094k302139k693076K082931J67493k591726k494329
14725i528940J737373K024430Q94837j345526b386924B297493j61944J548532
14717C684081Q68941B040192D71547R26137o70370b70652B464880J769944A408408
14707b644837r61208a625853b66711j550963k239723J08441M59445P92657j199506
14698c896360J686602B7166K754632E32447q2579J524770O32020J27312J493753
14689D227723L014957J292243j217814l009623j472444M248323M50908C025388
14680g03097k186982a384670C43811J461698B79391a373116B105931J964915J425152
14671E495998j667432F01947O53153J67715J835188j251541A0283g92436I3848
14661E236222J14388m7918J704799l36558k9397B724501c463120k026042A487752
14651C749854R30495J369988B237995q66794K486992k10945j588429c482265l893601
14642g375866K384096b051131A449103n24524c13492j23602J53986j164711K2329
14633a425490k43681E72260J117612R1138A83484J049855K566786j399878g81158
14623a358272G94080P51657b180934N49715D89979a389168A9763L114788L449692
14614F584243M3200B952193A175252J943728L247857j480283j55330k53328j451073
14605C026823G94377h09621k64529j381422R03063B471805J15263K397315r31322
14596D053061A796382J444122K734083L99113k548890E10127J774789M34530g25949
14586a241053B631808K852755k251092o91353K98060L101419j428741j015268
14578C497588L645554j712015k541066r95600c64265A681058M315859K124754
14570H121671m25905l398431A697800f49540l569465P79701a255639m116933a327607
14560B800455O45329D77803A31810J446225M05723M00013L229037J835494l409098
14551D039204j188284e80876b32973A330786O81472K353832l72249a346434O30454
14542g15980A234574b603687M69722O64896A877705O95692j06749J466491A683154
14532e048266R03403J222720K72229o644867m43275J949576L151136i01858C12221
14522C736270a874908l159148K266149A071785K271363j444341h21240B10305
14513B851530N396040m010003j528061j83091B50966a052855k05012H92635M375134
14504E267769K083184k061316j177517A697229C42739K165561J76414A182228
14495C501857L228298j440524B191570P02099g07786p98104B474067n11333c85388
14485I98068Q44596D17471Q8920L181801J072426A266562a156461B926162K797600
14476E723762k169785A749259q27402N11383J548298K05549A095542E47659B61688
14466a767781O78934J37113k408962l68389a515694m14631N07881D7224M416530
14457D463754L523823K761631k946105k2539P14637m56106r42655j503385j48846
14448E444209j674194C13016b763598l84318Q93554G47764M178003K564787m27129
14439G063425B071968F49827a106551k494658R06830g63866k03032I22991N63388
14430A486379a350880K3764j208115m37883a384181o82448j590074q32899o95838
14421e185440a484264G52380c48169j638687h67952A510897k583a068632j016726
14412b085358r36836R85415e95714l276678J076564C76126a282050k871149b043805
14402a433166A702168K914604F52957h44307J69814A52949L659249J352668A535847
14392D71841J359470l19885B61139a395393j40061K23865j559779k375923j723211
14383f970502J207967J589783J207865a383557A029696B06352d456017j355286
14375e811303k938983K657860K012002k008458j244303P50364K353821b34409
14366B136464O4878B0462b004467j959986N66349j292755j519282k929408J655655
14357g483894J309803m902152K407065M066364J049393K46370j336393J092289
14349c551155J276529e30238o91502n8945I68467h4853I6475O69807a558754j785638
14339c344392p18104M27775J513450j74115j007961L57271K39630n39894B587593
14329E328815A913991m35410C5954b642892N81519f41404n41894M48732B661841
14319B706758c5014A483643M046670B741183d37724B786479A235515J111441J952219
14310D299175m41435K476560K644024J300333l061567j698622o50264L89954k562601
14301B695557f54752p80748n10365b13691k525027j902143Q28249k51257M37956
14292c625913a054946q85623q08654G07866J184863G87343K82442J825996R16933
14283C812714J809038j634827j583037b14956m23920A023118a139395A43653K802279
14274B945932K024355j706931d25375m439348j142628J396612a004979j267393
14266b272372l239165R60039Q63698a556719d75035H83776K093692b461293m77873
14257b939166I46397a609115L93516M74987B693507K868835j964282J240785a057309
14247c550545k564984k763338M242471J389143q24566J815268O99111D97287J025345
14238A522632e5181j199828J45494p48907L38711o46398o04533k224991N28695
14229d466938a677749E92542e27334l588673j561462j91593b897555A3595N287718
14220E301313n84795q8510J425153B954145q32540J917240j233401H48705K202723
14211C051428J553627B265020d48397l53300k59848l984689k92228q85973P12254
14202e512181b555609M82010i02161A420247J562577J943862n39544A963866h79124
14192b132151L3347j83367B28337K471157b69472k421338d04230A94722b086316
14182c593902o09555R06837a328768j711403j373192a622663g92008l345270N0204
14173d087074n83178J32447a596384c22275k257310j230277j806370O67278j10483
14164e059437K351037M60770l36119J122889b09400j232436l32014K82355q71717
14155b363212A370128P47045C24318K868941J579849j910996F85912A03878f71175
14145B07166a480993L90581r713A236693M141180P58460B531093A026495J670834
14136B697329K532455J127498j191625j770866k43614J772542q52585K134439
14128F205573J059171k601521G47874R09937C38412b815211n10382e59189a5173
14118c823658o72438J421426R90273M9756R44576n02745b53598D218619j526887
14109B691732p94922N25764k63135J610972A374929c16786M1588l647034J731431
14100b190801d21880l975468m05707b115104A539290J887789o16938j057803a197872
14090i36702B046733O30611a07022j817666Q80852C97291K744637J946503k98332
14081D790099j835812m71827q90113J012695r01913A18406L81256c427164q69985
14072d297149N25790o30369j330432j464294J369743K124318p74052J886158P81556
14063a808731m165379J836611G84356g23881A113676K153738K069315l13689j288108
14054C734932N11401q70400j119477L26872Q9681a163511J62871o69993c57565
14044A118692K880886M09902K46776J35029B065608a169598p20215B696311L592988
14035F289299l83348A786260a787413r34668q83385P87405j683116a403077c95640
14025b520531a18320C54900f28025j264162j196846a216218D387122N467250l64573
14016I489799r29437j102900l571561j720568J296028K80499M28897K20015J751246
14007F142018L577697k382333k969202I42512a569785M50635o67976N82863K89694
13998i14569B065440k55892B36771b226538p88548k120156O16096J07363q78153
13989e289936k88417J47144K278628K02860E40060J235596M78070J385607o41186
13980B998147j056805l48320P13627P45635A477856H0714K396328R84499j721933
13971A739608a241685k773837J981319k552268n898411K146570c272322j453535
13963d725857K81436b176152c19706C93081e71027A457291K912087J53610k018389
13954B504599A37648K64385K914726N67111n05884G66685a119179B98832O31176
13945I30008a88675G28524j45771a017478d46674B826863r74262f93945j197100
13936a891045Q50213B324559L814949J065367k758538k108854a856571q8235E451893
13926F950526A885062B35697A15393L289705M81039A169560B75350b85507j144256
13917a429763p02759j058831j683282J488206J223394M16640A957420J100739
13909C058159m01885L2211K836123K17556B10864a387349b59258j607632j300218
13900c167108Q72983A80961K826626R01549A042479a063611j696272j616870J184367
13891c192386J537303j801251j244787a354617L13889k728444j946542J273949
13883d441765g38307j497335k195997R94718j4353c46931C2955K839008Q1374
13874B953337A373835d44031j324181M09273N56805j325232C99270K726837I41118
13864A329418n00146K192264n8943n42865M744B93014R42196L529350j447037
13855C317523c010209N04886A050193K822104M96298j515478G74296L567356B050546
13845d56220h5665j32861g027G33440J544445d12781l389507Q53799g48790j158000
13835a906790j246051A330528K38113E72705K242407M83582a260978k841982J119504
13826b983456B964178M187049k153153A164412P50684K190604A270644a195241
13817C57278A75304b542952J157592A800261J749907A238323b51212B10369K53635
13808D64004k30412a018468k762547J75262M34710M46846n51302m58502j630012
13799e364013K166273j67198A27560J064609a471873C16859f82716j541266I30480
13789B39698a72462B156789B14617f27628B849111A304679g99592b95046B352817
13779D083971q63183A167236K681315j508881c06284j45972C58199J811077H31789
13769c429089m29644J046279L29929D06818J554899J215397J043099R52120J771402
13760F943735j462769D12993e98172j420851B35862R39456A69476M18900e78484
13750b040571k583104b112853C01457a237650k507918a695411H55095N71705a32732
13740C336479p46437a25718A083396P12607J829082K103698j008724k48261M96870
13731D968668M11802j804917j670365J967896J443835j607269H52898b098163
13722b947755B103214J245821b085327d285B967087N44545J197397N75132j299705
13713C984456p57520q12287F13161b524804k082228J818403q97196m99186j205547
13704e390558o81134J509610J969007B62499J14104a794066e9483A648594n12119
13695A136475E05288J8138N15454b58259l029253m34640a27455D51466g81193
13685b070428j048688j585898k9200J826529m54300G25535K352899g8412H80851
13675I3846J178798k48286R604K6055k12221K151685j093873J085718J025194
13666D016520J97048J228511q56914a73180l886742b027497b06969H68682P49956
13657A618638o70885R62011P243c686258l61177q36834k166647K116305J625258
13648c309353J477856A327517J268449l06524k67295j94117d91562j211889M61833
13639a241618K3597D82420K971908K83914A684841d108563N8982K018226N41377
13630a489978L41768B78796b36713j052699m05876n22703Q67741f2344r73448
13621a035792M48345J44816r00506d51673m39180d16674B66508b693481o06916
13612c300397J224899C414898K979524k205631B084129i24026k606213J69311
13604c360928d90976B431859A006267a251699r79635b91298e0122g526F27430
13594b134042l880087j144177L520779e53907D11429K79104R65115d33160j411469
13585a844629I58731K898942j82589i33743H29411R73887a484066l19378g7932
13575B184944J185403A222667k1039l92480H9409c650803q4148J452098P32333
13566a550520B66483L28292g66195a40155A905867q68842B80798a625776j09123
13557a734899E88116i80323H6118J231507J142545N38923o46031P36453j314733
13548A774782M17654h13077C131847J820107j869391j088885l30062c117461m783066
13539g900527P56677L444465g69991j746091k720088J341283M59822K38169J057126
13530b139770R77810N43918o30990B053868K226001J930722L402589k754786H01209
13520a248317d62782k641162k661791m6502a353565E03682b20039l683031j38957
13511d042027O2613K85913A205838H0247b182601j072534j064510K22109j79819
13502d277355N99644J049053M95141A334829K660852L95166j30265A817232D18186
13492a83829j997777l204515l38949K446293J190092K99617a29367B422727P95751
13483C218478k73347I26418e150700l449535N71881J554180p2853k906165l56505
13474i809697L095951k112580L24273P34470K433204a444683C93081c737411m333
13465c741744k272260K319987M27538a534513B22027J457682K146861e90904m467952
13456e058856k46380K486087f74278B155432K770707J30120J078901N7825l059498
13447C133487A250760a174499K8421j055223a69045A008149J75888l59754h91661
13437A193650K792830m71262j186357F11205c590932k007953M84778j10953N43853
13428d681207J500254q74349q23259a640803A479583J808079j134382a35219n43684
13419f78903k916069J711420B039177K611539J712760k049599r81560B75524c43002
13409B642889H8251i48200B283634J387967l46270j554002O87133J221339r78409
13400B701392H33651e38395m276614r73060K666417a193179c23407p90281M07548
13391g06140A431155O62667P48363E22022c40202F12529J888676J885849L751486
13382H138540J64750m47444k628857p03165j070912r83636a58290j560175h57586
13372A857302O88534M452a311928l339409L5908b045314O21484f33843A414645
13362g2543q80332g9166D42237a405323b62784E90695c23981j057810A88171R73516
13352A161687a684891L50281d67596D17668g18531a86567o02368j00774B29530
13342E15091f46407k309235l416496k402202O50906L491777J286205p14175J867504
13333b192123j49694c49962o96699j366225k524650j931695k108805K217371b991465
13323a845980P35278D843450K309870l467548a086936A118933L718085R70399
13315E807417k542343D48542c869759j826948J358155L61170l139274K365437
13307d751219G55177e29938n24775M95250D30818b10143A655398M573855Q76005
13298G105258j810719r81721k059045k98289j08289R48056l59247N46824f93781
13288G85112P83237b406484R36118k091581p05564J864668I97740M486659O3993
13279E548392A795410a537680m506705l402030M464019H80376L57080e50830k89965
13270h40795k679044j506472d09055C798942E34559d269913p39215J20691G49238
13260E211942A539834a950076J82668B129835M200097C140299b771579k674573
13252e446152J372051f66866L00492j013351R3405m82303A22252K183490N95197
13243B900939q26082d314290j326769a761143n68835h53953B324386D78689b796996
13233b378062N04438l46790j342429m11245a727015A276804J617399Q7647L50448
13224C332298L057772k512729H59728j37699k61700J419160a19117n76890l217242
13215c913249j255744a689248a48739n05595D18729K27069E1899K276929L606848
13206E935676J53684r30705P49926O91996k022552j833586b41117B802289K181845
13197D984134H01857e799419J463156A828305K515936k80386K07518a176756j323584
13188b500340q32731q11422J189898a400944D060238M81438A647908j69221R03732
13179B382419m48722k38523K772129J230844j719470L48994R10541m110K277312
13170G511414J634966j564098j980805k362974A201907m49915J8317K125574l68929
13161B526954R49779P88428P53336j122922J166756N3074F38357R0533L418204
13152D147094J096022J47387k637679j274568J105003p75781L97092K10111A015210
13142a028224c94439J12182l667086a586196j433150k565439j144985O96061b720897
13132A097337O5715b11898k635228j243626j610920k595207r46274M492061a674630
13122a095512D11247A07573a182854C4611b38210l056814J501615B85615d82862
13112a654652M57157A13194a130422k395813k658354R42362K166021R91667b91610
13102B432280J604001b30487m51269Q258k817709m940871n83136c838289e99440
13092a614997m48880e38389b44971j055586j873663A343180L084215M84023j909205
13083C002213p81053J56266C80004A9019a121601c92981A716158R98892J079483
13074C794533K823993B791754A153993b019068m429354L128000B094897J412014
13066C506911J257009j649159C23790a546229l435744K032403J267891I7422O22584
13057G20006P28299Q55816r36155e77154K66924l016043M45468B130308R92826
13048C123134A410380L60574m01914J415861a99805l815889B84861L318124N79884
13039D182869A067756c958518a880487A508413K501642J161450J182684m54827
13031E899362B826401B65906K82055j73482b130677f94446D349698J936116M57387
13022F743201C185342G41491M292257J1013C98395d976510j727308k05809n96043
13013g505670l10537N1724R19156k613907P46490L260093J385709a897264D312156
13003D968494A963912J072441J350057l44491j999808b480261d17205B399858
12994D153210N68608B96836b379957a044014A70555P91515J256060K554739J543870
12985F316739j512429k19522k80618O06988a093540k645738l67641P55585j515049
12976d866383r51577j723142J664452b683564q71746q9549J047005P91365O11874
12967a194615j888296C22056L053707j71748I59958b496236r83808J231019B040518
12957D369543C86315b819520R39220j64867N30975d52798B319643P15495i53033
12947I10060D34935c837092k130248k523826K063289K384911C08313K188770Q04034
12938C301117j493782P19709b77737j753230m22415F64276L317734K129223j728731
12929D382502j194123a727354h45558A545130J881577L459651j59136j508794
12921E218428r77420A939440L057532L820534r01146k607613B189020F3527K28927
12912B92454M40384M337824P72342j934805o74735a86214j881284G6117L441044
12903C517161K533063L079224N406308N983794K666693O239940N685983J4316100
12895D9428266K5787758M7177200Q2336498J04221464K5115409q3967983r4026555
12888A56072057n8398513l3182953j9358666q671784q236758l411585k907913
12881B1903885k286997m747585m589734q01981N92097m927559j172150L455192
12873G425168O20446j442962j428602j469689N21616L998837J329435l516330
12865F037919j828202l29610j666578F7662M94732J637628A16437a458600B480918
12855D842271L899285j887096k33518B725550a773704b77850A822292p83345K053855
12846C092802A015729L03491J441115J159208o64013A81093h58580b30040j08261
12837c38301n256727l302424j9616J616701b212675K48901k142615b021639R73319
12828a048320L04665l73591n65604h38025B879232o75783d74393A42278J266966
12819A409244K139878j88027A235041c32044F21041A5205K792529L09969B77337
12809a247344k063603k66078J255530c25135J3453m86350K9383o78838A467444
12799h9607j99500A963199F79634a177941c67422E60955L58333j02155l45042
12790D72091b106158j038194J550553C000099M536268k775357A820823J259951
12782C080774O35332j762631J15670n38804a020957k3083A077124L173681L120604
12773G371409K193462k999508l127467H50818c347504f68152H63242a688567j393190
12764c081757r45360J543621R26473k256061j918050k782294c734918D81874a382584
12754b818573N62484j022139j021898J66876a960359h90890b71709C97676O75900
12745A073576K510906k3232F68036a734795o56085k85442O8090B19766J049934
12736A269700J865062O36506B57499b332533a091517l08991j41461l397896j562947
12727f502812N94943L55490K700162a54437p62261k576104J302487O52895p85072
12718b322492C55675M046410n39409a45557I86764L354388o1689j701560f63726
12708D65536j65971Q63197E74633K12811J641657P38627j459762b390039k307357
12699d697396o03522J079172j08607R20227B087368J421143A110278D88346c075688
12689e747221b748486L4463j025809j069626b128535A439434K178462K297468
12681E915364k319436j607332n04828K797314B100235a843878p57906k78973j035825
12672c916582p1302r17713K159933k269146k566159J600410b371735J032999A003899
12662D092014A664357d0590B667053j053103a289891I92265K09863J092160J030404
12653C324692j561816g2103k335150P12290A54812M090568p72600j98511J326669
12644D600938j83214k080150a201394D75651d09919l4320C87122N924764L735227
12635A0047113K44488P72398k880413L96125P687578P820916N610633L788942
12627C3487780J0989526J7126416K9353466N7248561R6072541R0808294j3669990
12620C21416594r9632364q7024870m9274298k8406100j8406687j0564785m474586
12613B3632904n442622n815004J357223j398492l074099D207804A873271E99412
12604g0440C81081N87508a311711a47234D82279j10509J170011C51664K64689
12595F16353J275850Q01591j08004j181339L12017J997557L145271K581552m21474
12586I019374k509054k156754j819955J007309j4509p16816N60768K057453L735294
12577I163110k987653k400919r17766H10445D03355b74957C156251n97359f1976
12567A97908K106059f12266n01551k904562m289215J901530K002391M8354L79981
12558c975338R34204L75064a113395A58330N71445J284152J25864N18917r92444
12549A666264b129482j529177j263220o05385j809658l61654K444103K322060
12541b932413J56913k317737M25872J015742P41034J080397J85076m956828k327707
12532h929651L488313J987338k814477L067705k78263J568147J33720r19424A246776
12522D983258A501957n40127M72858m1561k52837J583520Q28789k48888O40273
12513C943984A396057E6893b950551l57518k34839g99507C10572O859625J393501
12504H563698m275599c65801k216633n95975J576601K56362e65799a86751B941546
12494C946411c35020k839745j971896k017578K682794J632582k275216J596849
12486c527230a662813C74226P55198J590584l53482A135426a074864q61039B34243
12476D253430R09536j708710l72981P46479J341429n65644j388657j577644M0844
12467A678082B54776c56873A984192q55560J940184j323188b64615j790190k894696
12458d949501K345080n35076r15830J609504A162423n07208a052279p87334A222975
12448D783568m1903k348676a56305j663925k377055J380697J281453k137050L73312
12439c298873j88847j212008K075364k88951e86607B52790L06470L144350c59351
12429a971234j003053q00625J334377L53144C25228K028975j115891b833156J354127
12420a479029e5467D28261f51181K12642n55624M5176B042585J583007E56133
12410c294099j376311j23482r29493J94850J369008c93420B996643J883060j24897
12401D754806A252466D04600e5847K5956l643801r38202b215799b67968B74515
12391C54555c280702k395818Q36046J993048J17706k013195l58960J007363J41238
12382c953274l053139M24588b589160B269382N09908L43950r01391a218414j384324
12373b602738d4630A336416a519087P41136A364151J658980A90589N89323N63408
12364A343320A24585b951122j653169a760210C047527L370909k29738j759164
12356D429534J303321j974233J387314o4695m65711J960287B934746A346644P57173
12347B103817b373613k146957J404997d53180G5785N05906K403076j382018i04382
12337a68116j421509K71971A006040M389378k6154o93731o60277j32856j924223
12328A958177M34232L690043J695803j018185j197892A917463d161166l796257
12320g957423K875382K211837R97513D11646J908357J094344A520781J995024
12312C515805o06969Q6992o97815B67292J157571B26113C3432K60101J622593
12303A916126K40593m92375a759705k081961a439128O17530j293857f92953k58960
12294i51913B503078P37972l25310j05673P72814j010421A167093J679512B62346
12284b46517l61999l052495M54753e53978D431142J411159N62420j541895A520135
12274F26750J502726L572491q49662B020754b814462j037840a483279a46762A231604
12264D706422r11450j657927K407682J439027G64546a257708E9879L821626L2284
12255C913789r27674F0735c223249k706740K48986b638048J072647k3190A917081
12245D698927q31173b23580G98718a123005l326559b153859I26970J882198C03727
12235c84840j369143A462965J341113a206591p16765A212817J891454A190914
12226b206405m22238J72026P74229J86008j8966G51161O20828f82886k613635
12217c296521k225879l069034K271841a960136A112551b531216m841110n69442
12209g941768l25084M76204K897521c8790E088231L45681B405063b22055l169719
12200c391774n40955Q86558d66495j217549j97445j79982j549274M23397j179331
12191d366679l10474j803431n41660m00579K423193i77873j33763I06880k31057
12182F75823f64352p56103k87915o07900K53460P7809Q5411h28059A521671K447229
12172C968900A586093a932837b1618B640987j62461J298432j98618A251734d99949
12162b57121A161888J462478j303962E39335L443041O38241k108206q01077a274232
12152D46933J013600K65551J058280j44869O41277o54226K481808j525373A583573
12142B041045J516219q55479e68512k539990L85936J340806A475393K171909A163090
12132C40727Q07124H5799c239393m47750b31981k489446k145573b320201h36693
12122b246662n79874F12341J381435d08200H99652O66141D51885N661J935542
12113B393088k58597i61955j264519h39899A98866J33690R0220d371909K055957
12104b315952L09263o24775J96302M79668K53767A955135P6623K56595J077843
12095C366196N66244a76703j673812O35962l265502K208394A22775a952126P70914
12086a181212L7758H384J243142i87720B68629L37905b593857j728679o07197
12077d929733R30724k07391N7359k159432K756948b19737l15618C48314K357662
12068B705976K249630A164131b679870Q90717G13017c68112n21316G54560o8359
12059F86201g36000k440846j413129j24890K048199A26475J183920J465788O38040
12050C414223A431271M2463b20554j638424f79991B62076O61858R7130f36357
12040a600700E474J621439L072618O87180O48680L67565q69940j581364A758974
12030A37513i58494j955652m557836l030034Q71582P43516J192442c583260L04295
12021c278965a332512b27858A113207J551313G58127K429656j58881j318924J172103
12012B882081O06045e092A161300j08680N84029J483285B27851g97722D66529
12002B770960M98331c89365l488434L43541J141126l71244R28576B783927q4041
11993B699886a461543b9974B686711L04327R69608A757349n69327j1827C14438
11983b85254o66526k036647n65558J388239i52622C309799M63469K338525L53438
11974F465231k795725j562873E08449J657701K975957l75358B152559o79631J263691
11965B736619j064879c83157k103031c4337C561219L679677R12983k984617A913585
11955g80507D28412M243289M808400l197012b183926j881656a989060A4972M99647
11946E14619A87411J709268K339934A979218F12081b398287l627449L78632M48807
11937e198297a865971k72758j323373R41187B319323N639365p53703j674511B446954
11927A482587a499339k160458f35261m03703j86546G54702J108044k47123q8690
11918A526933n19221c393660m57224d78808k76990A989481J827190m13566A60939
11908c698293a211333A126555e1846F9725P65712K211741L828512o70306J178222
11899G383606j986610A497282b06587k196710j46433A700425q1045a18881C68306
11889F0180a756959c84172D099986b34943l434840R04578a09580A257685M90401
11880A748086J434905K394214J133628k913790a862205l433104k469414L58090
11872g406633J525687K862632J484421j178910j243361J905964A742211J83799
11864A926010K364584J513415j426429F03587i16988C111913Q66513A498728o72124
11855H26604b22599k775269g32165A704103C32067f159779k848200m6633N39237
11846h515375J530631e09371A197099b223408m19374A911133K198597A410150
11837g57982D215595K499078O83553j166786P65887j824823A405961b866039a163784
11827e11876l163677J355111A455444M501947K546376l124391B440956q24761
11819A616195J486958j005898q59879L56493d32794j620048a014204G99260k54981
11810E44279b044873Q1869d85345G24800K076123J573956o10680g22199j786559
11801b508758k45049R20422C125622J496864G90974J70222b655548o053636l65530
11792i074714J067002K155365P68205J938541J047070b14969A361074e25131j632158
11783b157289k209804b037986G75762K38011c75085D95304f96251K9488A101922
11773B875446A419140c12034H00103K287409a184337j007551B150960j99597a167055
11763a281088b70819A510124J90490g3096A957102E40365b314171j232065e38511
11753B177334O30373B87100c154407J219440J74225e17739A762931a127234l420654
11744d547888J03834p9919J50824i68855J48948m81831L69805A72649m1192c04761
11733B253641J299118j020071J69879K905166l7215k337466j96210h5602q11733
11724h97335A916097J534631K474822j431034a055081j685143L82334j3697a121046
11714A697262j53330a118927j619801A395684p4654a470122c78226A229075E27637
11704c428048n147228J284058b753924a054546K738C68699J859850N53905A36668
11694A444369R11059a302144k683382J513071a053940A60689b848105l938547
11686f786652K403057J349918j857529l95354j303888j261255m6227L000055J882032
11677c015843d41487r1811j40148K01051k20031L30045j690196O32882A278670
11667A331124L571324J327182q45145j088721O5778R03338j086152r14888d46555
11657a381656H26224K919481P1052E44384J535471N19778F36383K446894j332599
11648A750678j7690J881479l40842A418527M19436R66741N57494N12286j143017
11639B731467m10538N321120N3121p58516l442237A5483f00658k911349J239316
11630b272691f91001k77540b42023B3778N462307L698215j812664B015948a781081
11620c612523a487117J2730p72111k74025K21993j567744l365707j039978J655106
11611f616853b632295h82164I7035M35411D8320J945991J909390G11798c430347
11601b405832A530022p13901c830672J297798F45905d091816n747472d553351
11592A275202J061081N35989b062566A385309M721577c03141m571442J032445
11584c842138e12692j14792K16191m57179m879126l076867j200909J94703L206263
11575f624408K757951M44700k409863J156200c55648A722577J731171K13579o21715
11566C045612J577378j005105I72881M71323Q87904C92156Q95231K719873G90297
11556H32321Q67134n97202g58617K99582j758236e87697j02171k524346N26499
11547b687715O97769q00673j751840j234165k098029L39882L586504c71389A535106
11537A477659h95281l816229J862430J240088l4970E10486J066442J858420j039934
11528B395414n88301A36107e72508j69676j429251l51197j305612a714857j383546
11519c098403j884106J456889k73633N99769L42837m9756P23501J020382m47164
11510a609684k22058j380845m497672r37596J694845K318546O50370k670653l380468
11501a0035215J152155d012700R21733k842153o51948K9359J262088K033433a437498
11491a032093A800362n29344b090435o74888m02259J419134j695160P64202J263033
11482a416373l034083k20916J299629B1336M880873o97293d79432j767178O64786
11473a581824o34462m94804a353724C71078A953a751976d36924B462626A218538
11463a223210A717698j18770G72664J165210a962473m702394k894091j460811
11455a1019769L346680K086046J413650J222655J292010m444078k892620J774025
11447g221401K542376k296086N00350f57938A230523A79045P44543K531585R07347
11438D362520J50166K308867J214617K542831m78809m380252B301390n21101a67717
11428c026981e69053A401211N69628j19636H57677J428684A43400h33256q81022
11419a714278j685799j304605J145086J642135O72047J47599d33059J42527A355591
11409D57707c321191j997279b091341D04028L264010K411859k873058d65008k60370
11400g25378j602468k042114q38104p2375h05661B707082I78921d382912K072218
11391b310694G29885k75266c459023j452191J516980i33349j786164q96190N7539
11382c558164l499214l313633j15010O12959J979556c778509R02521D4812J726297
11373A771109E81731j71621a840232j4533j765559H23252L013291j47004j825798
11364A863741K24207K051066q13273A24483b631479j10250r00660k509589r97147
11355g149125a137400C245628O61862K85804q83707F00432J276097E41426b7535
11345A495404n58227a539884j023803J095445n83608m81288r02215q62883j301550
11336e599786b358964j264055K58671a309962E50484K278675A54852b053020e42350
11326d8686A135719D98277L6596J81142P74068O64177J370507l58953a21551A37440
11315a479646l461018i65545B423439j102798a965541P20169P6418j531911J349335
11306a351530j393189m628694O36395R95530A052495N301243C068338I13920O38480
11297A552400n65308K125834J045909A682474g33359G31356Q12781a63258A361461
11287B913343a782672j880364g94201A127397M27026J05333B4331J153684Q88157
11278B066172r91157P79074i4052p22232B959234J228263j763418A48821c88510
11268B506517J462752j044759r11430o69002j7384K651560j505757a086887a91467
11258b144381j250116J120938O46578o49290r67776P64148M09557A664207f24484
11248B27464a794082m5128A285902n08261M47775a426540C79428j28284j22125
11239A29019M773109O796457q99547k285840j930492k201015Q58556j099767J540420
11230E680900K169821k044605B343807m0862J50386m93246e22349j178827r99367
11221b700543k928740K269864a152962l424110r2883a989562L72478n36261k036189
11212d189534b076321B836592K407804j947037j169618n0026i12489n9444j357497
11203b329430F67429a12302k608457m57707k00013D20415N91546a311834e94811
11193H61625K9918d37839o4014b7614j488081G22980N56481a053730j693324j025538
11183c772592B25243K715544A469712a31349D113462m4642F27551A346L199294
11174C200640L318142j253586j010172j134879a47896A948313J631883n07389
11166C072807k42281J834028k079791i44871j013998D84811J052293h51399I27641
11156B572297G89883O27428J737805j374835e06048r55688J74402a94349A726139
11146B685614N299851k31222B758863a487785B19973K028915J807583A009673
11137F51061J37225h4646B753799J451835q14620K227465j112899A241824e74588
11127G15123L9424d79170l704944m317526q98806r81139K109554K944132K657317
11118b670582i85414c30435A144678J868712J273601j883303b445957j054055
11110c500012A694142L725047M43028o15087p46399r94284J087438Q29229r09933
11101D513181C39013c268213J276092f33633a97489D43952A22765K55686a275951
11091a196065C25084J153444k83001a525323j574807j035768m97989j263073j047753
11082f944713J7613j352415N46302J808208K269361o2012N35123a220130j491035
11073b711165j097718d4039D717359l38736j108313A163390N66089K306216D05888
11063f50696C84633d170444j112102J183009k156862j0774k521171k427014J734637
11054i480721m42516L576848L064164J111094B15429J951691G00992a21208j492798
11045a614006N45901n96063j183151j791519L14150a114734B321293l38594B93540
11035I87799M40966J492012J193027M586485k848111A115731f15625m42897A647160
11025a683250k472803a135909b58357F04115M76410K671211j441052a407336I41493
11015B532013Q69153K264545j847193j188662M46831j493867a331356p85155A784781
11005C287817m04093c27529k594015i42865B14497H9496b099341k884068k396609
10996g380018J813954J865167K5907n234883J045113h09711A994387p91656K26583
10987A429314R16845L98636B63283c993023L97092N6608c26362A331198f9927
10977I25720f44113K5196J99723q49468B60087b701107j324467j009073j702422
10968f737069K135490a090773A644344J040541q95916j95825a208015c48890A402296
10958A328120E48104r2748g28682B316955K894409M98674K171128k132470j669657
10949D079039A932418D29631G8889a467012j136476p30755j33277c23312A29630
10939a372670L40703C142998J239507j668525D83659a47214C49727J419263H12919
10929H20020e13630B38496K184143m13479O55237I76813A1345J111005m32472
10920F89878K005290q73115R68308L323419j186365J43924J502084k906505D21843
10910b081035A20755K010540L31059A200684R76843k17690r51647l2020a313874
10900a515302K8592j11064j358438j957508K23779a932433H28736d499854m70038
10891d969892J637389l512608O37858K681365a696872J81747A339417K140532
10883C479949j14278A60930b255148j58866B874052J770893A296170E18078a332694
10873H63042R61494A68261N059392O481180k306600k836920k530912j723741e28918
10863i1963B539546B63335a418189j902254a252939A040123J410854N95465j084570
10854A961872e209014k226882J634939J560092a239760k086934n36321J450221
10846b412794l984328J115515Q77200j044400J307939q90497j743088J89425J642195
10837d942833M49940j808474q37254K795567h51476A518777R06991K53822j6526
10828B663064k89570o95683i17050j970866r25502o72937R70502J004492R99209
10819a512152K27341J39025l0096j72333B820095P93324i01372k298037k525710
10810e725119o05287j326173j764473J367673K522350e09965B948157N722J821571
10801D775450L841332P65j125308k654589j645506d39863m685315k904284K696887
10792e332575K382256R66961K10364B072525O76877i14993j309159l11995A297144
10782C621766A444285L09123K735947j048533f14019k204222l343127j203192
10774g364560L058171a391225j367886k8672C83237N78586d871604j958030K420990
10765d408644a654432L94343l29929d32155J23361B52492R09525M52294a786238
10755c323435a117369B73153a146417n71270A821845K31347b91183C11350K205983
10746B517333q88918o21693f3444m70281j4267j510837a34502j151832a69414
10736F58095K731255q53906c96867l791327q92155e74679O8363k069404j295001
10727c870721J48537M95230d52235l8098m449916m227549r82771l23500M888385
10718e585684K123366j295271J319017k411013r18074c255157G440K710968J926312
10709D644720o35883m41514K305376K929656k901739k791571j22717j176375h49560
10699C80690A08310J949612k60828F82210M21956m38926b098477o23510M17560
10690b304427j038934G30973L639686j105571a384527m223686k948054K865336
10682e690931J701368k801707l75745K875569J419741n10117l572107O18157K054774
10673d280998J841459k247j196748l638309L311399A378915O34705J649255j190763
10664B472112p9820L68539R91061J291931b85025j427111A24141K906567k81455
10655B749253j055749p30946K840917L257126q99372A210843b146099j168495
10647c314594M1826n01660j117844J937641A66897Q03892C0884a517662k053393
10638c571055k12058b38801n54220m499854j220426L118919A989885a697191k043824
10629c741015a556271E72290e91505k31040B966965J058438I15449g97678D44459
10619c356432l636271l34575O59161J742717e77627B671559R55850j385737a6254
10609A853413J59337J82994p35727J75089J491035P82916A008245a500905n912
10600a506817c00120n37263q12898A070433J960731j99994m82589o14732M04323
10591B138172L52825K20147L6802P53249A661887o25788b636146O10790d08889
10581a990335o42380f83057j824244k371999L88956b10629C008754J817803q25630
10572D000927j572699M15986R7377L864294j587233D7776J198928a089107k524679
10563c613786a204159A143258C70594d21554B999712J430093n98313A281655c146044
10553e236678h73972B042646k79372L04951J551946j248693b354050q50325f02443
10543b34083A374200K331477j48246I57103K40745m07369a31110E31346j4557
10534E16789a708256k929981N20525g49422C511946K874880M60197J197155j96902
10525G847276C444639E96539M8239M433275L083739k866484A973531o70131K059941
10516C363341Q7005Q98966Q00184k083946g23338l812746a958929i00135B53781
10506C789485j369638b723675m415943j883004R33067c512155C642J371365P89918
10497B164925o05288C34965a800062k151058M80443Q4546A29687J006427K083233
10488C219347J725921K096806J680822l805676B341264b733256n710003P69062
10480g674197c748610A890447L31420h50907n59028O18970p70614k120456n49743
10471d231778a915142n47829k323967K129569F52020L95402b761058j499317R14898
10462c345477j088786q95685j737074l536143L119020L597241J570093e5553j54713
10453b10266j537283f06225A064030P93985R67859k43793N218444J60693B677147
10443A213894D60548f68103n28163A20387L7545d20853A122978m2167C65915j34727
10433B31188R84041N35743R19465Q3366q72132J244087L250599P77090q81924
10424F271523j118051q62608Q51540A686654a882169B046927K729924k58926j615152
10415B902773e02056k608791J54190o58443k104458p03901k675427R36990b847587
10405A002575B89094b527984h97529p8114n38439L26692A406319K646756j365702
10396B687373e737665j73519A265995l75901b971526j561136j5873i40969F4047
10386G04356L012554L562285N68798r1737J809423k873826k677414q6239A130401
10376H14262K113811Q91956K62136j445025l30517a397402j960869B209789L851309
10367F061098n69024N25660r50974k501083H13599N62444L70706H15282K908427
10358C723709O98065J600976k432537j408313q3701L78298G65179J377681J639203
10349C782063r64815j385473J243344K742688A624163n3896L095367B003690j57726
10340A845964e43981j946840J113996B00005M83053i49467c42154j037095j13315
10331a492564l94490j593186l27672J204806R66182j706153j723626L47473a749381
10321c014691k298445k79757p02200j299259O63008K237735b279922k985721k041514
10312g307157j727941L63061L305987c47089A631432i80175n93033j21624e64841
10302A207393O2049C91409a500140H3806J314250g42151j796404o67454q89334
10293d095343m12367l725756p78365L689694J42976o37426J859991k866963q97416
10284g720975b715319g75362F07733J419441b92603j251299N28912H31624K491782
10275C323406R55562j706048c1337B15102e11804D63918J408157H05773j51534
10266F54239c0011j733008o317903Q37099L266661J102433n63791M53780j21863
10257c106603E36586K215669g39711A480195L880311k617116c13256j606282O31689
10248a287849j217331n8440e58130A791378R37116G2086b093221c47232A470346
10238C432501p32997h9049m851056R92684k502325J340970a704309N60205j907540
10229c051644J334066Q47155k389511A151379M680723k630841j336697B51602
10220C36670O94566R9272D53788k9543a570384o41279J007372a642j95443k47664
10210d44749H57192b04073j434233A674095K153535r55040r9888b007799k592209
10201d600008O54857r56183A46579J156046d08031B039029R52199C95665g68434
10191a042744j284065j090748J491223A6586b975099q43071a36701I43811k85462
10182F58349c284197J162387C415070J543981B007531G84322b714735l148749
10174e863484b808288a317405j446317N97137R59738k723028j273121l13828J245312
10165d271512a805692B506070J949026l00346J025936L91273E59300a133502j903542
10156c037044r17834k797180m288118J031065d803657J535728j304866a917132
10147F93239J32072r1032L89047n6089J355107a919979k220773k090901b355899
10137H38313N96809j93375n86047f56929j141894j035699k009572k466923N76688
10128f734329Q90435j335307j413410K065679O24146K697129A291912b171486
10119d317115a513148C010611q68179c962135l880970K29188c285544f63149q11682
10110a474831n26261A455483J128413q59914M98774K175454K523217O86946j088214
10101F520159j901635j745581G72002c024086N93036C201897l92987G65362A25109
10091c531049L39861C04573J778265m90532g40612m10960D32870L555000A234956
10081f07362G29784b934518j781891a730356C09612d29681k642334N49358J223020
10072a299637J89819k249881j542469J77118j111756m552742j299166K946650
10064h742064L405336b085402k113499j2480m92425Q36518R59709K49548c6889
10054a359492J84308F32154J419356m872N54540J42513A084194J093387K275223
10045D452804A954602E77852K520598M807697k150384F93415L469J143663e99316
10035i32384k502857R98745A267820i73752p97089P83199d21083B959624J404458
10026D364082o14506j054407E75869b185030n09583r8889i56823D384L170197
10017C174581K161140J490887Q94208k259752a167984m020482j059416K026787
10009d221095j97231a612355A852025K797206A349518j41510J984023b69314k363438
10000b632752h07885l053706n1731J197305J311086e35003j674275m003830k854741
9991i067849J068847b661879E41940M34014b87981m127462k834920J60079k00037
9982g290321K983855J768856k104210J135766l59881l582138j689119d264909
9973a803998d48850D64220J325818a05083j426951d43640k001702k210517N32183
9964d123676a474461B043814p33146a267881j524068N97007A453193R43608h5089
9954E69861a935118j072627O56740k348122j065150R87953N6696a12126E399959
9944B705275f16501k305825d69333p0128H40380M597702A972782a771597D90447
9934A743135b12264n235421R01766d57517j26445j557162A711422F66969f20916
9924C35841a897803A021575J001453o21752h27662j921256J084774O8271a99665
9914C888602j58321A723612H0457c170770k725362b608034G39415M11407J514255
9905B665077I36877J368152K24102c48831j862435C274391M590837k474262A266388
9895F2267L218003J170038K072342J010378O39687J336631j608269B957169H15112
9885B798864N79172j634328O16086J462775A072950a255035o08953p68492L52051
9876b280429j748527J328852G17651J278554K074879m7386A469694e407937k858340
9867h266277L022686a432595A368037a819529M25490B201063d15442j610991l17443
9858b343876E66556R17454J712376o20222J92130J756966J769457l128740a288455
9848C25098K784101K201265K57348k776325f03549J08624j632167l761049j290075
9839g178216J766550m35009k553007K750809a911668G70808B04026K028087L486422
9830E718535K31284k551463A86984c352536l62539o4312J347301i12274D930602
9820E745280B173603M76053j18842q30777b22627k075089i97881H21863l241J367178
9810B185800R19288L32579J239443j520303a74638j437395o18107k03908a184030
9800A529304L475517K69384B183549i42726j741475a269122C34394a846325j932747
9791c779072k871839m20831K759297R03280m68339a829006A637359p4768b93652
9781C717307k58117J107438J720875B743952j272700M35613K49162K031196K320551
9772F507774l15129B462158I69665J500523O52180L431351R7536m14505F49690
9762a294161C785072p58570j231076g77585I87567l24269f28731H62038J285007
9753B147045L879649L035622C562291f54336B721577K082051j839221I71883a756389
9743d855379a392103J02331k766649k596462K65513K341962e33089A776751d29406
9733a061700K6137j803698m76740j735077a520426D194140l53198I60508a09204
9723c745306j063012O79737q79737J534489A520907L783110p12518A022431j79559
9714H42872i29474m547869K720711B595271J415606A765763B7749c154592m01375
9705c555967a686196f9466H87269M25642K661565j126328j364190i24474k274543
9696c199017a414929O92468C86838J592905O03141j05439J8122b60210l554087
9687c814297J467873A555251C94251d77499a7508H32971K60643j69440C2395d818458
9676i192917J996579P96449J468691B248K333701K036109R30982k380227b458024
9666g863028K971770J646856J29079h29308B919470J398957E17576b129604f16179
9656g8690G8005a254326g9204m25364k849480J610394k947922m382140K586012
9647f487704b247098d08934A89939f97857k032559j254950O20255a643170O80135
9638i63035j846130j421338k37107K085370F59101K325472J515169M45914j467941
9629C477715C29120e341418k680741L536991a413557f15091n45363J38649j280803
9620b302608B34134L146218m82365j347608j44479E76415J126555M52438Q91478
9611C046886o62756J663066L761341C461752a505492N03759c49557A302765J15375
9602A418140a39357k883157l042926Q87945a976809b54419G90773N236682M725797
9593A0753252k086212r63682B901813b240131l168349n98703b828163C7826b272010
9583b387571n196n04980A715286L665163A740010c556180a459355A044211a139036
9573h52397c05108k793831k90294A38577m4105a359510p21826j654725a777086
9563B68614e239889K57646b434695i65144j364457L4762q98322J055125Q27217
9554a310819N02626M3302b64917A798639a277605B26591M688676F38703a807687
9544A197686M545927J621185C371787c658960l031511r67965J580773r98386p52732
9535g828781K805823b311524h48857A200658B61825b418204f70168B645766J715644
9526D361410o5327q90579r5041A84008K23226k2652a099872A118761K158844m86394
9516B791211j338602J600156A251890b937558f68245J89073A709581M045701n6252
9507E699030j680681Q57912p7072O28772J136653M28458B630960l64255R68527
9498C235232J432166j922373K158575P03320B396201K711046M84600k154665A212141
9488G90245m8734R26264M24405Q27488A029395E1949b512022n06454J222212g45579
9477D78729e22655j322389r44758k079803M03182a996147j027834j278931k271350
9468f574262j301329J763298J246553P65489a814350r45330j608358a408952o40512
9459b049464j590835l901348l34935K229042O16456M30726L67840f38186O2805
9450e75381D52014c401117k679828b758494d44225n62818j596302J269376A321673
9440C674383r29528b95012k958950Q37951A44933L539978k99258J77653q34671
9431B728635b95767A338094J119948j203371b112872k152259n19169b184193B345165
9421D508198K90421M50632j616069E08021a01653F26486O0639L63574J482352
9412B533051A163003A3528J524382F95317J674502K486017K511676P26403l541460
9403D552455j612596J783748N29977M79911j859834m74823K851168p86825k425905
9394C037276e70030j891309e02897A068946L972937p61353A569610A73740h47871
9384b531204l569604J034028K411847J265264J08392j146425r53476p20934a375144
9374g45513F66067M608199j014926G81515h82015r64585l183220J16193b307663
9364g0266p34598q03986H33465a187364l34620k008162k374481o49464a386548
9354C156173j370059E20077a290411k006232P14955A745702L791641L71599B163919
9344a427418l282912a907660G48756K334548J112954A654346c118197k353557
9336e471754K157989h42023J6686r50294k782554a667293D0745b060943b07020
9326E358106j089720A623639J448937A342942O78104F01936K96276J361366B04872
9316c020566f11508h9819k480714r33033O22806M76965p30628n72487e63165D496364
9305E015077k137150A141970k54480J295969B75583C1076J296967M043228K423638
9296G794909l210355R79292k534512d27026r41524o13847J82099k945680o96996
9287e442974K399135E46730O35551b223677O96681C327a118380d46780m60328
9278i07108k61125r92417m72355c15270I21005Q4985R3895R65151P74122J256556
9268D095714L22806j128501e36233B226181K828492j342828j172927c562969j273280
9259d836249a341471B667621L282958P66191k284452N12772j677603g04140B181083
9249C212400A188211a629136l282126O81099J65614j622488J98129K155379J135013
9240b198516a063257j47117E51202J301734A87493a713017j242517l13697l47389
9231c616620a358921C399215N53775J278366J305205k127047I06068c404016j5793
9222c419809A975228K569576j367247J175963j678177a742509o03776p58361I62379
9212B555937k13892L61276q48167K841624M99419A896642J687195j456029a542907
9202G22751K373157K577964q11816A443268b016071P04948B300104M11990J020335
9193C732429Q60660A117510g67341j969084K90764g92213r37546M23179b68064
9183a554031g58816b03498k94756A138906G4595a794839n58968Q85579M14370
9174a053858A813435L359501c23086l361861a608269A9804K956884L059756o23780
9165E412664J866222r44318E73262c879205l608966c632657a448344D94729L52479
9156H47208J707966J681610J936021j13315B651417c311699k185374a218376B223516
9146C825406J731885k041393E42866d695772a978743A55762a250262l067382l419825
9137g737469m053L156784K186653J003640m97700h22861C78629L57471J63091
9128H99191K591298L311414K699096k918555q28148J712923k066505M38226J045085
9119F884025A142108a701618A668245K529789R49400L15643j02027k48947k273080
9110B839023g7518B357908A142714b98952A643667n63040c572625p42314a534264
9100h15820K5106n240614q27231c324101C30217J534904j7751j32098m79740K267170
9090C502702Q36541A112044C74145K513735L493035J069112l537537F97498D6953
9080A334906b51134m451726j751315J499573b370918J116165n44813n55545j236160
9071c591271R86933E410285J680831k024183G49036c603318j533480P45358K061468
9062b329972L78670j315689D29982M561010r04103b659550k355636b101282b32731
9052A975983k0111d73791k186279L71522R14844j283947m232012J031213j833169
9043g691619K67383c088358a290162j284707L42203H75121D01654N65435K189877
9034C156966Q38353j978256p8076J752754I69981O14098j77516m79434A16016
9024b04002B29172L849805J092127j613970F82879A74880i77719m14143G92446
9014C295278J690020j075952L917984q02755B062654h0995E9043K758603K228145
9005E045791j351990q00758J539512o32307G25196J25491R08749O74065L98178
8996B831679H35935J258743J229852n25957b53004A965203L942897Q11579j641992
8987E077687c39677H34084J913686P2925J57655r92445K615625J376815k177658
8978C800687b62894o0160A513458q9775a54546C40114K66322a90020j32875A213903
8967B479542b61420B034120K494988K32465O47976j018110b912136k123495a627954
8957B06980J673742Q22372L38262j279820a622682l429113K389984A637500f35600
8947b825171i04647G99881h47970k279336m51008i59139A009054L27356a237071
8937b824330h43331B588023J500463Q68228k179378n17853J211368j532588J265847
8928C204110M216654M087466j980249m304409j572004A022062J746665J094202
8920C862929B6452J65880h29656k36806L01333A47916d926783K382596B68127
8910b315996k25045F78946K160480c242081a390317F83101J816494J825360J38490
8901D463445N98162B396034i03540j36807A266394G9868f171730j118284K912148
8892d377866R37263J429847b10485D540747O51937B538670A215771q7418J319285
8883B447638A165906b523647a080127B935899A348567O50273R10804a282751k951999
8874d234750E0340K253729r38896c82228n912383j613019L458795R45594j202796
8865d706037J158425E52692f40666F2110L185168J764409K67364N6219K362097
8856G697367J753564M57187l553156k730587m33532J710159j795446j400867K11155
8847A915844d46732j044445C31075J168741M32640G92592l15396M52602B68164
8837g20656a37949A763946G72371h6096H28665C57623K433620J140674O25351
8828D557268K375861A853609b352361F76278J305961b040472n78493J07316k804474
8819e316123L42022k71419j887564K331215b031631A282883K763101R30821j069564
8810C907241r83163C49637j39990J862876O06427J9304F66605b887974J20839
8801b767135m04716l03998a020722M64561j486324P35525j18841j582036A063723
8791B236788K900237j993355A26302O23270K494587J139025A442041c49800D163846
8781E819829j352132O02679G81881B26381O88778K57651K148826L047446J407108
8772G776190l095934k209356J665433L43537B044394b782022L27520E49463J842916
8763B392379J542232o7343k08361N01846A146820C9597M44018g68729m51257K34807
8753i85179m026631J319901A992047J604439m87066J14127a58840l6746A388126
8743A953558b72175n21844F43525M156860o96720E99422J208797J759566k2782
8734C545003o61129B82112g823240k146223J572159K188769R49187L31229b383178
8724b222543R42432G0297J009809K485746J243203A542077m51624K308613o51724
8715B747342j029587k58781E01436f57968B011585K562793n32814j888135K494454
8706D647883J108047B493663c908329n180398k662798J830687O98393M11353M136623
8697d674469b010424B397023L769113n95599k582150f23193k891091K49830a001034
8687a863900l638641J208605c91529L863n05967a15681E07583a331798q86548
8678b218346n290732k504731L297686p74982K670035J276367h60244j583451N07575
8669a936120j051171N22187F10721L73525Q34296A26192c75156B511164J147361
8660C658525A29109f312708p20614c486596a480497j615190l127001K16271N55989
8651e450428J597376Q69947J034740j283960m48752a654992l512676N88646k624743
8642g203765L290090G99676L80034a291824j129998P2251A95038p7749a216555
8632C61384K570193J84893m95147j255470b719536j88715j556772J873479A154863
8622A952484F08483B29258K645291F00214a992721j258449P39997q12258a262876
8612a862248n891965j03212b834711A47621a90368A131042N48785h22122n58752
8603a380874B178856J517090C03770m3602R9370b19343G42011J970257K08420
8594B920688G34683K78734O76173M39102a191263j903558a148122A207944K357843
8585C565787J440961k502021n50009J448410I08186a005574j843913k334613P92469
8576d391631j585445K029761J908003l9587O744j797119a575754k461682l108625
8567g146061b934632A458448K748901M09686p39793B67875a605805A186591M844122
8558F030713J405989k42667J500619j627800j517248L300026r29745j451269l229335
8549C239283F88814e82734k667988A09326K942271g87058b31914B123113D07338
8539B301010f4041j087465l71025A56130K574285A218125a091022j718246A331532
8529C541137F00971g82446j403530q29647R12460H29760K68120J340934L587920
8520F026734q13196B323149N46093o62913Q90483L097407B440387d82808B73349
8510A329111j36535g45727l282850k268698k064480L835903b187229K29250M11894
8501a546085O16041f2310D161744K438689o47551k51413j615731j476876J917967
8492D526829r64993j358064K629695R06075j008133j215743K035924r12B565795
8482C008130M6542P95692A63347e229511l56453k759609k035330J543974d416650
8472a438035d51128E52603N794592J459160l666249j802796a71124A063643M774579
8463E838222p81930j546495J010423J634466K098267k092321j619249K22064I4698
8453c870142J298184J242036H10177a3993C6512h3535o53573k508916j581985
8444d828009J319515J229775j88126a098044C81312J128263e58919P6625C869277
8434D883083A067115e9412j250833e15486B217051a85396m385414j013379j703622
8425g287811J532677b828956a095964A730689K98321J965274K165444j088297
8417E071431j104316A765689L470407j728662A318984M725266l1174A873624b326986
8407b860146a330266A809625P19029e69535C33866M063016B179594d658900j062318
8398e721218K365411J93084B1033N654619k178675P78721J939704k077579A153800
8388b63680j058158j34492j601504J362956l80638j159194j052389j373542j373933
8379g034574K358340K015678e14285k025466j149941j330993b353111J140405
8371a212706n70783j428755o79501l61652j08356a901638g32179A4401c228945
8361b558086q26047d99602B833764J25505p44383h3618m263387K007679K76566
8352b062760d69518D592380L323185J006869k786737k009148C16151a930247n46751
8343b476998J21185Q51456e11845H56448a611950j151582i10890j4157e5657r06921
8333i62578K41424A610096I7058c51334g5302B74053d90486m49938B920999L557524
8323F478523q67567A003514m29498J342477F2031A9792b214647j5972A412661
8313A680537B57742P2300a927796Q94078L2161c31432j341560j032096b73145
8303a9419A459735K317762j560786A051379B18327h05065k459643R01179D61855
8293B591756J02923G52469Q91349A1759c539141j855414P16082J876973B44739
8283B721282j024725B80393g14521j146731P74123r92661j670632j895983j613858
8274g260263J575117K785696Q79808j192516a083446M61868j852822e3336A102320
8264A728220J913519j623083r09881l41390B76520a385337G85836l72412O01458
8255A014882J305516j8550b238370l035919J434k130295L641778a037427j820963
8246b858390j441674a442154B150112A005296K469166K004903j162363j103824
8238C213178j455053c972191k254251O89453K641184B200125J596957j490454
8230B306628a814778f8201q02134k399798G79136J518291i58865q593D835125
8220G713928k255643B067181a234393k126611J041617j947163R02979j709257
8212e072828J434099k22051i82597d37449j831643J091014C322011J645151k028902
8203B938260j38586j66309b08968k6010B622898n53991C76038J526441J968469
8194C870948O49937m91408A912374K63267Q33105B18288a90162l07283B96304
8184A673978J650533o01944o69708r48218J863307P10290I28502i38902k77560
8175a216462b26195C269884R95197J404501M837638M176113K52327L35458L645653
8166A8916771K147483K603254O325834R508156J7723072L2713771O1447907J11228288
8158B62614536J14468235l1569181j24970334q8504971m8252896k4338661j6867089
8151D2579639j3602612n690690p305069p538440K28070k375969j111234B272303
8142f15950D130508m10382e24691k093490n77377N87077a087722E11440L172184
8133C683624J873971J341786k348369A243142L45915i37013n14237C85812K478839
8124B864651J594574k98597J133133J063414k644556A583050o10623K063218p61058
8115B274587d72507l244949k168988q66910M29205P27465J737178q45685a786100
8105E566462M783705l79013m248447B513957B9572Q94947L358371j198241j275297
8096A809352p44267m21192O64199h18211a02579D274206L182652L11807N24177
8087H292842k708126D15112i92883L81026j57104o72046D619850K417078C091278
8077B1487P10804L182711K097079j455625I93494j82942j97768E817K08545M49718
8067F64080J756813K655264P57139j632457j539411J079587j789702o90230J591159
8058B852242J321537j412983A231611k61832O73669J330603M06940q14311O71783
8049C238463G73246h55368D32759K042874R21432j676754J334896R2467r68661
8040B179013G23635c68849A423050l6142b287396g48320A184882K725979p30990
8031C179871J113658J273447n23680H68066b622898j66190C47535J509766m79392
8022A377909e69814j078169o76363n29534J369650k87569m52481A03115J506146
8013A609261a4306j461898N92755r8258n32526a27924G37020b89172k572448j859757
8003d721377a061601G13006a045632e02711j01924K55899D858299j516716A527392
7993E207083M147238k30336k871328j975018j159736J363343O90158A448613c059551
7983d362457L32205J388064O07464B25954a442041j646062o08781k958689K245264
7974d410309A288088N107478B762405f47846A541993K215951R44655m85854j479744
7965B737001G71467R70992K650743J721327k687842f28669A751438O57522o22498
7956A786462R56690j14570R41970Q75208A641939N20026P5289r11485b87323B55169
7945I79403M15051q5504D74931A66363Q15008e087514K54485K214606N145P14886
7935a898392N78774d86901j350282j314515r25738o22951N39060J352095k538921
7926e348153k716479c823965B891893K395709k070314a583151F863a74619o13206
7917g87825B45693b250405p53973R62374g042A951311l78485a264707E064K173964
7907B179028g58910k422217a459819A327472E07140n9540J808428k83458J821651
7898C794221L325362r55177k997373O54768M069556l579243b6601B88896b458459
7888c104415P63732O30387l16696l607775j121942b879641I63806m61229A70781
7878F62294e95559j053624E17571L341690A806542b886965B94445L546367J715358
7869E556170k41678K074286k230556e317k863318O12290q65968j957172L54866
7860d724619j00622J39701J013664Q3647N11256J429007L4074a66842k969685
7851c136527j515462j242358b270337A285460j69869K755831m31950A254531b319871
7841A231414L809865p98132A399100c023513j369259e71006B833274f70078m24311
7832a094389H63330K264881J079920q94524K201919j268948j115653L659697J580828
7823H371450m012494j353564J557127p62111I01630J598135M024932q10442j704823
7814D009432o28730i1456m630228m44616N19601j184631a703114A104846Q23930
7805A928776a461102l247999n6892K121738P03295F89357L166742K410195l000925
7796C265369j139568h1585j198919B505951M51561g62803k976406j025794J017292
7787c747711Q24098e46286F72172L51481a665418l280360J363877J737332N84756
7778a259813C098305j3572J874214j372605b319774l067297b497393C060927a207572
7768d521614R29785j808642J82951Q59964a192387j60727d32781B43631J070378
7759A314009e39425m268039J566951q79134k56603j564614J045271e4018D94518
7749A8069a60829j777483q41996a164264M78280j607753h58209L76980o09748
7740a090977J36311E275608K615602C342556j438731D39290a402529g1269A330840
7730G95071K052894k44897a325397A111558K437969H13358d166962a784547B750499
7720e58502j081128A995390M337948m58772j848141M8489q54260j220610q58003
7711A142041N40821E76852a416694K69993K08676d8600I93416a498520l314117
7702d812637r48907J493628j572481J305141B58999K575875G20858N94159O64992
7693A980009K20073R27343J945543J676596I15160c77974B632325N41692A297139
7683a147892k297543e02001A377535b063457q91615a230386j00391O13393A133882
7673A009992a126716l519209O26168C621226N464733l254851B509300L10346j336031
7664A483615b091812N23546k694872j256586K415463Q85947A158873E35919d264443
7654e785238K380383C3996e98604j774207J30204j643072a930495Q67380r95177
7645b058292K06885k738652j744145q16244J250002p7908m87613O49774J888122
7636c928071B82138L707684j00723j581437j153696a323643D92074J535534j12835
7627A914773Q43386a334401o915570K96892c496400H88237P53168B75281J784368
7618B059649c55051J03638C349147n83155G45201b837704k000606h69181D350848
7608D546743A072326a216750l78884P7714A361293a736431j124586o21852P32290
7599b750579A345360d27087k303165c37219B876052l39753I00190f93838k259423
7590b953261j432740k505123r3614Q15888J146004K018849a354283B061472K151489
7581D212961j231577J676468N81444A344174b162510p597C1742b10803q74165
7572a084968c5727C304084o28198E28099J060153J595073b56316A083882L526988
7563D610870J37515k188J366601N09594p07352k92043k441798n39576J804374
7554D445997Q61174M3043k633520C01717d94241o02678A096930J849175d00288
7544b684601l620977k839440O52074J367128R32091j329489J522997K413106a501059
7534I01767K394810J36297J466964N22690k77678J221246j449364A077836b541205
7524f288270J745602C911850n29068G24747J930962L008196A707670A11532J125614
7515A237146g73573B30364a029064o52623A278492K217104O14807j510542J610396
7506D210257k028705a157680j299681k117553j83747a032149G32252L325453o64225
7497C393480d74936A83661a669516b12108E27263c23780A114221a623930m94099
7488b118029E19121J025875O04825J820980j903939e23782o80440J94348k087129
7479c097003P80717H88792f766D8664a658706j599498a117272g865l957540j203789
7469e169194k054390J364265K675799k289616J54462a448542C357517L09722A168311
7459b313648j462002J803528e73205A215443L722604m098j972421A350638B83316
7449f29636l129570p43310r73496m95980a368964f05795k879783j443059N01422
7440d427215k002990j06355K708964a263245j875008p21653Q56488l9436I54206
7430A680810J761737j060113J196835K308346k626312A04077J950826K018460
7422D073363J095242k6556B369390b216539j52097j280115K82038M91122J073815
7413a801776B211494J378394G76413a065910A135833J63323C68608b271766n48323
7404b820089j375361L60630g85603j598899j467550a694237L03638B050248C72930
7394c355426J605506k89811e67720C64785b559707n630785j329264L521795a38100
7384H4640a671887l289566P70686A184102K165218J900324q00170j421399A468644
7374a312954j194988o01744J48469j359265m66454J97404b240305c5659C105606
7364D030386r62249a05324l188099a041605F576900K458403m121408j267315l41239
7355C305341j625805J333004J156019j742599R13163c7878j595822a15880B546678
7345B528193o24467L04827r23316a417800j844546j472212J528859J471331j127096
7336b861464k542632M35787a743910k74409G42149K813088b87901m649797K448323
7327b489375h66560k38466b95272G93824f73126r91572j84020O18071j180224
7318b410871o88467J211680C445719J995093p25971j483630o43898R15476p39848
7309B762941M04125k10437R46058k0737j574441L394160J632980k838295a601365
7299b378286H72032g2983B715183A244453B8767c856356M08455f84554C214065
7289F105497k015842j005575E93124c144463a257773b57656k2979C90130K727436
7280C117566D92036a330222o47349j354755k30837j929019l83979a860469j347196
7271c207665p73957h43450C237035p20185J55651A188540b887317k711752K198563
7262c400506a462274B22363M26807b317949j983458K024949l64146k802096K190906
7253c251794K61089J182261k373809j625220J643522N988A718270K032724l1736
7244C719258j229476D38518a95683A335710o16403h20439q65454A878820J650324
7235C529144J622003k351803M14543m85457J05432K237809m16573A979786i43298
7225a162764p27114C61276M590724M098152J411019l622993k942132j576392g50726
7215a560065C24896J214153J165490L97618E9819b831464j783014j20522j754348
7206f489348J106039J152314j615746J862994F8212K275630H89058a237149a25885
7196D726503J497545A51853f579679j726929J866794m41773M79524k31189K866219
7187c767033C782538Q8109A593853J629248J389210B178284r20240a839432l296043
7178e135475k480994J591777a948220B725961K005594r68178A337621a448288
7169b606331m20030H7989K332734n51536A578J808069M086390M22795j704613
7160D614219G62223P39122a769201k248152N30973J568103P45621p74586G32200
7150B699135k22276C00481J058274K246971L758893K444779j128623O45053n17936
7141H807892j970988M66872l159489A252588b036228j744876J506976A209850
7132D824937j819348b755333B00989K199049g51008k501600M80212g71974I93667
7122B848504J256634L024161j928383B222495j094189J232746J871299M38543
7114D670894j311590C28112b70515k332717a074728A100350D74398d86441B238665
7104E343284j350948f28490j907270j294605q0528c58495B757067A327533a52612
7094G59534K080344h743r592C205722J010973n88728j488581J246849A645695
7084H31628L020480J444037n88860K154443j705621B346718n87595B92852G1248
7074a59199l085115J444131A06751L35534i83923n820405n348299m678585K459913
7065a4371299M816219c656997b8539C465530K869107o0028B351976M68225M38912
7056C259113a502460k645960i41530r69476d37008A893771E49172p1204f13534
7046i2322C178435M04610A245693n14997l17729b373080g94041D16517f23985
7036B18924J594551J32102K34922E36314b610192k59745j062649j422063a17498
7026A599242a638902k859974B08472O73221i45556K53476a89612B664377K624933
7017E289310j057014A599344h5978k616503J014207l82882j373037a265305d09083
7007F85604K38822l56806k46101K22693a414409r24493k875948K12891J368647
6998c633312j19045o8977a519531A079455j20894A7568e9207A155630J021219
6989B176849d99537j026610A422822e96213C55086L221011N93740A272798j80911
6980A091887A37597c559438l23321a611392B990694j298252a640485e30334P5564
6971d54770j708552r48020a71211C741798J583331j995910G01984a97146C364602
6961F886015C305244G2018L102b226147A05889J712495J406428J23107J242136
6952D590055J430031j373205R1865K846385p18275k584175j591860K480185p36830
6943D434176P24392j538936A569377p10729K79915L309185N40002D08655a557428
6933d42712A8056K31953J169087L307929A605510J229402K054389A863476q97853
6924I65623f7692B453002o84442a859386m067745l072779J584994K454974a625527
6914B32497c71716A244320J588554J138774A861265b50106j347639A386607n29910
6905H56697C97234b003864k298418m26762O03814J436787i55204k010333p25296
6896c690833L57139A516647E38163a411735p643l83151M52856J30559j941868
6887c160982j510324O29294J8542a633095f7508j071639d35861C06365b073986
6877d854086O90214b2040A705367J556534a80319E06175J613814O56923K365030
6868E141942P77647j723776J001403o52897j133023C38763b06540G13363b314212
6858e389187J052059g5198B209646A000091H0085J892868P05891r73531P56461
6849B461774R66450j264383B36026c8848A795931N95354f30617j559114p63225
6840b952956P94486B316955p51076j47371K546798j79051c8767l473091J131338
6831b380520A056280P42706j45107O524193M5984k761533B426263R10760j616433
6822A720590b823394j675405k34234a867917J66769o75011e55419G48823J282318
6813B031141J251484d41394l856828O32382k508418j77241K923540a550749H93568
6803f48709j151309B075712N255880K353259k675573k514289A751889b58600l284639
6794c543239R56525O67441j406955a169269F963668J295961C990973j429261r17041
6785A644671E16669i37351I02000C75723A03682J875418L196167K763199K83369
6776H221835j169301j361708k70227r38030M94297A743543a04953k551941j787469
6767d444363K015668B567778L556745L271630j99492j807769B920236c091434
6758c549969J258150j36030R50358j562788J325571m64704k098775P66282j99984
6749c711889a257061B678680H21642b783986R46029p85830N11633B199730K931158
6740E130888L12066B597922j160648P29422O17518n90455L92972J295803j055603
6731B826931l29638A069666a560134j325940j727358P68816J750070N41110E64168
6721A349221l76599a332290A140639F5715L28150J501153a335389j274564B64790
6711A107151J498708A228674R36045J525494i65760k385122J120857n55472O683
6702b778814E29177J71760a169267d18564A181176Q69381n87604C2985R4527J053204
6692A180716K876516l31309i47442k873088j163390K296115I99557J449822J371007
6683C820386A268719E61275a044898A774005P26036j4064M05487o10496Q65605
6674C146573j286113J602107A098591i2084B22873r1094K729402j347725o02575
6665I10881j56417C00613e50777C486022J68737l73076K251525j756795I80084
6655I30007G6807J308611b12382n34221k20810m81386j441346l419864j159725
6646g469734Q32260o13250p30188K724382K055508K24321R27986N60505M01600
6637a086610M67756l632102n7033k9639L12666j86458j854285K02479J013678
6628d849548J449613R88839M60150j961535a762452c59323I41782Q09723b024433
6618d447031P97097j256727l275901O87725K770569J739846N34415j496354O56732
6609c289629P21429A164702J814275o89553M37858o42082j38623c46193n54745
6600i00938M30225j006902k84769H6258J382725d33362q41788B221040B18582
6590a375390I35109R76799B93008a478083H24610J490404L24738M9070C29563
6580d28872D038583m60110f76670k094274k808988j928941J085193J325556O13474
6571d484650A200586P0417d32108A626256N16083J268466J093138N94837j106873
6562C991907B2161c11122k083364l004138a014421H7582a50537p65386l937015
6553d852938k11333a272610M98866L81252F1321b519026L86959A811779b82182
6543d133286B2360L747239J810067j342693j596262I96463d298341j497892K512390
6534c283843D39205M63626a977644R23114j819147J286404j009271K91721a06687
6524D91866h0811k224852J137684A85597J526735K811107j332593A104491p9862
6515A024629J812018J495879J9012k073204E22869k50584a394612e24981a73543
6505B605647j098414a86940A156824e69279o75350A096361b318084k343649e30659
6495A600853b175554j542744j376097k25817b595915A017241L305950R80014J005215
6486F308420F71680e112683O32336a169181E387045L051158l048225H91967c274950
6476d434740a084285C142137a88179A173088O36094k85817P83765P39910g14292
6466d342376j597399K016931P88624K08575q58245J238275J129239j054940P09529
6457a761787B94465f77895m33739k911049d00513B914379j233180b485650k226378
6448d712028j012102J191686J90735k92066p31862K274247H31527L500998r10157
6439C422368j404997K97562H28348b481252j929619e49880D60508J322300N6987
6430A839795f3669o33065r12304m00549m46999h77663m1451n653286k426322K748850
6420f249872K522439a484655G44674a76546A033516p2991b449454J184726A94014
6410c106610o48989H15051J608066B51182J727648N51205m25489C38789O49850
6401I88639J889911J227945n14151a65793l343867j514934K316294c78658I47457
6391c054649j342353K00317L15999O34302i78125B991432j304545c91551q98144
6382a289695o23662N76579j223727j005382a750994A419874K036395m88239A464432
6372B79533a916558j127739j158264K32874J069961J127823N81546A715642K150902
6363C866544J63707d33153k528633P21539R07656D0865J988028L022530j351581
6354C699842Q67869O01039p17098L428846k254008k003614K12555b04595m425472
6345d630067k711338M47743J944143a713188g43446l506105j301346N13548a945204
6335A59147J891899k26329Q60812k52644K621431J086916o4862K869909j553030
6326G393249k881691K96293k340208F46393O25964j09918K03004a708671q2468
6317a791139A852449k55333a05110m181054j352873R66705a937775b51208F20383
6307A847572J413921K11538L52112j10163I23273c5321j156161q19205l986395
6298e997082J556683h72144B414316K914793k578649b332219k496007j227909
6290f056135J726813b73347l931190q21869j327116e05105C260726O69208K359283
6281F289217J145249n93878l131732A361443J269428b33723j033381j804041j019811
6272d090956d86497k534135q49490P78349o3845J266391H0723f43227q15579K71503
6262a187303L94971c69802H35295o6254J211173J114512A039142q3271L60357
6253A316228l22027a14519k817915f47894E02863B46869J10216a089597n343444
6244f433041Q48429K430424q2250a135867A01657f6312A654910O13914i18525
6234a295567q57785r6517b39281G70209i50056H99410N025475K375433q81104
6225G419214k166416j912885A246666g46458j38857F55534a288349j392695J083868
6216a597176K7785A09028a777978q10360G35733a50345k323271m26520c39781
6206a523807k512078a714493O99279o83670A5778M456549M162934J842424m683105
6197E794580A341309L569308K345624K555043j984111C705659j419396J012598
6189C298861K338708p80331k32067B264945F96252J138853F23621h71331a26929
6179b556924i41146r08031j410976j954903K288132A605584A19285a968719k931706
6170d900425j080240K83302m40299J497870J651712P94136g47586k356792k659062
6161e763440N36006P28576l574556K948841J454237J036816J060880d02664B188079
6151C897616J594151A803031b244246k245053a514593N8049j769832O21718k492747
6142e097405j009515o97438K679443j144645l435033m814390q20515K669259N595824
6133f074415i68658M34145j896743L01246k046125j161049a202892A178880n32948
6124F45932q7315N42704d35687j064208l452361k362062b820490I92622O024843
6115G017465M00922l622168j767464p36969k38223J505670J070742K030145O43101
6106F303221k076441h00000j461685j727351J215261k164456J1207K342157a102637
6096h13072j584508k621582J306268J100458m7655b75678q88680m306629J217959
6087d253028a182651A023703Q72507K519750K545865j477712r05440B230952D5361
6077C277418L205631k164626g55663D15590J578454M74350p87119j35838a11886
6067d599359J31951K34204a102534A453340G9347J229179L519275L204619p65202
6058G267218A918993d18174D95011a435651l558469m053122n31873L911792J951916
6049c715407a444987B76544a81766G44429a31751j817648j119362p59375Q60990
6040b967146l104408K513487a523567j266311J19670c13231D150591Q33670B082893
6030G91614b619560q32381J251543N87876b39563B384435q36476G50334M750761
6021E501095J68602n85360O57863j809888A469577i11660j550067Q18126p68615
6012b412216L34546B36548h60295j027332J79373j066048J162558A371512j44185
6003A227327b02137j684347G98067L91097m00499J183528o43079K493731j172451
5994B650394a376231p87217l256815J4597e75249A334007e97384e0374D058288
5984C195061A17288K042766a796338n853669k476779L892332I49813J77814b13234
5974A550795J567762K857074N726513Q44616l576600m363485J711501p03006A242606
5964c748102j284646e35135B621165L25058o81381r35118K667490r00457j88941
5955B907816R9262J799212J098214j931599H23069a733610K13346a49368o49478
5946g98846l12306n038o33315C32012a181770k356105R70040K41537K15249L13059
5936a797990N706M67972k203115P17472j017834J258784C190323K818526n56464
5927E452385k567817a178050d26490I00615a055341M44466n90525k035396k391308
5918e628104o25804N24006K430071N61242e47087B189946L001902B484502d397029
5908e429292R76570J832525E18935F6256J297295K55127E0978K590600j294252
5899A347326f04019m466660l776494l89220b001755A073960M48132K61545G86794
5889C155279n27375c24961j799911j637949J020762A948436K115376A246363e293840
5879c455839J499601j518730J167714n67885f31042A508971j89668J236288J206586
5870C762177K356160K714242l53849k932674j471671q58506J55394o7621L57823
5861C661475j398952J004725m14364c75872J56613I06338a10840p67561K88392
5852e90009l220786m128999K348480J758804k620398J292650a326189B780576
5843C063936F54407a124446m871759P07693a070794A544778M67391C81146K8043
5834D09189M308461A607210a932494R56915l71824k615078P40210f25795C00523
5824a749671l028318O06190L85031J078324k685483j073078J722503K045795a162256
5814B1198J278740P24001J551026n03430A527047m59073C51224a684551k655406
5805d339957m413091L613748i30927D69014J564017q55628a009924l080932J501754
5796b589102j63915j45277Q48497j950321J457750M95152j983323j927063a172007
5786B789895k52958J442257q04350A524872Q69780b4137j111614F97760K430008
5777C127768I60006b558472Q26877d6284n02445A866343L928172l04951a432452
5767b342818q68052K49430j016877l7883j297766M25269J938934I40350K373099
5758C313449l79483K086057J857515l214794A31515L16808a046707k425863k90702
5749c763272I81319K399554A412902p4682K304544P80778P68898K974718k190061
5740E977097j147958j613210R67362L572181j677258D11783J906328K726200r89409
5731D054902k80634j784016c98548F47719a06890j400962k033201M94462e28138
5721a479762k451364q28221J896259M8079k727876j431439j551909L257846D60914
5711a46322k074803n59274K4946O89879d07366C096990j78566j028803f5179k54466
5701c19645o63940l31484l6868A097569J408173r94737b126203l462144j916125
5692g504472J166012b58800C115196b84897j812194H99942P17715O83744E76946
5682a683164j764863k72176q29550a633346I64950b118328j486790A47282K980499
5673C127781j368108J22997c41o05544l000525j422336R72215J288432a202478
5663a271536G69935M489250r36598i17586j002722B065719p55650d57164A378641
5653G78388P76223j38631m99498J773002n21063Q97371A442129c714814j138990
5644d853804a399549g5256q33056L61603I2642a547533a90080j231760b74709
5634A91768g04229p54968j575449H99339M85639h42467a13239j925373A25096
5624A253539e94450j001950B303971L067389L275225k153588l89854K167089j187824
5615G082408B844464M09007p58885i15389A296946K86958a355149O22016J00699
5606f32434C321645r60733H8661J88998Q89873m11199J212561K32388J131992
5597C333274I31131a743747A57733M5917d0167q14416B212551M59329g87313j199985
5587a987298j511585n34045J600720L02526j50446j694327j666032J03404R24668
5578d612415l021958K754280J869061a422923D03357J440812L10519m94850i44863
5568h19258D08415h91720l86568k688005J374791r06482l35284N30815l15752
5559c618205a262097A769119P66445N11952J565229N272372J614788B393476d048501
5549a628565k40807B766257L237633k823636a92951h6571k14757p82321l533958
5540d617607J214254I00532J388876m76363l97102a660995k053428l015306K18158
5531f511571a762660D049460R11751j761147r18161j6920Q91904P12082j530591
5522B338378i2067p69754c1469k592382j252052h07580a86017o92363o92882B1806
5511A192782J48703a852702p09453b95566r84780J83573H97263M64206n93391
5502G68078J172780C28783c27031B194061E73644a9696C470191D19273c045546
5492d461206a958107A498123O88196J405822K67196A888086c171986k076323i82919
5482A866193a324939j517981M91422N99666l14605j49709j447813r98581J266666
5473c395874J664749J81271j254877l26517j017131m29811o42241j428119j121806
5464g770356k41168L20418M15121L004950A406521E01909a635204k58269g47557
5454A414539J670884K267679A076437a223002l52173k827A649612j34072J329719
5445B845259R398p94672J582357j33384J77535k13022e44242k575180J422960
5436a696462d15195A252663R71986J593314J137650n33798c67553j814287J7458
5427b164382j769034R49567Q27798p45357g03236A795374h40525k116664j90859
5418c148048D67822L726091G39877c24274k012802j010963K92995L08462a315120
5408A70179a915152j771035p80654O80399f04267B986729J843876n99419J38603
5399D369789k44781j377802q31010J572472J562670k036292f12420D09738a024086
5389d923032j005895j870423k039903k348405J283982L869072c511833J610075
5381a901758O28535k906534o858953k196116P48235p69769J188585M839552c515266
5371a200502a4603k37918A132275O01269b333034B84871J763427f66180B468904
5361A457820h31438J30197A417316l59872L320043L187060l055200g96627L03493
5352d93134A357481M380176K717383r36404k060232J00382q84470j410076e56349
5342c221950k783687J469198f17612A37325d512324l48240a741733g65893j187870
5333a953763K64561G04338J31437j9324K142714J270862N61207A297567p5274
5324A222293M013942J595942m83202k765220m24421j563942f45324r83986l189767
5315d819077p03463n38335l178O79062K137156a06421j061295m283911j796256
5306g247883j353459j54151K969381f34608b55742q34437j692886d44464p55762
5297a200226k854797j401726j57991K745505e7855C93691a142219j397114i35664
5287A735257R67041j96385J77821a402837K29437m76352p21521a026661B894988
5277E067814j448357B04136L58285c22010j378717M61645j397180n82239J047005
5268b171496b51115B26699L56681I0399b047900r69992r886j75720L14323k446527
5258e335702J407002J878301m57397a129113a12887k155361M9466C49187L280840
5249C630027j198103j091836E42877a004205j386209j189017j046802q45271n29611
5240f001115J015355a781418k38758h18289A165039K298630K570566j284846k337109
5231B412280n98730J719463p93741N24642l03777h80261a37006A357791K277349
5222C635140K741621J674679l130352A448953i77161L59791F41057Q414R50209
5213A599680K44620J135626J542737r81479j485660G83716J385827G53731A68537
5203c11523C439389R44282F25139b8245H73094a380358k85196g33251C419610
5193H645481Q57207j624859l840517G0738a470056C386544F87243c520369h75516
5183a495900j345524R63687M99266o1885m28990j181829Q49880j261800j527088
5174d990183a977886b367j331558k517064K80119a635867a85285k65582M1075
5165d09792j97892j982984o17855a420507l406338J671308G85703M22135b199475
5155a920633f77515F46069N977981l148129f08663j821869n23454i89167j146847
5146b136014k701260j875626N65731P19489J812359L23605j719581J844166Q90616
5137b276515K38841P71291K20342A799549M52340n10618q53756j10212K639335
5128C416638j668933h23182J32416r5402k374213K68852A807440J789923P52252
5119D349615r97374N44898n8527r19488j115964H77194J046723b238839J3532
5110b225307H86730M590429J766739k765655A500358C00198J272617o86336K071385
5101B957864j202627J426929J50206M47072J473000J922072k728040j364570J663091
5092D744997M1631h02622k041541A696111J314974r03552P54585F53248a91502
5082F52000r5717k07452c58501r43285G2190J395796a971172j277748J58998N20880
5072b569042a63731j047214j936336D42716a598689m197130Q27665K040429p22332
5063c650057a406392M389j053919J018175J75746c55902C661537N28769K44420
5054D434726J996746j404034j787034p98126J156056J401981B053717b901847
5045d438404p85224J652065j762146Q60579b122179f57419G50442B72276b321719
5035b971210m28074j203160K7269k14522p49872k00611j26796j301416K419223
5026d749169e58948A118512k47112o3002Q21778a672858j663468J463874m729799
5017f602251K522996A077508Q71076J291600J247970k070898C46744a643610l732499
5008e376109K15507f02319B0486J622406N224404j579347B507545G37204f00294
4998i45597j359046l11121i95646E62260A80263K639916J802476K6844c72234
4988a032032A273702n02828J784058n45943J222752H10362A35718K317832H36245
4978b48285B225686a17808k608488d77062q64716e68899b64201B226043J269055
4969C495098A289057D54146L03853L90605E38388J408041m8197O81246j52711
4960B426767k02904J278811j069773a767663m611731P77507b071312c06327j753408
4951b059735C64285N77309f26623G19930b880798r62398I07754J385455C44332
4941e42172B127626J204173p88877P29861G13670g52175j591492l295719k525387
4932h164773q0721J76407c652329F91108J386850M43721L936066J351869B728878
4922a081504k719648J277319F21553K71203K99708a61012A827650H01637b730092
4912b184260e42660C255602Q98492p09888Q19764j785025B77073R51576b445664
4902b492180i51460A650306J024332O47164A071331e78936k134811K72220e81393
4892B920429O79716D14933J725962K381006P75798B571137J14627i07925l040158
4883c948083N53795k266118j036823a194224H83405a121437A439493J976975C92333
4873C523658K566661A622454E03125a729I83027J323171A100966O12114K301820
4864D014900l73282j177871j66905m66675J373841J326451q32072f2768o09283
4855f72051n59948k560235j375521n23334r74956L196173A110853N341025j163252
4846E288626a71965k963073j32435c35698a02765p0429l94437m73227L05738c65915
4835f21632A068868J456415k94739a364335f05329j123929p69496d29807l34138
4826g63945l61718k046487J14589k75760h3931A097709a050470n601793k84884
4817f937147K546810q9145J692781J336894A701988K895133K750733B921032g13101
4807a965101j867152j735991K81500L59533K182858f28916C258871j120936a662157
4797b545002l741782k345790N65860b896802C72955i4719A455669o84937a550398
4787b929207J386001j483825L47836c32117F29794J291694l090a458137k211687
4778c669824O86564O23611L10237H4749h26038j619355j24722k34433R00896Q92659
4768a010993A27803L731406N16105o21704o90344B62907K69529J853911J080624
4759C466971K288707J008562l167196A089540J315161K643344J926815B517515
4750B765853K202163j021171j100524j208480J175598L92360o92704k75806J337028
4741C574317A731741C54805J067420L53398h43450G71123L776217J801470O22807
4732F971617j450546B486995b581570Q1611k493866j242486R21915k040754N03634
4723f851516a602236A683916F9529c740687l167946K452037J590552k075892j043605
4714e985541K010804J02912j402728a979153m73080a169092d57390q35725j826116
4705c119231m6016j183856J194014d9793E464326J149320A731842J38976J624418
4696C495236K115683L444963l127433A666546P9706K952672k65171B087737I96028
4686B24548g91203B024267L22653H45434c49609j5600O2465C341066j051701A98313
4675B607927L711480j587007a065240k449857g81010J88669k432444b80391B083484
4665c64699o749753k208426K166925K691929I0277J535384J893300r0875j629557
4656A798529O42509j81788a219070m289287J619809b02113C122199c29266m67927
4647g97193k17796A25182J525429q04885a554477r45021K11266e19219D068137
4637C495040o43150J339090L07692d50976k519511j64943J277689l301710j101186
4628f260637J690855J066422g36618C529603N21473A562781i26351j621422p18579
4619c266352f55551B285407J039067H06790a878637m90200M04510I9757l9159
4610F0598b212384p0952a092634l88830B852J622917a001721n258213m960707
4601a1220641l73493M254442C30739M360162O31079k387409e53717k597673j242500
4592d393890l18641k978K44595J794195a318915j180935m844044K41468R20912
4583f181514J937454A04457K967185n57971G03184l35448L538107K851683r81150
4574E776376j068178K904205L351570k220533k172689J879192J754443k125470
4566H078916j100321C144679h95026o21979B48489N840862N08023d17693m250805
4557d668498J039924n69130J31360O03289j199393K24124a977015D97406J41805
4548F39211a240198m63644j149913J29817a253962j727012A310545M56942n5502
4539A711985K604723j757154F64840L71708K963628L50647b35811m468058J979632
4530b724237A586Q84753g30772B030142K237327O4903J896761j257173B083335
4520B658987A179583B80097J91990h60875j370070m094757j4029L17375K628604
4511c393752A47587l0441R22261L240632q93232j576463b933365j194407o08128
4502d735900K327796b1363j442182B215870J614751i50450l781014b347867B393764
4492A676564a282787l147896j098935J266155j199546k416314m94957j893939
4484a0268219q67409N328587e23360j381743e37197C14738J401258E14293a46209
4474b096851j301758J091523N750j29245j334930k763206b824685G18969b583965
4464b396041j47574d09920H15012Q58859M97537L649832P5966J599208J306678
4455H803092C602163f05356k34297j221695j970268o79088a778491G63723b00380
4445e41110j551976j167689k788636j359266J284654K466511J456647B829281
4436E629283M13532J95718j066404k317044J968526m03112A792594A52613O71384
4427H23997L055609A859685a014458I47917L625728J016747k453694N97591A154708
4417b033424n79009O96164p0741j235761k99086k276254k492082M51207J296395
4408f542591c112132I36255d17397k303896j499967J839496a63504j303171n85717
4399b052392h36803p43036b34149D025069j979997d755415K81575A184989M214851
4390E399840J382110B597549j03719K464111q79193I35278b038927l008909L47433
4381d700403J078893f15072D89367b798924R80934e85939r31429a15626l518147
4372c633773J481201A518858c4141j995942k854046k495615J450892P91471a807416
4362i06168B178564L08949m01325M74989H16465d03148k842802r10806K27869
4353c928887o6782a013324A700742n91803a61265j298880j770616k713064j970043
4344g913868K894547b026146J38524O16287K0313b02958j908685n07424A679120
4334D390971j106823j035686H46380M67714a571914M61540M53221D37648L406428
4325C844076J594418K859849L42386j247004j161130k909802A257754J278892
4317B536646J50301m6202F79350R35384J858368J827391Q8679A133806J210972
4308B344778M88916K14073m04720J258672j787237R01480L262334R66775B84695
4298a650509B107369N230850J800495k014871C074533J089401m35270j90412p97581
4289B740671B04322P73495c473760m225823k986242J767916b371100O95787l940467
4280e615780J531825Q00810j288730o87262A91460L290059K32200L878750o61595
4271F930874j027511A914359F30493d15489m49782A167864E32265M92990m17332
4262F07923K271628L783301j228662I35989J37687P59248m6120N882m27365f48092
4251b519312I90795J257198c04843B033754J169911K44615a18210k57481B537626
4241D851356J529414L09332j709245B475750j144125o0330a033239d52857k746468
4232c199325J210181C468847J184699i13983k566123a408575b2824B194412N124953
4223G319365J178677k516488j462119B54215e718404L89206K529903A655050P882853
4214I537903K7209l523510M16703n98410J77581m14712k036864N52189M104512
4205H242601j276261k413153B230123k77889J722243L531589j299645B878276
4196A689226Q05030H3040b985853K3230f13937A145512B27087c66271J09807n681693
4186e938157J96880a091672B881008J742160K340583j516432k327182J503494
4178D623631K687785p10957k569896o17639l29317J465633j194161A509557a84233
4168a09979B914838O736030Q65231k373808l244993o14585j027191J204380K98165
4159D758067b3168k895027Q83194A108784Q17167k33371a179430j781258J422848
4150a537840e37406B588732A110904b158690j986118J643862L65493J71838c41975
4140F27510a107603n69169A347056N524048k80348p14149J644530C685519j754059
4131A931460K603485j312265d537667l96809a628346A510923o04269c733760k455819
4122f189579K963903R23868a89299A913802L445277K781845k654157A136847K17009
4113A353856C17527e35055j849195j663584g40703C324379L630991j806354B064847
4103F23226b41704j363578k593329p04879K361110b54525j153695n255630J142897
4094e520953b387481J183680M81323j258674l41057M04946K73495f93534G25084
4084h03908l636217l37018b034587J18197k448097k033115i68689D601966k269010
4075B332956f68117j625163k689674L12862b048395m847294J150491b597036R17175
4066a679861n06929m97538a295595q47144Q74330d83668A023346J618122J404317
4057D045785J311695k616892B88224h76591l22235k048079A209560K031601p89947
4048B451214M58898n4239E72670g0955j74104e8330j008649j400659j257498j062518
4038d787654a796761B411848B14675f404352M31983b585047A204571g36206k576608
4029c312814j919168j836772L037425a717283l65997J53439H15172R20958m83994
4020A252136O01751J659954Q76635C35209d11169B650336K329507M05331k028460
4011C356714l57879K05385A329252d70005K9822O5719k790295a9307B806537l95275
4001B411262o55088o07275b17948c0592k326422I72186b692300n020219N4424
3992g658095J999368m17396k384776k95166J672045L238137e64409j15589B14844
3982H79688h43985l37793A255760J353913A117717a337884I44577O27545b318654
3972d550779q30807k29607b054289H24490f75098j553199k319807b008849A165269
3962B78656N31020K982780j463894A21463P71954A62324a824459j779688q08149
3953d412296B659772o01166D79631b166849O71487A951938o62558a572343j009568
3944b581911q4715n48701P10057d04550B008008Q64166L587145M53672k087702
3935D825289B173925b943243k451472a946057C592012O87686M45034K9770B345125
3925A25034g58670A592572e56496j741759J93678o88370j560681K051783O73782
3916a628063e73776C67260g5971A759752M553816K697189l142001k690124p14520
3907B464112l15118J512836P89996l86873j48227C73130b65895B833750K209069
3898E042819K927747K70292C395500L85566L80370m69342m35695o2915p29068
3889B464416P38695K42198o1995M340760m53547l400848j242291j207499a528716
3879b673802h14007C249080N11284p85206J121468M53322M369774l073077a315438
3869e073382O42878K025333j36783j342059J232585J057822M53128H81912L99441
3860A281353a392410r34678q8553D80195J354138O26622l42840C6483d165076
3850e929361J931547d47469l236906l556698L51315K657110a942248h89980B934515
3840B708786A104071J295848M465535J465744C596150b617101j709576b001601
3831A648464R30755B21326b235054P62772B666532K474072n00510j697298o49314
3822B293482n48216J344417j187391H98423J455802K798165k233900j277264a341927
3812d860948a816084G25257J319118k92385Q43620H7472a716314B65650L475614
3803C741264J660438j835685Q58793j801260c50482j310723p31874j010754J006175
3794b397658A704040A77236b532485j440964n35247r83819L8827J755839J820067
3785a877782G0011g82378p76448o30304k421009J541003N46833b70690C272315
3775C353690k55996j189969o80839K317934K93445n37611P61250B93135L16223
3766F09358J243960b719255K79295C76451M889173J507501K68909j041470I37750
3756a191520k981120j620557K622251J188712l045716p38854b619876a83626A684039
3746B611509O8314A115440O0466a166380j283539J009969A57106b496045D26686
3736F985491J096898l492844h76622j826893b67349C112606o68173b161667b63733
3726A012927Q04513n30303D07974a037544k926707j95848N45801J384141k300372
3717d530529a672014g34366c14500B912598J122500j183527J150194L534248j94746
3708G341267l409439m99189N26413J367031A136261d79067A806604j43678L634245
3699E297171J494342q58293l00359A681491b55633B087277M216820j437222k226153
3690B640722N94554A338023a446614k36065A454925M76267o31566c027686j102651
3681d130337F48615j04373a829668j673690J13883a310673n17025M21032r46540
3672b353206j184545B12882j00771b183379K94340j643031p80000c54968I15325
3662a607415r79027o85083f00373E14540c004407k281294J574403L83025j449736
3653d778009O68359G09219L313929R72710A573167a439530j636754M87088m28184
3644c017380A112464N005646r84950n73626q33832Q21200o34822A189534O52470
3635A842004M06830D07487N94211L240929m6654l83366q63667k28086J301877
3626D022731j590972r9913c144709m156217c591272J629684c08242j23754k761714
3617c193710Q9229a363346M68245P3091J98084j349457o82218P59299j028365
3608b924667j22122c96373B207931Q29489L52719j647059o5030F75717b318133
3598b995501O18232l90125r16928P29153k515314N66431N15255l82011R87140
3589c783668A77992K187530p77378g5536k906505j84661C330146L907103k081572
3580E155677j614912j149616p20094p41723K284916k72271a447246j83613B277428
3570E458883N07566L11771k811841h77982A184510O332448l662304a548524R6902
3561a451622l9913L13950A363522B62660a231831H75654K885131j255015m07253
3552B098517r12767K004646K746039J300918J754728k746172k73435k611870j371796
3543A988808p38117Q44931M56407J457218P35323B363720q58131m38090l14381
3534G53118J597086K354671j691636i13466k034923k908259J332309K029596O24224
3525a870519L56099c69297A175465J456928J729612K258484L78834l409722A182823
3515B779148P18233n7035p58416A042743a416515c71605C75048k5637c59218J70502
3505a88716r97736j821624Q93694k88144j292450g33623B488200p67003o83925
3496A037272f8600a3049j403897c84846B883022L11637d2074k222977b55751D04167
3485C392299J261843a052723k862833k674717J684468J005161e58893A220796
3476H47411R08376h11891k984075J336082k532457O16909L32378P80304j580082
3467d842832p98006K41861a810610A872755g87056p80362k489904a953931l87778
3458b341709o14381C93981d69249j376660O54346j371561J059455O38622k551701
3449c416748j222273k28904d54225A597749L749826L002996r59574B518045d830666
3439e452721J014518p1792a545517F74736l18093b483042q90049l354886q91906
3430g619883L165317c33042A21121O32067h501651k130737d928536K247706q53169
3421c533999l645194P60063K696518d83929B954423K824814q16057j113169N1222
3412C901233A031960c56615E11266K017657n9837e30122l592383j813275a360174
3402a481286A88467K308815r75280L47543K535866J733626J219347k335793G44703
3392B80430J353147p68366C19818Q87052J20385m81902a331463l52929B453380
3382e03924l689707J554004k111583m07082a957033F58460c547820o8492a434613
3372a807998k627775k381299b429224B675091M286901J467552j583390k114416
3364D731738A421439i93177A00816K603748j051581C97450Q78853K166873J936441
3355E379617N0624p71330E22670a664520l399760j874333a545302b27710f1294
3345B735258J219495A178348J72426K318584L794742J322310j799603j280117
3337E706690j93507j977593m78495J142609A898032J73803l20391J616502L817807
3328G185753k328728A750837a862394M60320A320148L49382M50947J778963m53825
3319C445615j074753F65082b110648E06513J783144J34628K535258r26231J15408
3310D148720D20949b583423e22420B892626F15939a640862B18607J050241c79145
3300d503443K243289j658981J119746I71641J463852L927607k216430b446707
3291e978521b364382D250042M20819j862831E91420b115330k044224o65642k33217
3282e058413J941424A066480R32564j80659H14513O64530K280938o51518K247893
3273E356356k674207A287676J411673H17543d16065j697098j662854M41200O80693
3264b654124A132244K870908m79123j637236a658965j454110J236500Q97948j788939
3255b767566a119090G7635d79883q13264h5244A412552C23995N83900d722330
3245e911979P95980J615025j639162J246811J709041e56983C257431L12800A429617
3235A358136K259796j283980n10414L356195O18776A735852a40864j407716A13915
3225C664411K816222K777231k025338k172460B377037h76417j567611q90298p779
3216c342105M89241K82686r01742a117452A200623g09900a27679A676931N16687
3207B193618N74186p1356r96509Q6781Q67880K224996j442443D25976d012100
3197d051779p70934k060817R85505K399996i95961I79660M228967j920372b470969
3187a038792B859801j260638d097113j943877J441934j396950k34902m492576
3179a0723484r0334K636631J315115L278787o48633J638259P76903j247179p33209
3170c797144P65661L52087a199460j2517A523729k90830c82716B326543K777547
3161E104090k067226d461847N33096J434954h53968l963510k071421a112611E018281
3151D903051A347985A38174b373504P03686B696379N68356D73545b23902l207056
3142c430958J185695B695655K579577k247066J116243K172412j064419Q68230
3134F120632k837065E29448j50591L52707g8162D80640d1583A538987a107054
3124a303309B294244p66980A28511J198753k77387c77775C046126J734714A12133
3114d297900l599753J395835J579632j76947j010053L009860A258146K66478K821757
3105D346381k89528p11836n14565a445274n419891a084051C941086j207884g2256
3095a741054f05078A208839a722478N35407A354166K36127J592741f39176m840587
3086e479763q71074b293095c65999j590013j37818H83882P71725n92548k89407
3077G73652i28162o16745B027068K404202p81248a25867j939565k100192m45629
3068d611253J871951A086988C78374c354071m75749J627558H48898N132796j636176
3059D345518L221975L062093m337681A633562p12695o1819l37137c086276J74693
3050b911583Q7247j424592a237411D24512A34477e74575b36466B042343J519344
3041C561687A29370c60118j390119m039966R13337a939717J77323j332354k544462
3032e639210j473002j121459p12464L47754K504591b18234D943984k162544O08911
3023C390351a959272k651441J243165j538706j406391l67575J35190R42034K92559
3014e310437J875037A353134k4569b071166K27579j054862J272911A003757d85245
3004b278160m50569k245909N29499E75836J076250b66030j02317q39009A126768
2994A264356c95035j529361N68722N65224k285200r0767m112150L08710i94538
2984c09680B799580Q53224j675587G33569A07851a56829a2234I81986p8613g44536
2973b739536o94868a70811C382609N72281E57786b109640j107931j05402j40892
2964c463865O00828a232408m396j928545p023891q68019J718535K266509b405975
2954D35558f77245k954724o46295N5789n89356b089003J53978j210232k22853
2945c368110A57673J413603J373453E09143a159421C64292L450461K069057k319381
2936C564429p69634P4303K717323k40034B502096E08347c69858r98304e76767
2926A23460c236819k301577K18538K486057o43321J576871f49553D86638Q56966
2917A343604a378361N14024I32164K955828J654679k014433L155322j305433k354144
2908C023983J84882O79976A585734m6583m66207a69732B299235n71878J691582
2899C418939K581944k317723j546982Q10846J145018a594761r76777Q94319O45023
2890a032196A498764K755229j746731B94682c407290r04942K25907J04393k556085
2881f538017c129608B28485R04556L651286J442301P41369k575573B179968D61681
2871c919041J296f61789B630094a929003M65009B87857a582446m77765j178146
2862c238357l242756q29987c525434A479582K840361I50458J05771K98952m86840
2853H68341J06870d202416n110310q2004c202983I31370O07269K57678a632814
2843d551312J577923K30648k281667J423486J153153i35067C509774j567172G78042
2833b75192j26700q27653p57569D50544J5489h58474K63250A357638K013626j280044
2823B091220I47098l52873R74709o14150e93734j059481e20896C337074J161284
2814D498358m42160j765933c10027k18871n55525k01671k946286M37576J503436
2805b291368A06771g6176H44264L148373M404327M163364J34092m637074n59734
2796G497612J351956M39429D058799A795324e4565H40377L567086J01213j885652
2787B623024q52930K688492h5938j013526G09256g58422j8460A11895K008449
2778B120344I58881d996591k253436K146698b529814B404137K312550A377772
2769a314008F13810J736709L226953J746486l51446A681278g504471l843376K363907
2760h983940J049851J597682K164303A158740M098447O68591n23117b11027n031146
2751e242173a828096L40007k339560J551480B22315K181723J920092K404472l307707
2742C420895j532767K98256H14787j64308J530491K457260J266927J438289j379757
2733E963689A518008M52964C0334c079256G35709L238835r17097J512487r93117
2724C576817c85507k89224a17799I74843k50857o0060M77578K327197K073064
2715E541765K362928l66124l664200K27068l56587A386526b122796l311971n09816
2706e944583K117256a309621A37398R11268g1021B289479k15705O78257L414366
2697F166397K706255l870572h50948k013406J41216J69925j213627k032641J465069
2688d334412J083515J588146O62254l14473F35883N64781J784517m140n74367
2679B406674K86210M648387K778634j433865l228115C50499b016233q556K82723
2670a742066A632840L343125I22213c297535L61701g65869f3122j006229l327145
2661d396496r92430J103241J638879M13320h08038R0849B63850m6455b414769
2651c942732a556679m03149N23571D80281J188179i84633j877263j666470O11379
2642c916987J525574n15297p08783R94167a84115A215106K192456A352672J371930
2633B724602L53949B4406b421671a083829q10809g80967D93925d73614j011577
2624a485191G91204J189754p77291B83028L503645J746867B635988j080569B2400
2614a56855C2360i91466k808896r94607A9792M70194J18364J763830r99220a584922
2603b406010o10071J060417D76697N82368B5123a384129J07645d06594A968700
2593C680735N58004D40769a552192k758527k98801J117676h64667m70831b29529
2583e84110k538227k150267J391879a031571j306010k005889J5393A520433L525782
2574E046215k181830J245992l12559E61127L9681a334069j498786o8875j176507
2565d078237a854952C462042h61245p33879L65329j910067J260097K92536k205867
2556c793096a677840B142673K610244p65511j528155H60223L27497K374324H01113
2546B547684G58502d695554j445398K724922i42041q70287h76820b85803l536921
2537c822724K64996n70980i3881E121754L70612j564454l73224A139760a124787
2527g88492A137863K576306J92101j282708h74395c05897B640355J971423B182821
2517H99726a48339G22140c398656P74406F2073J900143M320401K241921C458428
2507A018871f5251k398842j67450N45741A809284J406539j549781b062570j071929
2498c134499K02712J254883m01798B32226K138138D81756L188376M405236k723091
2489E352277A485803K93758i92144m794292R83055J984760k191249a713902E65475
2479A125003J778300b44342j403274P66387o64516K51884G03297C13165N40649
2470H53814J086549J963539L98258A947621r08732d263055j079596a538129r15820
2461b453949J171281B795287L855828m83989j511582j98668j150071A166997a913054
2451c531647j391509j271594N63405K329164L1085a182629I42880b673756l220800
2442e894556Q71998R00382m33756J556105j072714P23620l42420J226011q30746
2433c296076a223719c68383H44692a068022j635091a102858A935822a620294M88201
2424a132093B805929o4502p07971j54325b39943k053767b85925o24265E33776
2414d12956k220486N23699d2712j889650A057910M10384D14596a490480H8458
2404A40017b47882A643221k35641M17277i85350k067926a457609H3860O92623
2395G76483d16312E16515a016506k068211k847402K525203C16331b010354c39749
2385B902870m84808h16040j771211J260556E137480K947527k058876k193209A167989
2375A553380C17785N85619i8525j976420b63483B718205K030348p50684l64755
2366C633114A788666a13300j2979E54944j76807L225348L848262o3682k402661
2357D985404Q47667K74982J708422l097385h57145m088462J296101j876042k270480
2348g796028L160408J689721l32852j289661N96259k142116k67101K968548l205575
2339f618397j199674Q58614K928125a7541F21693f89023k489858a288738E11341
2329E37400i8181A016338b76296k556894l97414o39448A740345K119224F57671
2319E262874J431730k070139P20368J143266m21122o41202d17835r67378a02539
2309e21312j225446B17359M520471l60942D88756L080423N94642G99308L065710
2300C865018M791278R21679j848551k937386C26719a427873D256484L443555M86778
2291H186817r58135j518039A682886c17247A317212J464217O97816a5439j990114
2282b005553Q570O51409j709755j652768J756328F90495D7277i3726l60054G80566
2271A390070n96476R31783a44190n69398B87339Q13837c68933m41839D523201
2261F533503k635988A097087g38243k107989k979670L92797K359041a233943p73397
2252b007340P80351C18771c86095J50466j033151l037021k91470m63818a495299
2242B782021J110906J247482j846973j022892a98710E12418g13999r47037k40029
2233a901065k358876l72535b268649c07270D79592k06804Q85935M841130N25372
2224F525225K5108j315910A823867h02695k296921n13700M88435k510141J445487
2215d189535J129910H96810M225585G44095a055591G09126J137531K433215j736323
2206B543549O29879J529819B319762k97150F13348a079044M71761B302939M019294
2197F322233j425287J189628O37380C064127E7601g96862A190550K062642j151209
2188B101983O21750r66213K888654M528346J19007k655832j650037j775931l92085
2179B819642Q03418I30836J789496K161493j58641I38121d58301B428717J755445
2170D184162N65114m13077A739310b950937j663629L2236P99528j183029R26861
2161d038970a799530A410088o71541b197605n32302a41831j311015k977251k098963
2152f529060j027464L072562j62063a489683E50905K624971R26963A709989i69759
2142F69419J017990N54740a167204l606837J905565I3230K547880q45237J183231
2133B979104J414924R19207R64342j685678A077367e39587B8721J633777R96831
2124B659329M339939k919659A692559i97788l198681J343470a272999A270565
2115B42446O43576J394624O2269J231757j259977b015144k366151a863364f18712
2105b939049j315912l741936p43685M081357R30449M73183R67297D18240J772413
2096B190653k90999J307654l86964f61127k321675o04002g49108l36874c94708
2086A432709J166101K233417A323256c614221j49096J26643J738803E60003J395116
2077A955119a285832m24251m10583d8329l736571l226593n67575N13783b950609
2067a86662C59222f10470L0934A813365l31542J575955K204260A275196a890839
2057c256854l319438K908689D37922K620292K570402K25988k03476J541418j50332
2048G042214k922294A366965c730589l07701J372037C68907l4254b552234j327607
2039c879841K13590l031413l284413K800177b882344o4493m01507q42536P2599
2030d118281a622144r70140K86178A050686M613633K092361n73771l162539G50419
2020B92874M40634J27336C65159a376427R9772m459520m802759M28056L362982
2011f747896K741369J538378a21553m42986p78671K17416M33363o25695A952818
2001C882127A846810a599994k166194P78395b13668C64979K25171c298849L85078
1992b913771f31380K98416e9188k844941l447512J950586b079444J54037j182964
1983c108371R30890A588849h04976J99496D093910N19915A837277m50902Q74882
1974B261257M34003j059938b284015j560288n9995j073297J518509J277206c84330
1964b143984m055217K636895J030472a11422j523050B685703J584282a168824
1955a425504A807709O37840f28633q47777k337739J350225C39257J217090o01739
1946I54608K797583M449915j284998H79768a658111B05212M547175L108005C811771
1936a623316L07282c49491j222209j161586q30145m23217O33500A399666J882439
1927C282105a757253l424719b350889B470714M779792r60567b16386k645626l53612
1918c215624K85025c93892J19152A226692D52671a512575C072086J539533j382921
1909C228698r7646p25365K42849H29573e23323f9131j271444e33629A209703m7420
1899A162283M2512b343567l236752K716898f67473j325551e54807a89199C69985
1889B513613L877050J998964L92139k685187j235640j399899O14527A463443c425482
1879d775967J566730a459133k148457o03258K085771a008867A666582O80426A120657
1869d00040j395120j794571q50928a750227k842158j17207K030953O7184R72643
1860a638812k25792J10008J23115l351241j001702K587511e96243j351659j131018
1851c078920b33742p33001q56703k77694d06576I50045a871211L6790E50336K570554
1841C120890q99671A054889K176202J124071I23458a638399A79924R77846a432125
1831b359739j411608m193906M95024c415943C14787K936932N55877j204722J976702
1822D579576r195L534357j080561l36397K065360j97533l808889j604458m141
1813C138119R08485B43266c184248a180963l37780k791347J436608h23670C97664
1803b629593l647856Q81017J6078a667717B61876N67739k16438Q7576c56286j144233
1793a500519L27659A370851Q14096I81007J874452n2718Q90106A229502N43291
1784A772793L234834K354630k003690a539845j291126E31494B3811c10407j462158
1775a772565a99913C330213K52966j221442J609955p73381A488828p27095b970407
1765d536487e07007A299286K209171N07512r65858K28797M101318m18153l115571
1756C846502i6264l862699j229553a474545j267638j279590a015219m40854M29551
1747a026522B519921N4554b402397l12943O09838A488682L322787p40178j645239
1738B426052b25245m9291b5834B663020N16578j588298F59857G198e52576k43261
1728g95837j316660c24762C153574j76656n39555J976375p95213j166878N93568
1719C045215A129231d64740g1430C344721M201203K96551C652146b240535l816016
1710f056551j774595L616235c45976j772367K93017e41057A17204a773489K9095
1701a744394O12911k649181l097355J910623G69786f14832B11351i97285n305954
1692f303239j187204o90204K569314J584347o54351J207672f80784a3339j389909
1683a403248L96750k267319m4550J466333A467810g97097j583016F0844c900390
1673d448671J821749d97040A707695h22333j930016J002811j852896m40874a768543
1663a765927E22329L387249K530963K430564r80909k403574j485868r50632J686430
1654D736552L332722j151277B044957D48484J951562K550026J110368j174935
1646D885505j656792A188233K12798a464814A310321J391197D22214J986704J714937
1637D123855l92859A271948M7402J882236J731025H30115B4741K315187N1989
1628B391917b074828k501533A735156n42154b019427f6238A128417b953822k68487
1619c222309j3539j803234R98234B555047K656816D23980c802153j785741L1669
1610e556225b665653F00631J517499B73852b873174j81337L75968h76756B316284
1600B545709m01425D24344d69648B49742a223065l083335P99335J565717j452241
1591c393589j962895k051790O46390j251354L274261r60057j310060K459757a823824
1581F18767J485026P9467m68837J457908M42119A448840f01901j077473k11809
1572a891183l641636L44458c36759B718232K685191B110620O09154J375563m37887
1563C657450q95316L36024j5925J99965A152353K735056R222j249012q11842K494320
1553D330097J356672A710555k22926l52304a722551l277047K481271C754026k0585
1544C733441j736412a118545j500116G46664R21628c4787j923021m720454k079944
1535h758206K252783K625776a821413J55878G84325a14816k775139Q70648j424964
1526c444271m531989K008414a672645n95272C73515K499046K71552c47211l547377
1517c894588j087725D60855K466893d47286j399895l401980Q39970a479882o82677
1508b162559k227286K132870i70347p23147K62630d5469m99770B33752J167207
1499A400959Q44253J84916C95583n7122L940395k4706k101045J546933A764494
1489c0033F49787P06612E06673d54780C391578f00243j5831B082067a297844J31370
1479a166474K12077P2086H81282J191454A33574L55294f29705k33052j306328
1470b169085o7646J114308m96436L13614K94672L79297A072345K88447P73811
1461B134603c86632o25236A359790K766031J63981j975907j015047i18226j786728
1452b704954f10001j024967j738364J248672d27783C655146Q64205q95835j051442
1443B572074L142397L005924l337399B321021J23800p41905F25008a154582d09132
1433f56019j819357k803544R47658a98033D204402J273713B714945f61800o42294
1424a304094b75478I06268K374767n48841A007996K274906K896662L11317J128219
1415G619100o44869k415948m39355j406208J357133Q59438M27826J136134r14619
1406E578632B184680f21117e4164E32774c158296k980941J817395l08354j969464
1397f599660m15603L253355A742288J383931j409348a23416A588275N57799A31185
1387A235342K262240j65079A08378a416776p82391m54889J259983K05821q4041
1378a272293k23186A603037J163650J932106p20097I84328D24309A27527g23952
1368b54024j757290l577998Q78350J111112I2446i78524k853736m000320l751390
1359a1583970n85340k06691K699489M013387K271099R47396i91650l95598l003993
1350d391241h4278B323589a290493k262985J277990P66053j256895J090673g19174
1340E59918L277378j738385B05831f03180q60049j752896k80527J017614n44380
1331c023418O49644G812J699083b624849l748125K834153A144949m61327c22073
1321C44568J999347J669733C44019a475045l236370j461423J902719M92549M18105
1312c359465I07010J151177K739820o22600A273802J489292A010674J074720J553244
1303C638638o29051A054785a448761A180665K066848J756387J364494J132146
1295G500540j664854P73778r00459B694554A230072J054232J487575J826997J764932
1286G363808O30344j641904B966206F02162b605156j07270a215619H15858J230580
1277B046438L46261J86086J94079j097279G20878A07286J90074J62022c06698
1267a455856i4628A00764f95333n76494c06308B503581j68571G52012Q63900F95539
1256F66286f0893k817807k286275a694126F91751N31677a219139I06525J942339
1247B848864p97374J062281H89090b203037l009492k799202L145738J315889I30213
1237C271000j178660l61756J391810K065331q05415j670980C27529a698345Q39358
1228h58987J8929j517236m645496k788408K84540L899513J691250j32603e83026
1218c94958j518856f4427B09576K90147B14867i9981k998204j207044a84106E321015
1207E893065B073272q29773D87439g04295r38290E14174K247833K531758J23951
1198E417716K117437j371512j499751A611985b781984j585758a344555d17841
1189a192112l93891j112283i77834D56891c420982m943901Q1988L782445d65716
1179c198291q22580c94597C98486e42594k63948F02026B81091c491468l66545
1170c858013j650972k10566J788778a440758o64700j599472k02514j2455J150425
1161b769474C64519L921380r4214P26257L132333l442513p33046j279355i89849
1151f100597a507394b72529l027266N67983p43938C47311M239371K75300A088497
1141A196040C16723b190431q1222j675796g40823o28223k518204E80449J842477
1132B422926l73473a127982k769271J535603l123758j590399K607520b057496
1123A289784M52516b200646l850288l223334K834941a194865A788133B64365a136262
1113b582708r61162p71739a026106k374804j769278K367162j651243N99353a435244
1103b701006j54788R24812j029070j141667a904154A992281H07677a675592l32684
1094b008276m17394l048173a666630O28158G10588J993770h79219k598057O57949
1085b819327A190555K159575j303611K83129h8958n81006b58622B55422P51059
1076A006481f60918p40318F48604h77325k898653j269615a363387p70229k055369
1067d188985a335129b25163k88835A706045b191919l968107b653990e46453E48844
1057B018607J485351K665504p37231j970142A058808g93301p71465e79590A971932
1047B717029R55769A06038c489237l196117j538497K627K018300b745171O94397
1038b050774r21008L21589a278010I84021B38430a324253l826839K01120c90158
1028A882919E80670J024298c25588O274B309148n72800a085750e06331j720253
1019b226584j737867j245148K570116f35352o00824j36564D04119e94364g2774
1009C464720K882105L89668k612212j344223J278576j697762A164851Q67967E29
999B045643k40397G64306f7685p94396j139466E91519B71275J917978n05729j20968
989A562556J593680K558707j307397a666942j793288G78796M230916j653425p30412
980B625875G66100P26337L64805C70519b89875B976949q46827a690552p08375
971b398927f41170B080982L66462J610779Q25529K70046p37419A681212a904038
961b581706q51742a333850C631653j654886f7563B201988J089002N87235J99466
952D077691A465638d124809l30374K30014j511423b665101J118813j554666n29468
943c630422j300879o09310K80105a563586c88092r83297o18505h62105j988927
934b851032J388080M90941A569925m5468d66716G94959f59140O3829b26391l7565
924b63956I82607P62947q30254c33198A212570L24303n78486K22945J998807n7410
914C122729A464399a028356A642103m65907b577342P67609J79230A011830a859101
904c259835A613180M805421J569871J553356D128679F72430R73090K26647K076242
895C948409G65708J159455m3717b309567o61931B36969L381959K326486j064769
886D880645B262180j066643R67194L001834K757082n03429o4670r85768B882341
876A850913P80773h13620j780698N64963E649c501421m764111M7004c859792E81074
865A740674J217543p95211c459341j820000j25995a586085L31662O17872J85892
856d50659B16571J792806J7862b016989l514522p89277J987435J596905O8084
847b668364d76435B372264K890452J947486k582684G06190c519546a107790L81296
838g26494j612345A153959L036237A980805h86414l09885j490780H99682L771647
829D671329K418171j137882j552245J895246j920779j486929Q79375A445426c963606
819e932192b788168J297524m90731L79835q54912g14752B931453J840530E35661
809b633267L23717k803885l97157J006693a983260B141546A001360J336039n22635
800A814764L16467M647581J04920j899902A489614N14023R33199j072408p47600
791A116828A65548f02062q97559H89718f32892k633196J569729c45893A71087
781a466067F47678J218391R48384j96693j27521e23695m326806J904195g06691
771B32910R10123J952745l12653C42428M72625P59020p28124j91178K62112J047568
761A964451J709814f5163n22818D977948q75465j835227a751167l606804l62518
752e720489b682410I23333a092781b7535C133610j097646i76890j730374k94926
743c002190J458444A303431b50814j614007F50371l7911d206906q03274K144105
734b866075n72747L69211K64968O87113j4278Q42811b68217j99647G80758J215167
724A995925H67675b132427p34638m79471g17096B187902q06923M85987K024652
715C891618k66631j416685r48877a849999q4020Q35388j71625k005416K02143
706c073529N47648C24824J948765J368739E72161J092184J20720h10433j34737
697i45170A704517J3068R78359J284328A621400E35458M609197K62289j292703
688D114241h23053k094279l676248j870643c993645h40808L47233G01924c78852
678A771087R17258r43380H59193c99793f5328j64301A495059J168355B78920c66395
667E49934J241838L487063p38070A478092a846326j285086K54035N41113M30930
658a905334l21442Q75580j951641k35415Q59692k48029O07133l17791j434302
649d071549k11726K91583J72336J151968a168823k130825j703237J822809r6633
640c276709J010191a038105m88965C19929M26995N55902J87843K5430J682070
631C198169L90047o39797G8830P59436K64679k75343a914415j407919J132567
622b189767P6559j678342L3671a037479J49806A376098D95370c21612j71484A636943
611C562147j249665r07391K248492O96406D26931b727933a045586G41486J231356
602A972842K170321j898912A036478k08051i76557A72804J436288D84690b494701
592e71224n6879l374297J162500a350253k256719l20955j337635J142863a186835
582I83833J369830K508916J37099k111342q51023M67910Q91058d31335j561761
573a993096l80373j84480K89628h50437k89322e54699f4658H70475L18732h10617
562i0287k132600R16361A256317R64779O05151K417038j994750I80347R21239
553A901586a307001d23739C038563J286047A596400h15832o29003j996861L12393
544c129303a327472o62551k26953J646K01023A752832L680734O60680L327480
535I421726r21729l892978j741329P0242l68259M6687r57343A94845c037398k429357
525e466755p74828J019607J473919k93831b52211A351527a538269q64439B32581
515A707178M36322L07290l52279a793200j065140G91070M578569R2577l84222
506E077994P52212j05970k298322G24500b74963o10400j241680m07756J167155
497a367644o97263j881833a797021f68814B80529b256551k231512M86323h86789
487h8553k264726J97276A194811L027903J657372p17548J262690K614798k79072
478H760954j620032j848876k415698j218942C77423A27758a743933L74306j951557
469c321184J77355J317301H350a7744k715866j492057L91911j354322J042625
460d145453e80929A563909F66132c19610k342466n08882J183977j381539P89717
451b578803r48825n08297Q02485o07355j887999J79934b469163A514315K33412
442A747727K4517i92811k733858J65163a346650K53565j056271r64251q12103
433c925710a569965A897634D79090N9925J568201J04389M177686M31586k790614
424D030263j113006C43691J49321a90356k816243j685173Q84129i81143d17884
414a630264n54253O04116k412760k012519J434407b006749B280957l95164a080561
404c651528r93487L13238b06734A562380l72079d97568k013205j146767a422333
394C375065l45577a195078j092555r05972O56645R39672B023865N45166J83939
385B752970I79472a452413f15463b66434A368268n01872R5472J942225j18695
376B785398M51650d21400p64602o15407e44702A311931c72326p93182A842388
366C964832J295110m44850j099340A701198a104344j82120M67913p91001G60048
356A331214J01728M337253K83132J238247J68260C486271H45409b057B251058
346F243612L03483C146431B97435A31132a133480m85294e23564A597634P97292
337B394926E34181A35374J926981J440553j042779A100796a82371m13946j504223
328b100540k97093d79856k11011r01830d95070B398793L85764A355667E06021
318B622959N96423J88090A515051b66517j733370l303328K336514j844631J462324
309c349008i61320p58626r26342J033418o87678n11584J08786k055916P12470
300d046792J405426j851188J374627A673023H20909b56086j055570N83546A237618
290D693499J437625l020972h41258k602560Q75978E64789P43952c39503g7523
280h55916j140058k47790k291969j164112M48030b26821D556074j815354B94145
270a134425p81700j00492B3030J712467K914801j621097p54549A042277B65776
260a224245O4847f3124F61066J730970E49709a627625p07530J002515E85545Q21639
250A407184o74318c952580j118095P92124J625478i49686H61304P57195K0650
241A639149P53405J126044j744520J513660M49238j151294A126812d97259F27320
231E04532b37289j87606r62556E44993N72972i52477M24809m651p12769a88491
220B714666J609021K247557L72600k050590e69091Q6821A450603Q59681p83192
211A527092m76040M52494F15073K07526J879474p09108E3640a286245l53482a64819
200a34608A84840b91675k292084b54296A886365j68164p38339J63958E42672d018444
189e113272f01711A702911J63091o31041k40085i59616n32887F14427M35251M61417
179A511095J286719K160355j083413G7117h84906H4314L3891K03599K002297J672392
169C996493j625078q01126L10314A43681b050688P34664j476721k904634j311252
160g008631J124681J854234e60682B317332Q65450r81316b41586l410898O75819
151b976665e41854j771392k156600r04018J329031a078094H35620k32956g46803
141b967679R41281j45682r86389O57117k10574a220806C319243r87767k52244
132B079232j26822b70629l25224A679527J119389F89045c17573D33730c15653
122a137294I4660L208333Q93555K37863j592152r87627o93476f44887l478661
113d123548r98278J221752A409175N91807M45601n34941c38968k598549j262726
104d200243h79217B305385J95703a021085o5733M69537j110646k794831K3620
95d499138J492207o2011P03563A632926F05894a372911e09546B61526c47354F5822
84A410538J213282J720795j465902j111844J4811k39671N54294r07300a614450
74c285145J59728Q89145a017469d83328j101153P77902p8955A820506O67976j5150
64B473332K82595A08409a308236c5813G83155j09436C11038D309J387129N48625
54A940063H9097h28285i5905A863780O95179r71791o40324D33329j90505b90887
43A38392d27613o59218N31303J57893A095298k29703J133109K86276r4746G1720
32a928280K8445Q65527h5955k434427j759139b129913A40243J534820K89551I11049
21B86335h21512k052637b73570B066947q56905a090898k022949l22701L50638
12c085910J270339L86005A571424L097350k166845p27002n72327J779131N71953
3C553684N16889A893457d56811
##END=
