##TITLE=1H-NMR: A_Laurent_190525 1/1 Sample 1 in d2o, 298 K
##JCAMPDX= 6.0         $$ Bruker NMR JCAMP-DX V2.0
##DATA TYPE= NMR SPECTRUM
##DATA CLASS= XYDATA
##ORIGIN= Bruker BioSpin GmbH
##OWNER= aci
##LONG DATE= 2025/05/19 10:31:44+0000
$$ TopSpin 5.0.0
$$ 2026-09-17 13:13:20.687 +0200  matthias@Matthiass-MacBook-Pro.local
$$ Compression mode = diff/dup
##.OBSERVE FREQUENCY= 500.25356276
##.OBSERVE NUCLEUS= ^1H
##.ACQUISITION MODE= SIMULTANEOUS (DQD)
##.ACQUISITION SCHEME= undefined
##.AVERAGES= 8
##.DIGITISER RES= 22
##SPECTROMETER/DATA SYSTEM= spect
##.PULSE SEQUENCE= zg30
##.SOLVENT NAME= D2O
##.SHIFT REFERENCE= INTERNAL, D2O, 1, 15.13078
##AUDIT TRAIL= $$ (NUMBER, WHEN, WHO, WHERE, PROCESS, VERSION, WHAT)
$$ ##TITLE= Audit trail, TopSpin 3.5 pl 7
$$ ##JCAMPDX= 5.01
$$ ##ORIGIN= Bruker BioSpin GmbH
$$ ##OWNER= aci
$$ $$ /opt/topspin3.2/data/aci/nmr/A_Laurent_190525/1/pdata/1/auditp.txt
$$ ##AUDIT TRAIL=  $$ (NUMBER, WHEN, WHO, WHERE, PROCESS, VERSION, WHAT)
(   1,<2025-05-19 12:31:44.550 +0200>,<aci>,<chem-nmr500>,<go4>,<TopSpin 3.5.7>,
      <created by zg
	started at 2025-05-19 12:30:50.312 +0200,
	POWCHK enabled, PULCHK disabled,
       configuration hash MD5:
       31 97 3A DA F0 08 8D 37 3F DC 37 8D 19 73 88 39
       data hash MD5: 64100
       FE 19 CF 22 3E 7E C8 2C EA 8C 34 8E 50 6F 8C 97>)
(   2,<2025-05-19 12:32:09.901 +0200>,<aci>,<chem-nmr500>,<proc1d>,<TopSpin 3.5.7>,
      <Start of raw data processing
       fp FT_mod = 6 PKNL = 1 PHC0 = 29.79245 PHC1 = -29.43855 SI = 64K 
       data hash MD5: 64K
       0C 86 9B 97 DA E5 B2 74 CE C7 27 93 4B 68 4B E7>)
(   3,<2025-05-21 12:01:31.609 +0200>,<aci>,<chem-nmr500>,<disknew>,<TopSpin 3.5.7>,
      <processed data deleted>)
$$ $$ /Users/matthias/Documents/NMR/NMR Spectra/Data Stuff/Guvacine/1/pdata/1/auditp.txt
(   4,<2026-09-15T13:50:15.636+0200>,<matthias>,<Matthiass-MacBook-Pro.local>,<proc1d>,<TopSpin 5.0.0>,
      <Start of raw data processing
       em LB = 0.1 SI = 64K
       fid data hash MD5: 64100
       FE 19 CF 22 3E 7E C8 2C EA 8C 34 8E 50 6F 8C 97
       data hash MD5: 64K
       88 B9 2B DC C6 F4 6B 51 92 2B 30 1C 93 12 42 E2>)
(   5,<2026-09-15T13:50:15.803+0200>,<matthias>,<Matthiass-MacBook-Pro.local>,<proc1d>,<TopSpin 5.0.0>,
      <ft FT_mod = 6 PKNL = 1 SI = 64K
       data hash MD5: 64K
       0E D4 36 0C F6 D9 2D A1 95 99 9F D2 B5 07 FD F2>)
(   6,<2026-09-15T13:50:15.986+0200>,<matthias>,<Matthiass-MacBook-Pro.local>,<proc1d>,<TopSpin 5.0.0>,
      <apk
       data hash MD5: 64K
       00 D6 F2 C3 0B A2 95 7A 76 A5 1D B2 81 30 81 0F>)
(   7,<2026-09-15T13:50:16.178+0200>,<matthias>,<Matthiass-MacBook-Pro.local>,<proc1d>,<TopSpin 5.0.0>,
      <abs n ABSG = 5
       data hash MD5: 64K
       98 74 64 E1 8D 8F D3 0C 45 E9 89 A4 99 E2 72 F0>)
(   8,<2026-09-17T12:50:01.700+0200>,<matthias>,<Matthiass-MacBook-Pro.local>,<cprserver>,<TopSpin 5.0.0>,
      <changed parameter F1 SR to 0>)
$$ ##END=
$$ 
$$ $$ hash MD5
$$ $$ F4 00 36 51 84 4A 57 F6 81 9E 0D 8A D4 2A 58 5B
##$RELAX= 
##$BRUKER FILE EXP=format.temp
$$ EDIT_PAR COMMAND FILE
$$ 
$$ DI_MODE         LONG
$$ ED_ENTRY        ACQU
$$ ORDER           FILE
$$ 
$$ 
$$ HEADER		"F2 - Acquisition Parameters"
$$ T_NAME		Date_
$$ 		TYPE	R64
$$ 		CLASS	ACQU
$$ 		SUBRANGE 0.0 50000000
$$ 		REL	"Date_=itodate(DATE)"
$$ 		INV_REL	"DATE=datetoi(Date_,DATE)"
$$ 		FORMAT	"%14.0f"
$$ 		TEXT	" "
$$ END
$$ T_NAME		Time
$$ 		TYPE	R32
$$ 		CLASS	ACQU
$$ 		SUBRANGE 0.0 1000000
$$ 		REL	"Time=itotime(DATE)"
$$ 		INV_REL	"DATE=timetoi(Time,DATE)"
$$ 		FORMAT	"%14.2f h"
$$ 		TEXT	" "
$$ END
$$ NAME		INSTRUM
$$ 		TEXT	" "
$$ END
$$ NAME		PROBHD
$$ 		FORMAT	"%14.14s"
$$ 		TEXT	" "
$$ END
$$ NAME		PULPROG
$$ 		TEXT	" "
$$ END
$$ NAME		TD
$$ 		TEXT	" "
$$ END
$$ NAME		SOLVENT
$$ 		TEXT	" "
$$ END
$$ NAME		NS
$$ 		TEXT	" "
$$ END
$$ NAME		DS
$$ 		TEXT	" "
$$ END
$$ T_NAME		SWH
$$ 		TYPE	R32
$$ 		CLASS	ACQU
$$ 		SUBRANGE 0.0 1e8
$$ 		REL	"SWH=SW*SFO1"
$$ 		INV_REL "SW=SWH/SFO1"
$$ 		UNIT	"Hz"
$$ 		FORMAT	"%14.3f Hz"
$$ 		TEXT	" "
$$ END
$$ T_NAME          FIDRES
$$                 TYPE    R32
$$                 CLASS   ACQU
$$                 SUBRANGE 0.0 100000
$$                 REL     "FIDRES=2*SW*SFO1/TD"
$$                 INV_REL "TD = nextpow(2*SW*SFO1/FIDRES)"
$$ 		UNIT	"Hz"
$$ 		FORMAT	"%14.6f Hz"
$$ 		TEXT	" "
$$ END
$$ T_NAME          AQ
$$ 		TYPE	R32
$$ 		CLASS	ACQU
$$ 		SUBRANGE 0.0 1000
$$ 		REL	"AQ=aqcalc(SW,SFO1,TD,DIGTYP)"
$$ 		INV_REL	"TD=tdcalc(SW,SFO1,1.0e6*AQ,DIGTYP)"
$$ 		UNIT	"sec"
$$ 		FORMAT	"%14.7f sec"
$$ 		TEXT	" "
$$ END
$$ NAME		RG
$$ 		TEXT	" "
$$ END
$$ T_NAME          DW
$$ 		TYPE	R32
$$ 		CLASS	ACQU
$$ 		SUBRANGE 0.0 1000000
$$ 		REL	"DW=1/(2*SW*SFO1)"
$$ 		INV_REL	"SW=1000000/(2*(0.005+DW)*SFO1)"
$$ 		UNIT	"usec"
$$ 		FORMAT	"%14.3lf usec"
$$ 		TEXT	" "
$$ END
$$ NAME		DE
$$ 		FORMAT	"%14.2f usec"
$$ 		TEXT	" "
$$ END
$$ NAME		TE
$$ 		FORMAT	"%14.1f K"
$$ 		TEXT	" "
$$ END
$$ T_NAME		D1
$$ 		TYPE	R32
$$ 		CLASS	ACQU
$$ 		SUBRANGE 0.0 1e38
$$ 		REL	"D1=D[1]"
$$ 		INV_REL	"D[1]=D1"
$$ 		UNIT	"sec"
$$ 		FORMAT	"%14.8f sec"
$$ 		TEXT	" "
$$ END
$$ NAME		TD0
$$ 		TEXT	" "
$$ END
$$ NAME		SFO1
$$ 		FORMAT	"%14.7f MHz"
$$ 		TEXT	" "
$$ END
$$ NAME		NUC1
$$ 		NONEDIT
$$ 		TEXT	" "
$$ END
$$ T_NAME		P1
$$ 		TYPE	R32
$$ 		CLASS	ACQU
$$ 		SUBRANGE 0.0 1.0e10
$$ 		REL	"P1=P[1]"
$$ 		INV_REL	"P[1]=P1"
$$ 		UNIT	"usec"
$$ 		FORMAT	"%14.2f usec"
$$ 		TEXT	" "
$$ END
$$ T_NAME		PLW1
$$ 		TYPE	R32
$$ 		CLASS	ACQU
$$ 		REL	"PLW1=PLW[1]"
$$ 		INV_REL	"PLW[1]=PLW1"
$$ 		UNIT	"W"
$$ 		FORMAT	"%14.8f W"
$$ 		TEXT	"power PLW1 "
$$ END
##$RELAX= 
##$BRUKER FILE EXP=scon2
$$ ##TITLE= Parameter file, TopSpin 3.5 pl 7
$$ ##JCAMPDX= 5.0
$$ ##DATATYPE= Parameter Values
$$ ##NPOINTS= 2	$$ modification sequence number
$$ ##ORIGIN= Bruker BioSpin GmbH
$$ ##OWNER= aci
$$ $$ 2025-05-19 12:30:50.280 +0200  aci@chem-nmr500
$$ $$ /opt/topspin3.2/data/aci/nmr/A_Laurent_190525/1/scon2
$$ $$ process /opt/topspin3.5pl7/prog/mod/go4
$$ ##$BLKTR= (0..19)
$$ 3 3 3 3 3 3 3 3 3 3 3 3 3 3 3 3 3 3 3 3
$$ ##$DE1= 4.5
$$ ##$DEADC= 0.5
$$ ##$DEPA= 4.5
$$ ##$DERX= 1.5
$$ ##$FILCOR= 0
$$ ##$GRADCHAN= 0
$$ ##$GRADPRE= (0..1)
$$ 10 10
$$ ##$HD_BLKTR= (0..19)
$$ 1 1 1 1 1 1 1 1 1 1 1 1 1 1 1 1 1 1 1 1
$$ ##$HD_DE1= 5
$$ ##$HD_DEADC= 0
$$ ##$HD_DEPA= 2.5
$$ ##$HD_DERX= 0
$$ ##END=
##$RELAX= 
##$BRUKER FILE EXP=acqum
$$ ##TITLE= Parameter file, TopSpin 3.5 pl 7
$$ ##JCAMPDX= 5.0
$$ ##DATATYPE= Parameter Values
$$ ##NPOINTS= 1	$$ modification sequence number
$$ ##ORIGIN= Bruker BioSpin GmbH
$$ ##OWNER= aci
$$ $$ 2025-05-19 12:21:54.148 +0200  aci@chem-nmr500
$$ $$ /opt/topspin3.2/data/aci/nmr/A_Laurent_190525/1/acqum
$$ $$ process /opt/topspin3.5pl7/prog/mod/edparproc
$$ ##$COMMENT= <>
$$ ##$ECF= 1
$$ ##$ECHOLST= (0..15)
$$ 1 1 1 1 1 1 1 1 1 1 1 1 1 1 1 1
$$ ##$ECOLLST= (0..15)
$$ 1 1 1 1 1 1 1 1 1 1 1 1 1 1 1 1
$$ ##$FLIPA= 0
$$ ##$FOV1= 0
$$ ##$FOV2= 0
$$ ##$FOV3= 0
$$ ##$FRARE= 1
$$ ##$HEADER= <>
$$ ##$INSTIT= <>
$$ ##$METHOD= <>
$$ ##$NECHOES= 1
$$ ##$NPROJEC= 1
$$ ##$NSLICES= 1
$$ ##$PATPOS= 0
$$ ##$RUNEXAM= -1
$$ ##$SDIST= 1
$$ ##$SOANGLE= 0
$$ ##$SORIENT= 0
$$ ##$SOT= <>
$$ ##$SPOS= 0
$$ ##$SPOSDIR= <>
$$ ##$STHICK= 3
$$ ##$T2DIST= 30
$$ ##$TINV= 50
$$ ##$TREC= 2700
$$ ##$TREP= 3000
$$ ##$TSCAN= 50000
$$ ##END=
##$RELAX= 
##$BRUKER FILE EXP=pulseprogram
$$ # 1 "/opt/topspin3.5pl7/exp/stan/nmr/lists/pp/zg30"
$$ ;zg30
$$ ;avance-version (12/01/11)
$$ ;1D sequence
$$ ;using 30 degree flip angle
$$ ;
$$ ;$CLASS=HighRes
$$ ;$DIM=1D
$$ ;$TYPE=
$$ ;$SUBTYPE=
$$ ;$COMMENT=
$$ ;$RECOMMEND=y
$$ 
$$ 
$$ # 1 "/opt/topspin3.5pl7/exp/stan/nmr/lists/pp/Avance.incl" 1
$$ ;Avance3.incl
$$ ;   for AV III
$$ ;
$$ ;avance-version (13/06/17)
$$ ;
$$ ;$CLASS=HighRes Incl
$$ ;$COMMENT=
$$ # 169 "/opt/topspin3.5pl7/exp/stan/nmr/lists/pp/Avance.incl"
$$ ;$Id: Avance3.incl,v 1.10.2.2 2013/08/30 09:43:33 ber Exp $
$$ # 14 "/opt/topspin3.5pl7/exp/stan/nmr/lists/pp/zg30" 2
$$ 
$$ 
$$ # 17 "/opt/topspin3.5pl7/exp/stan/nmr/lists/pp/zg30"
$$ "acqt0=-p1*0.66/3.1416"
$$ 
$$ 
$$ # 1 "mc_line 20 file /opt/topspin3.5pl7/exp/stan/nmr/lists/pp/zg30 exp. def. part of mc cmd. before ze"
$$ ; dimension 1D; AQ_mode 
$$ define delay MCWRK
$$ define delay MCREST
$$ "MCREST = 30m - 30m"
$$ "MCWRK = 0.333333*30m"
$$ 
$$     dccorr
$$ # 20 "/opt/topspin3.5pl7/exp/stan/nmr/lists/pp/zg30"
$$ 1 ze
$$ # 1 "mc_line 20 file /opt/topspin3.5pl7/exp/stan/nmr/lists/pp/zg30 exp. def. of mc cmd. after ze"
$$ # 21 "/opt/topspin3.5pl7/exp/stan/nmr/lists/pp/zg30"
$$ # 1 "mc_line 21 file /opt/topspin3.5pl7/exp/stan/nmr/lists/pp/zg30 exp. start label for mc cmd."
$$ 2 MCWRK  * 2
$$ LBLF0, MCWRK
$$   MCREST
$$ # 22 "/opt/topspin3.5pl7/exp/stan/nmr/lists/pp/zg30"
$$   d1
$$   p1*0.33 ph1
$$   go=2 ph31
$$ # 1 "mc_line 25 file /opt/topspin3.5pl7/exp/stan/nmr/lists/pp/zg30 exp. mc cmd. in line"
$$   MCWRK wr #0
$$   MCWRK zd
$$   lo to LBLF0 times td0
$$ 
$$ # 26 "/opt/topspin3.5pl7/exp/stan/nmr/lists/pp/zg30"
$$ exit
$$ # 29 "/opt/topspin3.5pl7/exp/stan/nmr/lists/pp/zg30"
$$ ph1=0 2 2 0 1 3 3 1
$$ ph31=0 2 2 0 1 3 3 1
$$ 
$$ 
$$ ;pl1 : f1 channel - power level for pulse (default)
$$ ;p1 : f1 channel -  90 degree high power pulse
$$ ;d1 : relaxation delay; 1-5 * T1
$$ ;ns: 1 * n, total number of scans: NS * TD0
$$ # 40 "/opt/topspin3.5pl7/exp/stan/nmr/lists/pp/zg30"
$$ ;$Id: zg30,v 1.12 2012/01/31 17:49:31 ber Exp $
##$RELAX= 
##$BRUKER FILE EXP=shimvalues
$$ # Mon May 19 12:31:44 2025
$$ #$$PROBEIDENTIFIER=Z800701_0081
$$ #$$PROBENAME=PA BBO 500S2 BB-H-D-05 Z
$$ #$$SHIMID=292722
$$ #
$$ # Active Shim Gradients
$$ #
$$ Z           		361             
$$ Z2          		2154            
$$ Z3          		-1002           
$$ Z4          		3425            
$$ Z5          		-1716           
$$ Z6          		2909            
$$ Z7          		-973            
$$ Z8          		0               
$$ X           		1759            
$$ XZ          		-4939           
$$ XZ2         		1010            
$$ XZ3         		-6355           
$$ XZ4         		1379            
$$ XZ5         		10013           
$$ Y           		4257            
$$ YZ          		-10109          
$$ YZ2         		-4173           
$$ YZ3         		3481            
$$ YZ4         		-66             
$$ YZ5         		-12010          
$$ XY          		2927            
$$ XYZ         		-8055           
$$ XYZ2        		-6939           
$$ XYZ3        		-4244           
$$ XYZ4        		-2739           
$$ XYZ5        		0               
$$ (X2-Y2)     		11678           
$$ (X2-Y2)Z    		-10953          
$$ (X2-Y2)Z2   		1259            
$$ (X2-Y2)Z3   		6854            
$$ (X2-Y2)Z4   		1240            
$$ (X2-Y2)Z5   		0               
$$ X3          		2375            
$$ X3Z         		-6144           
$$ Y3          		4207            
$$ Y3Z         		6975            
$$ #
$$ # Lock Parameter
$$ #
$$ FIELD		5540.070
$$ LOCKPHASE		8.270   
$$ LOCKPOWER		-39.000 
$$ LOCKGAIN		118.200 
$$ LOCKDC		-75.000 
$$ LOCKSHIFT		4.700   
$$ LOOPGAIN		5.000   
$$ LOOPTIME		0.250   
$$ LOOPFILTER		500.000 
$$ #
$$ IEEE64_VERSION_CODE 1
$$ #
$$ # Shim currents 
$$ #
$$ SHIM_SETTING [1 ]  -175.31914087   
$$ SHIM_SETTING [2 ]  2046.32797699   
$$ SHIM_SETTING [3 ]  -1900.17889648  
$$ SHIM_SETTING [4 ]  -5348.97731532  
$$ SHIM_SETTING [5 ]  -1.30029430     
$$ SHIM_SETTING [6 ]  3302.46207188   
$$ SHIM_SETTING [7 ]  4553.84651541   
$$ SHIM_SETTING [8 ]  9972.74675764   
$$ SHIM_SETTING [9 ]  1608.92141008   
$$ SHIM_SETTING [10]  3774.23039268   
$$ SHIM_SETTING [11]  0.00000000      
$$ SHIM_SETTING [12]  -2767.60200000  
$$ SHIM_SETTING [13]  11181.60200000  
$$ SHIM_SETTING [14]  4131.70300000   
$$ SHIM_SETTING [15]  -3772.51962223  
$$ SHIM_SETTING [16]  10646.63748781  
$$ SHIM_SETTING [17]  5953.45191025   
$$ SHIM_SETTING [18]  -6497.76663238  
$$ SHIM_SETTING [19]  6233.58319531   
$$ SHIM_SETTING [20]  -3059.54165498  
$$ SHIM_SETTING [21]  3498.87400000   
$$ SHIM_SETTING [22]  15280.36800000  
$$ SHIM_SETTING [23]  -2539.12700000  
$$ SHIM_SETTING [24]  21570.70100000  
$$ SHIM_SETTING [25]  9539.37000000   
$$ SHIM_SETTING [26]  727.49000000    
$$ SHIM_SETTING [27]  -1827.95400000  
$$ SHIM_SETTING [28]  -11498.30770484 
$$ SHIM_SETTING [29]  -5065.22500000  
$$ SHIM_SETTING [30]  7022.84400000   
$$ SHIM_SETTING [31]  -3988.48723893  
$$ SHIM_SETTING [32]  10760.87304503  
$$ SHIM_SETTING [33]  -17506.44300000 
$$ SHIM_SETTING [34]  4873.22900000   
$$ SHIM_SETTING [35]  7752.75800000   
$$ SHIM_SETTING [36]  13742.15300000  
$$ SHIM_SETTING [37]  14572.13886165  
$$ SHIM_SETTING [38]  -8107.63052786  
$$ SHIM_SETTING [39]  18023.97169690  
$$ SHIM_SETTING [40]  0.00000000      
##$RELAX= 
##$BRUKER FILE EXP=uxnmr.par
$$ ##TITLE= Parameter file, TopSpin 3.5 pl 7
$$ ##JCAMPDX= 5.0
$$ ##DATATYPE= Parameter Values
$$ ##NPOINTS= 104	$$ modification sequence number
$$ ##ORIGIN= Bruker BioSpin GmbH
$$ ##OWNER= nmrsu
$$ $$ 2025-04-09 09:16:50.742 +0200  aci@chem-nmr500
$$ $$ /opt/topspin3.5pl7/conf/instr/spect/uxnmr.par
$$ $$ process /opt/topspin3.5pl7/prog/mod/cfserverav3
$$ ##$ACB= 0
$$ ##$ACBTAT= (0..23)
$$ 0 72 88 50 50 0 0 0 0 0 0 0 0 0 0 0 0 0 0 0 0 0 0 0
$$ ##$ACBTBA= (0..23)
$$ 0 0 0 0 0 0 0 0 0 0 0 0 0 0 0 0 0 0 0 0 0 0 0 0
$$ ##$ACBTBLK= (0..23)
$$ 0 34 33 36 1 0 0 0 0 0 0 0 0 0 0 0 0 0 0 0 0 0 0 0
$$ ##$ACBTCTL= (0..23)
$$ 0 6 6 6 6 0 0 0 0 0 0 0 0 0 0 0 0 0 0 0 0 0 0 0
$$ ##$ACBTDI= (0..23)
$$ 0 -1779670023 -1779670023 -1779670023 -1779670252 0 0 0 0 0 0 0 0 0 0 0
$$ 0 0 0 0 0 0 0 0
$$ ##$ACBTDM= (0..23)
$$ 0 25 6 10 10 0 0 0 0 0 0 0 0 0 0 0 0 0 0 0 0 0 0 0
$$ ##$ACBTFHI= (0..23)
$$ 0 600 365 92 78 0 0 0 0 0 0 0 0 0 0 0 0 0 0 0 0 0 0 0
$$ ##$ACBTFL= (0..23)
$$ 0 248 248 88 8 0 0 0 0 0 0 0 0 0 0 0 0 0 0 0 0 0 0 0
$$ ##$ACBTFLO= (0..23)
$$ 0 180 6 30 76 0 0 0 0 0 0 0 0 0 0 0 0 0 0 0 0 0 0 0
$$ ##$ACBTINP= (0..23)
$$ 0 2 1 4 0 0 0 0 0 0 0 0 0 0 0 0 0 0 0 0 0 0 0 0
$$ ##$ACBTOUT= (0..23)
$$ 0 1 2 3 1 0 0 0 0 0 0 0 0 0 0 0 0 0 0 0 0 0 0 0
$$ ##$ACBTPO= (0..23)
$$ 0 100000 500000 150000 5000 0 0 0 0 0 0 0 0 0 0 0 0 0 0 0 0 0 0 0
$$ ##$ACBTPW= (0..23)
$$ 0 100 60 5 1000 0 0 0 0 0 0 0 0 0 0 0 0 0 0 0 0 0 0 0
$$ ##$ACBTSB= (0..23)
$$ 0 103 99 16 0 0 0 0 0 0 0 0 0 0 0 0 0 0 0 0 0 0 0 0
$$ ##$ACBTSDT= (0..23)
$$ 0 2 2 2 2 0 0 0 0 0 0 0 0 0 0 0 0 0 0 0 0 0 0 0
$$ ##$ACBTY= <no>
$$ ##$AMPDFLT= no
$$ ##$AQSBDCH= (0..95)
$$ 0 0 0 0 0 0 0 0 0 0 255 255 255 255 255 255 255 255 255 255 255 255 255
$$ 255 255 255 255 255 255 255 255 255 255 255 255 255 255 255 255 255 255
$$ 255 255 255 255 255 255 255 255 255 255 255 255 255 255 255 255 255 255
$$ 255 255 255 255 255 255 255 255 255 255 255 255 255 255 255 255 255 255
$$ 255 255 255 255 255 255 255 255 255 255 255 255 255 255 255 255 255 255
$$ 255
$$ ##$AQSBDHW= (0..95)
$$ 5 1 0 0 0 0 0 0 0 0 255 255 255 255 255 255 255 255 255 255 255 255 255
$$ 255 255 255 255 255 255 255 255 255 255 255 255 255 255 255 255 255 255
$$ 255 255 255 255 255 255 255 255 255 255 255 255 255 255 255 255 255 255
$$ 255 255 255 255 255 255 255 255 255 255 255 255 255 255 255 255 255 255
$$ 255 255 255 255 255 255 255 255 255 255 255 255 255 255 255 255 255 255
$$ 255
$$ ##$AQSBDID= (0..95)
$$ 82 88 83 83 83 83 86 86 66 66 255 255 255 255 255 255 255 255 255 255 255
$$ 255 255 255 255 255 255 255 255 255 255 255 255 255 255 255 255 255 255
$$ 255 255 255 255 255 255 255 255 255 255 255 255 255 255 255 255 255 255
$$ 255 255 255 255 255 255 255 255 255 255 255 255 255 255 255 255 255 255
$$ 255 255 255 255 255 255 255 255 255 255 255 255 255 255 255 255 255 255
$$ 255 255 255
$$ ##$AQSBDNO= (0..95)
$$ 1 1 1 2 3 4 1 2 1 1 255 255 255 255 255 255 255 255 255 255 255 255 255
$$ 255 255 255 255 255 255 255 255 255 255 255 255 255 255 255 255 255 255
$$ 255 255 255 255 255 255 255 255 255 255 255 255 255 255 255 255 255 255
$$ 255 255 255 255 255 255 255 255 255 255 255 255 255 255 255 255 255 255
$$ 255 255 255 255 255 255 255 255 255 255 255 255 255 255 255 255 255 255
$$ 255
$$ ##$AQSBDSL= (0..95)
$$ 2 3 4 4 5 5 13 14 255 1 255 255 255 255 255 255 255 255 255 255 255 255
$$ 255 255 255 255 255 255 255 255 255 255 255 255 255 255 255 255 255 255
$$ 255 255 255 255 255 255 255 255 255 255 255 255 255 255 255 255 255 255
$$ 255 255 255 255 255 255 255 255 255 255 255 255 255 255 255 255 255 255
$$ 255 255 255 255 255 255 255 255 255 255 255 255 255 255 255 255 255 255
$$ 255 255
$$ ##$AQSBDTY= (0..95)
$$ 67 214 50 50 50 50 147 145 216 7 255 255 255 255 255 255 255 255 255 255
$$ 255 255 255 255 255 255 255 255 255 255 255 255 255 255 255 255 255 255
$$ 255 255 255 255 255 255 255 255 255 255 255 255 255 255 255 255 255 255
$$ 255 255 255 255 255 255 255 255 255 255 255 255 255 255 255 255 255 255
$$ 255 255 255 255 255 255 255 255 255 255 255 255 255 255 255 255 255 255
$$ 255 255 255 255
$$ ##$AQSBUAD= (0..95)
$$ 16 52 36 37 38 39 160 161 32 32 255 255 255 255 255 255 255 255 255 255
$$ 255 255 255 255 255 255 255 255 255 255 255 255 255 255 255 255 255 255
$$ 255 255 255 255 255 255 255 255 255 255 255 255 255 255 255 255 255 255
$$ 255 255 255 255 255 255 255 255 255 255 255 255 255 255 255 255 255 255
$$ 255 255 255 255 255 255 255 255 255 255 255 255 255 255 255 255 255 255
$$ 255 255 255 255
$$ ##$AQSECL= (0..95)
$$ 0 2 2 2 2 2 0 1 1 255 255 255 255 255 255 255 255 255 255 255 255 255 255
$$ 255 255 255 255 255 255 255 255 255 255 255 255 255 255 255 255 255 255
$$ 255 255 255 255 255 255 255 255 255 255 255 255 255 255 255 255 255 255
$$ 255 255 255 255 255 255 255 255 255 255 255 255 255 255 255 255 255 255
$$ 255 255 255 255 255 255 255 255 255 255 255 255 255 255 255 255 255 255
$$ 255
$$ ##$AQSECLS= (0..95)
$$ 2 0 2 2 2 2 1 2 1 255 255 255 255 255 255 255 255 255 255 255 255 255 255
$$ 255 255 255 255 255 255 255 255 255 255 255 255 255 255 255 255 255 255
$$ 255 255 255 255 255 255 255 255 255 255 255 255 255 255 255 255 255 255
$$ 255 255 255 255 255 255 255 255 255 255 255 255 255 255 255 255 255 255
$$ 255 255 255 255 255 255 255 255 255 255 255 255 255 255 255 255 255 255
$$ 255
$$ ##$AQSETH1= <no>
$$ ##$AQSETH2= <no>
$$ ##$AQSSPLT= no
$$ ##$ATT19F= (0..1)
$$ 0 0
$$ ##$ATT1H= (0..1)
$$ 0 0
$$ ##$ATT3H= (0..1)
$$ 0 0
$$ ##$ATTX= (0..1)
$$ 0 0
$$ ##$ATTY= (0..1)
$$ 0 0
$$ ##$ATTZ= (0..1)
$$ 0 0
$$ ##$BACSAIR= yes
$$ ##$BACSCAP= 0
$$ ##$BACSDEL= 1
$$ ##$BACSFCM= no
$$ ##$BACSOPT= <>
$$ ##$BACSTY= <no>
$$ ##$BARPTY= <no>
$$ ##$BFREQ= 500.25
$$ ##$BGAETH= (0..9)
$$ <no> <no> <no> <no> <no> <no> <no> <no> <no> <no>
$$ ##$BIRDS= yes
$$ ##$BMPC= 0
$$ ##$BMPCTY= <no>
$$ ##$BPSUTY= <no>
$$ ##$BSMS= 2
$$ ##$BSMS19FLock= no
$$ ##$BSMSETH= <149.236.99.20>
$$ ##$BSMSTY= <no>
$$ ##$BgaChFac2= (0..7)
$$ 0 0 0 0 0 0 0 0
$$ ##$BgaChMap= (0..7)
$$ 0 0 0 0 0 0 0 0
$$ ##$BgaChMaxv= (0..7)
$$ 0 0 0 0 0 0 0 0
$$ ##$BgaChRouting= (0..63)
$$ 0 0 0 0 0 0 0 0 0 0 0 0 0 0 0 0 0 0 0 0 0 0 0 0 0 0 0 0 0 0 0 0 0 0 0 0
$$ 0 0 0 0 0 0 0 0 0 0 0 0 0 0 0 0 0 0 0 0 0 0 0 0 0 0 0 0
$$ ##$BgaChShimMap= (0..7)
$$ 0 0 0 0 0 0 0 0
$$ ##$BgaChShimMaxv= (0..7)
$$ 0 0 0 0 0 0 0 0
$$ ##$Bla01Eth= <149.236.99.254>
$$ ##$Bla01Nam= <BLAXH2H500/100/150 E 200-600MHZ>
$$ ##$Bla01PN= <W1345099>
$$ ##$Bla01SN= <0190>
$$ ##$Bla02Eth= <149.236.99.20>
$$ ##$Bla02Nam= <BSMS/2 LOCK TRANSCEIVER 500>
$$ ##$Bla02PN= <Z109889>
$$ ##$Bla02SN= <00456>
$$ ##$Bla03Eth= <no>
$$ ##$Bla03Nam= <>
$$ ##$Bla03PN= <>
$$ ##$Bla03SN= <>
$$ ##$Bla04Eth= <no>
$$ ##$Bla04Nam= <>
$$ ##$Bla04PN= <>
$$ ##$Bla04SN= <>
$$ ##$Bla05Eth= <no>
$$ ##$Bla05Nam= <>
$$ ##$Bla05PN= <>
$$ ##$Bla05SN= <>
$$ ##$Bla06Eth= <no>
$$ ##$Bla06Nam= <>
$$ ##$Bla06PN= <>
$$ ##$Bla06SN= <>
$$ ##$Bla07Eth= <no>
$$ ##$Bla07Nam= <>
$$ ##$Bla07PN= <>
$$ ##$Bla07SN= <>
$$ ##$Bla08Eth= <no>
$$ ##$Bla08Nam= <>
$$ ##$Bla08PN= <>
$$ ##$Bla08SN= <>
$$ ##$BlaEth= (0..9)
$$ <149.236.99.249> <149.236.99.20> <no> <no> <no> <no> <no> <no> <> <>
$$ ##$BlaNam= (0..9)
$$ <BLAXH2H500/100/150 E 200-600MHZ > <BSMS/2 LOCK TRANSCEIVER 500> <> <>
$$ <> <> <> <> <> <>
$$ ##$BlaPN= (0..9)
$$ <W1345099> <Z109889> <> <> <> <> <> <> <> <>
$$ ##$BlaSN= (0..9)
$$ <0187> <00456> <> <> <> <> <> <> <> <>
$$ ##$BsmsAuxEth= <no>
$$ ##$CFASMOD= (0..7)
$$ 1 1 1 1 1 1 1 1
$$ ##$CFASMUL= (0..7)
$$ 1 1 1 1 1 1 1 1
$$ ##$CNFTXDR= (0..7)
$$ 6 6 6 0 0 0 0 0
$$ ##$COMDIG2= 0
$$ ##$CPDBTY= <no>
$$ ##$CRCOTY= <no>
$$ ##$CSW1= (0..31)
$$ 2 2 2 4 0 0 0 0 0 0 0 0 0 0 0 0 0 0 0 0 0 0 0 0 0 0 0 0 0 0 0 0
$$ ##$CSW2= (0..31)
$$ 1 1 1 0 0 0 0 0 0 0 0 0 0 0 0 0 0 0 0 0 0 0 0 0 0 0 0 0 0 0 0 0
$$ ##$CSWNUM= (0..7)
$$ 4 1 0 0 0 0 0 0
$$ ##$ConsolePnSn= <>
$$ ##$CryoProAccPnSn= <>
$$ ##$Ctb1Eth= <no>
$$ ##$CubeEth= (0..7)
$$ <no> <no> <no> <no> <no> <no> <no> <no>
$$ ##$CustRegisterNo= <>
$$ ##$DATSTAT= no
$$ ##$DIGI140= (0..7)
$$ 0 0 0 0 0 0 0 0
$$ ##$DIGIB12= (0..7)
$$ 0 0 0 0 0 0 0 0
$$ ##$DIGIB16= (0..7)
$$ 0 0 0 0 0 0 0 0
$$ ##$DIGIFA= (0..7)
$$ 0 0 0 0 0 0 0 0
$$ ##$DIGIFOURIER= 0
$$ ##$DIGIHA= (0..7)
$$ 0 0 0 0 0 0 0 0
$$ ##$DIGIHAF= (0..7)
$$ 0 0 0 0 0 0 0 0
$$ ##$DIGIHRD= (0..7)
$$ 0 0 0 0 0 0 0 0
$$ ##$DIGIIA= (0..7)
$$ 0 0 0 0 0 0 0 0
$$ ##$DIGIO16= (0..7)
$$ 0 0 0 0 0 0 0 0
$$ ##$DIGISA= (0..7)
$$ 0 0 0 0 0 0 0 0
$$ ##$DIGISAF= (0..7)
$$ 0 0 0 0 0 0 0 0
$$ ##$DIGISL= (0..7)
$$ 0 0 0 0 0 0 0 0
$$ ##$DIGITYI= (0..7)
$$ 0 0 0 0 0 0 0 0
$$ ##$DIGITYP= (0..7)
$$ 0 0 0 0 0 0 0 0
$$ ##$DIGITZ= 0
$$ ##$DPPFAC= 1
$$ ##$DRMSETH= <no>
$$ ##$DRU= yes
$$ ##$DRUETH= (0..33)
$$ <no> <149.236.99.89> <no> <no> <no> <no> <no> <no> <no> <no> <no> <no>
$$ <no> <no> <no> <no> <no> <no> <no> <no> <no> <no> <no> <no> <no> <no> <no>
$$ <no> <no> <no> <no> <no> <no> <>
$$ ##$Description= <AVHD500>
$$ ##$DppType= 0
$$ ##$FCUMEM= (0..7)
$$ 16777208 16777208 16777208 0 0 0 0 0
$$ ##$FCUPAL= (0..7)
$$ 0 0 0 0 0 0 0 0
$$ ##$FGSVTY= <no>
$$ ##$FQMIX= 0
$$ ##$FUNCMOD= <>
$$ ##$FourPeriBdEth= <no>
$$ ##$FourShimBdEth= <no>
$$ ##$FourierPicsCon= no
$$ ##$GCUTYPE= 10
$$ ##$GCUTYPE2= 0
$$ ##$GPREDEL= 0
$$ ##$GPSCUTY= <no>
$$ ##$GRADRES= 5
$$ ##$GTUTY= <no>
$$ ##$GcConn= (0..1)
$$ 1 0
$$ ##$GradAmpGain= (0..7)
$$ 0 0 0 0 0 0 0 0
$$ ##$GradAmpMaxCurX= (0..7)
$$ 0 0 0 0 0 0 0 0
$$ ##$GradAmpMaxCurY= (0..7)
$$ 0 0 0 0 0 0 0 0
$$ ##$GradAmpMaxCurZ= (0..7)
$$ 9.99999904632568 0 0 0 0 0 0 0
$$ ##$GradAmpName= (0..7)
$$ <GAB in BSMS> <> <> <> <> <> <> <>
$$ ##$GradAmpPN= (0..7)
$$ <> <> <> <> <> <> <> <>
$$ ##$GradAmpSN= (0..7)
$$ <> <> <> <> <> <> <> <>
$$ ##$GradAmpType= (0..7)
$$ 2 0 0 0 0 0 0 0
$$ ##$GradPowClkCtrl= 0
$$ ##$GradPowClkTime= 0
$$ ##$GradPowImax= 0
$$ ##$GradPowType= 0
$$ ##$GradPowVmax= 0
$$ ##$HDIETH= (0..5)
$$ <> <no> <no> <no> <no> <>
$$ ##$HFAC= 3
$$ ##$HPCU= 0
$$ ##$HPCUTY= <no>
$$ ##$HPTXLP= (0..3)
$$ -1 -1 -1 -1
$$ ##$HPTXPI= (0..3)
$$ 0 0 0 0
$$ ##$HPTXPO= (0..3)
$$ 0 0 0 0
$$ ##$HPTXTY= (0..3)
$$ 0 0 0 0
$$ ##$HpprCoverType= 2
$$ ##$IF451= 0
$$ ##$IFREQ= 1
$$ ##$INJPTY= <no>
$$ ##$INTFPR= 0
$$ ##$IPSOETH= <149.236.99.253>
$$ ##$IPSOTYPE= 1
$$ ##$LDUETH= (0..0)
$$ <no>
$$ ##$LOCKCONF= <DLM>
$$ ##$LOCKTY= <no>
$$ ##$LOCSWID= 0
$$ ##$LOCSWIF= 0
$$ ##$LVDSSPLITETH= (0..5)
$$ <> <no> <no> <no> <no> <>
$$ ##$Location= <Universitaet Zuerich Irchel>
$$ ##$M2FAC= 0
$$ ##$MAS= 2
$$ ##$MASETIME= 10
$$ ##$MASITIME= 10
$$ ##$MASTY= <tty01>
$$ ##$MAS_CT= 10
$$ ##$MAS_SG= 0
$$ ##$MAS_TO= 0
$$ ##$MEMPRM= 0
$$ ##$MHFAC= 0
$$ ##$MXFAC= 0
$$ ##$MagnCoilPnSn= <>
$$ ##$MagnDewarPnSn= <>
$$ ##$MasEth= <no>
$$ ##$NAMPD= (0..17)
$$ <> <HPLNA 19F1H> <2H> <XBB19F 2HP> <> <> <> <> <> <> <> <> <> <> <> <>
$$ <> <>
$$ ##$NFCU= 3
$$ ##$NFRED= 0
$$ ##$NMRCH= 2
$$ ##$NMRMEM= 16384
$$ ##$NPSGU= 0
$$ ##$NRCU= 1
$$ ##$NROUT= 0
$$ ##$NSGU= 4
$$ ##$OrderNo= <10088890>
$$ ##$PAMPF1= (0..15)
$$ 75 56 96 64 0 0 0 0 0 0 0 0 0 0 0 0
$$ ##$PAMPF2= (0..15)
$$ 0 0 0 0 0 0 0 0 0 0 0 0 0 0 0 0
$$ ##$PAMPF3= (0..15)
$$ 0 0 0 0 0 0 0 0 0 0 0 0 0 0 0 0
$$ ##$PAMPF4= (0..15)
$$ 0 0 0 0 0 0 0 0 0 0 0 0 0 0 0 0
$$ ##$PAMPF5= (0..15)
$$ 0 0 0 0 0 0 0 0 0 0 0 0 0 0 0 0
$$ ##$PAMPF6= (0..15)
$$ 0 0 0 0 0 0 0 0 0 0 0 0 0 0 0 0
$$ ##$PAMPF7= (0..15)
$$ 0 0 0 0 0 0 0 0 0 0 0 0 0 0 0 0
$$ ##$PAMPF8= (0..15)
$$ 0 0 0 0 0 0 0 0 0 0 0 0 0 0 0 0
$$ ##$PH4= 0
$$ ##$PHF4TY= <no>
$$ ##$POWCHK= yes
$$ ##$PRAMD1= (0..7)
$$ 6 0 0 1610612736 0 0 0 0
$$ ##$PRAMD10= (0..7)
$$ 0 0 0 0 0 0 0 0
$$ ##$PRAMD11= (0..7)
$$ 0 0 0 0 0 0 0 0
$$ ##$PRAMD12= (0..7)
$$ 0 0 0 0 0 0 0 0
$$ ##$PRAMD13= (0..7)
$$ 0 0 0 0 0 0 0 0
$$ ##$PRAMD14= (0..7)
$$ 0 0 0 0 0 0 0 0
$$ ##$PRAMD15= (0..7)
$$ 0 0 0 0 0 0 0 0
$$ ##$PRAMD16= (0..7)
$$ 0 0 0 0 0 0 0 0
$$ ##$PRAMD17= (0..7)
$$ 0 0 0 0 0 0 0 0
$$ ##$PRAMD18= (0..7)
$$ 0 0 0 0 0 0 0 0
$$ ##$PRAMD19= (0..7)
$$ 0 0 0 0 0 0 0 0
$$ ##$PRAMD2= (0..7)
$$ 0 1048576 0 536870912 0 1048576 0 536870912
$$ ##$PRAMD20= (0..7)
$$ 0 0 0 0 0 0 0 0
$$ ##$PRAMD21= (0..7)
$$ 0 0 0 0 0 0 0 0
$$ ##$PRAMD3= (0..7)
$$ 2147483644 2147483647 2147483647 603979775 0 0 0 0
$$ ##$PRAMD4= (0..7)
$$ 0 0 0 0 0 0 0 0
$$ ##$PRAMD5= (0..7)
$$ 0 0 0 0 0 0 0 0
$$ ##$PRAMD6= (0..7)
$$ 0 0 0 0 0 0 0 0
$$ ##$PRAMD7= (0..7)
$$ 0 0 0 0 0 0 0 0
$$ ##$PRAMD8= (0..7)
$$ 0 0 0 0 0 0 0 0
$$ ##$PRAMD9= (0..7)
$$ 0 0 0 0 0 0 0 0
$$ ##$PRAMLED= (0..1)
$$ 0 0
$$ ##$PRAMP= (0..9)
$$ <> <tty10> <no> <no> <no> <no> <no> <no> <no> <>
$$ ##$PRAMPTP= 1
$$ ##$PREEMPTYPE= 0
$$ ##$PREPTY= <no>
$$ ##$PREREC= (0..15)
$$ 0 1 1 1 0 0 0 0 0 0 0 0 0 0 0 0
$$ ##$PRESHLD= 0
$$ ##$PTS160= -1
$$ ##$PTSA2X= (0..7)
$$ 0 0 0 0 0 0 0 0
$$ ##$PTSF2X= (0..7)
$$ 0 0 0 0 0 0 0 0
$$ ##$PTSFMX= (0..19)
$$ 649.9 649.9 649.9 649.9 0 0 0 0 0 0 0 0 0 0 0 0 0 0 0 0
$$ ##$PULCHK= no
$$ ##$PerMagATempSens= no
$$ ##$PerMagEth= <no>
$$ ##$PerMagFluxSens= no
$$ ##$PerMagMTempSens= no
$$ ##$PramDutyCycPerc= (0..15)
$$ 4 2 2 0 0 0 0 0 0 0 0 0 0 0 0 0
$$ ##$PramPeakPowerW= (0..15)
$$ 4000 500 500 0 0 0 0 0 0 0 0 0 0 0 0 0
$$ ##$PramPowerSwitch= (0..15)
$$ 0 0 0 0 0 0 0 0 0 0 0 0 0 0 0 0
$$ ##$PramPulWidthMs= (0..15)
$$ 10 0.1 0.1 0 0 0 0 0 0 0 0 0 0 0 0 0
$$ ##$PreampMod01PN= <Z103204>
$$ ##$PreampMod01SN= <00273>
$$ ##$PreampMod02PN= <Z003472>
$$ ##$PreampMod02SN= <01157>
$$ ##$PreampMod03PN= <Z102026>
$$ ##$PreampMod03SN= <00013>
$$ ##$PreampMod04PN= <>
$$ ##$PreampMod04SN= <>
$$ ##$PreampMod05PN= <>
$$ ##$PreampMod05SN= <>
$$ ##$PreampMod06PN= <>
$$ ##$PreampMod06SN= <>
$$ ##$PreampMod07PN= <>
$$ ##$PreampMod07SN= <>
$$ ##$PreampMod08PN= <>
$$ ##$PreampMod08SN= <>
$$ ##$PreampMod09PN= <>
$$ ##$PreampMod09SN= <>
$$ ##$PreampMod10PN= <>
$$ ##$PreampMod10SN= <>
$$ ##$PreampMod11PN= <>
$$ ##$PreampMod11SN= <>
$$ ##$PreampMod12PN= <>
$$ ##$PreampMod12SN= <>
$$ ##$PreampMod13PN= <>
$$ ##$PreampMod13SN= <>
$$ ##$PreampMod14PN= <>
$$ ##$PreampMod14SN= <>
$$ ##$PreampMod15PN= <>
$$ ##$PreampMod15SN= <>
$$ ##$PreampMod16PN= <>
$$ ##$PreampMod16SN= <>
$$ ##$PreampModBisDat= (0..15)
$$ 20130502 20130412 20130626 0 0 0 0 0 0 0 0 0 0 0 0 0
$$ ##$PreampModPN= (0..17)
$$ <Z103204> <Z003472> <Z102026> <> <> <> <> <> <> <> <> <> <> <> <> <> <>
$$ <>
$$ ##$PreampModSN= (0..17)
$$ <00273> <01157> <00013> <> <> <> <> <> <> <> <> <> <> <> <> <> <> <>
$$ ##$ProdigyEth= <no>
$$ ##$RCUCDS= (0..7)
$$ 0 0 0 0 0 0 0 0
$$ ##$RCUCFS= (0..7)
$$ 0 0 0 0 0 0 0 0
$$ ##$RCUCSS= (0..7)
$$ 0 0 0 0 0 0 0 0
$$ ##$RCUI2C1= (0..7)
$$ 0 0 0 0 0 0 0 0
$$ ##$RCUI2C2= (0..7)
$$ 0 0 0 0 0 0 0 0
$$ ##$RCUI2C3= (0..7)
$$ 0 0 0 0 0 0 0 0
$$ ##$RCUI2C4= (0..7)
$$ 0 0 0 0 0 0 0 0
$$ ##$RCUI2C5= (0..7)
$$ 0 0 0 0 0 0 0 0
$$ ##$RCUI2C6= (0..7)
$$ 0 0 0 0 0 0 0 0
$$ ##$RCUI2C7= (0..7)
$$ 0 0 0 0 0 0 0 0
$$ ##$RCUI2C8= (0..7)
$$ 0 0 0 0 0 0 0 0
$$ ##$RDCU= 0
$$ ##$RFSINPUT= (0..1)
$$ 0 0
$$ ##$RFSVTY= <no>
$$ ##$RGTYPE= (0..31)
$$ 9 0 0 0 0 0 0 0 0 0 0 0 0 0 0 0 0 0 0 0 0 0 0 0 0 0 0 0 0 0 0 0
$$ ##$RG_max= (0..31)
$$ 203 -1 -1 -1 -1 -1 -1 -1 -1 -1 -1 -1 -1 -1 -1 -1 -1 -1 -1 -1 -1 -1 -1 -1
$$ -1 -1 -1 -1 -1 -1 -1 -1
$$ ##$RG_min= (0..31)
$$ 0.25 -1 -1 -1 -1 -1 -1 -1 -1 -1 -1 -1 -1 -1 -1 -1 -1 -1 -1 -1 -1 -1 -1
$$ -1 -1 -1 -1 -1 -1 -1 -1 -1
$$ ##$RG_tab1= (0..255)
$$ 0.25 0.28 0.32 0.35 0.4 0.44 0.5 0.56 0.64 0.7 0.8 0.89 1 1.12 1.28 1.4
$$ 1.6 1.78 2 2.25 2.56 2.8 3.2 3.56 4 4.5 5 5.6 6.35 7.12 8 9 10 11.3 12.7
$$ 14.2 16 18 20.2 22.6 25.4 28.5 32 36 40.3 45.2 50.8 57 64 71.8 80.6 90.5
$$ 101 114 128 144 161 181 203 -1 -1 -1 -1 -1 -1 -1 -1 -1 -1 -1 -1 -1 -1 -1
$$ -1 -1 -1 -1 -1 -1 -1 -1 -1 -1 -1 -1 -1 -1 -1 -1 -1 -1 -1 -1 -1 -1 -1 -1
$$ -1 -1 -1 -1 -1 -1 -1 -1 -1 -1 -1 -1 -1 -1 -1 -1 -1 -1 -1 -1 -1 -1 -1 -1
$$ -1 -1 -1 -1 -1 -1 -1 -1 -1 -1 -1 -1 -1 -1 -1 -1 -1 -1 -1 -1 -1 -1 -1 -1
$$ -1 -1 -1 -1 -1 -1 -1 -1 -1 -1 -1 -1 -1 -1 -1 -1 -1 -1 -1 -1 -1 -1 -1 -1
$$ -1 -1 -1 -1 -1 -1 -1 -1 -1 -1 -1 -1 -1 -1 -1 -1 -1 -1 -1 -1 -1 -1 -1 -1
$$ -1 -1 -1 -1 -1 -1 -1 -1 -1 -1 -1 -1 -1 -1 -1 -1 -1 -1 -1 -1 -1 -1 -1 -1
$$ -1 -1 -1 -1 -1 -1 -1 -1 -1 -1 -1 -1 -1 -1 -1 -1 -1 -1 -1 -1 -1 -1 -1 -1
$$ -1 -1 -1 -1 -1 -1 -1 -1 -1 -1 -1 -1 -1 -1
$$ ##$RG_tab2= (0..255)
$$ -1 -1 -1 -1 -1 -1 -1 -1 -1 -1 -1 -1 -1 -1 -1 -1 -1 -1 -1 -1 -1 -1 -1 -1
$$ -1 -1 -1 -1 -1 -1 -1 -1 -1 -1 -1 -1 -1 -1 -1 -1 -1 -1 -1 -1 -1 -1 -1 -1
$$ -1 -1 -1 -1 -1 -1 -1 -1 -1 -1 -1 -1 -1 -1 -1 -1 -1 -1 -1 -1 -1 -1 -1 -1
$$ -1 -1 -1 -1 -1 -1 -1 -1 -1 -1 -1 -1 -1 -1 -1 -1 -1 -1 -1 -1 -1 -1 -1 -1
$$ -1 -1 -1 -1 -1 -1 -1 -1 -1 -1 -1 -1 -1 -1 -1 -1 -1 -1 -1 -1 -1 -1 -1 -1
$$ -1 -1 -1 -1 -1 -1 -1 -1 -1 -1 -1 -1 -1 -1 -1 -1 -1 -1 -1 -1 -1 -1 -1 -1
$$ -1 -1 -1 -1 -1 -1 -1 -1 -1 -1 -1 -1 -1 -1 -1 -1 -1 -1 -1 -1 -1 -1 -1 -1
$$ -1 -1 -1 -1 -1 -1 -1 -1 -1 -1 -1 -1 -1 -1 -1 -1 -1 -1 -1 -1 -1 -1 -1 -1
$$ -1 -1 -1 -1 -1 -1 -1 -1 -1 -1 -1 -1 -1 -1 -1 -1 -1 -1 -1 -1 -1 -1 -1 -1
$$ -1 -1 -1 -1 -1 -1 -1 -1 -1 -1 -1 -1 -1 -1 -1 -1 -1 -1 -1 -1 -1 -1 -1 -1
$$ -1 -1 -1 -1 -1 -1 -1 -1 -1 -1 -1 -1 -1 -1 -1 -1
$$ ##$RG_tab3= (0..255)
$$ -1 -1 -1 -1 -1 -1 -1 -1 -1 -1 -1 -1 -1 -1 -1 -1 -1 -1 -1 -1 -1 -1 -1 -1
$$ -1 -1 -1 -1 -1 -1 -1 -1 -1 -1 -1 -1 -1 -1 -1 -1 -1 -1 -1 -1 -1 -1 -1 -1
$$ -1 -1 -1 -1 -1 -1 -1 -1 -1 -1 -1 -1 -1 -1 -1 -1 -1 -1 -1 -1 -1 -1 -1 -1
$$ -1 -1 -1 -1 -1 -1 -1 -1 -1 -1 -1 -1 -1 -1 -1 -1 -1 -1 -1 -1 -1 -1 -1 -1
$$ -1 -1 -1 -1 -1 -1 -1 -1 -1 -1 -1 -1 -1 -1 -1 -1 -1 -1 -1 -1 -1 -1 -1 -1
$$ -1 -1 -1 -1 -1 -1 -1 -1 -1 -1 -1 -1 -1 -1 -1 -1 -1 -1 -1 -1 -1 -1 -1 -1
$$ -1 -1 -1 -1 -1 -1 -1 -1 -1 -1 -1 -1 -1 -1 -1 -1 -1 -1 -1 -1 -1 -1 -1 -1
$$ -1 -1 -1 -1 -1 -1 -1 -1 -1 -1 -1 -1 -1 -1 -1 -1 -1 -1 -1 -1 -1 -1 -1 -1
$$ -1 -1 -1 -1 -1 -1 -1 -1 -1 -1 -1 -1 -1 -1 -1 -1 -1 -1 -1 -1 -1 -1 -1 -1
$$ -1 -1 -1 -1 -1 -1 -1 -1 -1 -1 -1 -1 -1 -1 -1 -1 -1 -1 -1 -1 -1 -1 -1 -1
$$ -1 -1 -1 -1 -1 -1 -1 -1 -1 -1 -1 -1 -1 -1 -1 -1
$$ ##$RG_tab4= (0..255)
$$ -1 -1 -1 -1 -1 -1 -1 -1 -1 -1 -1 -1 -1 -1 -1 -1 -1 -1 -1 -1 -1 -1 -1 -1
$$ -1 -1 -1 -1 -1 -1 -1 -1 -1 -1 -1 -1 -1 -1 -1 -1 -1 -1 -1 -1 -1 -1 -1 -1
$$ -1 -1 -1 -1 -1 -1 -1 -1 -1 -1 -1 -1 -1 -1 -1 -1 -1 -1 -1 -1 -1 -1 -1 -1
$$ -1 -1 -1 -1 -1 -1 -1 -1 -1 -1 -1 -1 -1 -1 -1 -1 -1 -1 -1 -1 -1 -1 -1 -1
$$ -1 -1 -1 -1 -1 -1 -1 -1 -1 -1 -1 -1 -1 -1 -1 -1 -1 -1 -1 -1 -1 -1 -1 -1
$$ -1 -1 -1 -1 -1 -1 -1 -1 -1 -1 -1 -1 -1 -1 -1 -1 -1 -1 -1 -1 -1 -1 -1 -1
$$ -1 -1 -1 -1 -1 -1 -1 -1 -1 -1 -1 -1 -1 -1 -1 -1 -1 -1 -1 -1 -1 -1 -1 -1
$$ -1 -1 -1 -1 -1 -1 -1 -1 -1 -1 -1 -1 -1 -1 -1 -1 -1 -1 -1 -1 -1 -1 -1 -1
$$ -1 -1 -1 -1 -1 -1 -1 -1 -1 -1 -1 -1 -1 -1 -1 -1 -1 -1 -1 -1 -1 -1 -1 -1
$$ -1 -1 -1 -1 -1 -1 -1 -1 -1 -1 -1 -1 -1 -1 -1 -1 -1 -1 -1 -1 -1 -1 -1 -1
$$ -1 -1 -1 -1 -1 -1 -1 -1 -1 -1 -1 -1 -1 -1 -1 -1
$$ ##$RG_tab5= (0..255)
$$ -1 -1 -1 -1 -1 -1 -1 -1 -1 -1 -1 -1 -1 -1 -1 -1 -1 -1 -1 -1 -1 -1 -1 -1
$$ -1 -1 -1 -1 -1 -1 -1 -1 -1 -1 -1 -1 -1 -1 -1 -1 -1 -1 -1 -1 -1 -1 -1 -1
$$ -1 -1 -1 -1 -1 -1 -1 -1 -1 -1 -1 -1 -1 -1 -1 -1 -1 -1 -1 -1 -1 -1 -1 -1
$$ -1 -1 -1 -1 -1 -1 -1 -1 -1 -1 -1 -1 -1 -1 -1 -1 -1 -1 -1 -1 -1 -1 -1 -1
$$ -1 -1 -1 -1 -1 -1 -1 -1 -1 -1 -1 -1 -1 -1 -1 -1 -1 -1 -1 -1 -1 -1 -1 -1
$$ -1 -1 -1 -1 -1 -1 -1 -1 -1 -1 -1 -1 -1 -1 -1 -1 -1 -1 -1 -1 -1 -1 -1 -1
$$ -1 -1 -1 -1 -1 -1 -1 -1 -1 -1 -1 -1 -1 -1 -1 -1 -1 -1 -1 -1 -1 -1 -1 -1
$$ -1 -1 -1 -1 -1 -1 -1 -1 -1 -1 -1 -1 -1 -1 -1 -1 -1 -1 -1 -1 -1 -1 -1 -1
$$ -1 -1 -1 -1 -1 -1 -1 -1 -1 -1 -1 -1 -1 -1 -1 -1 -1 -1 -1 -1 -1 -1 -1 -1
$$ -1 -1 -1 -1 -1 -1 -1 -1 -1 -1 -1 -1 -1 -1 -1 -1 -1 -1 -1 -1 -1 -1 -1 -1
$$ -1 -1 -1 -1 -1 -1 -1 -1 -1 -1 -1 -1 -1 -1 -1 -1
$$ ##$RG_tab6= (0..255)
$$ -1 -1 -1 -1 -1 -1 -1 -1 -1 -1 -1 -1 -1 -1 -1 -1 -1 -1 -1 -1 -1 -1 -1 -1
$$ -1 -1 -1 -1 -1 -1 -1 -1 -1 -1 -1 -1 -1 -1 -1 -1 -1 -1 -1 -1 -1 -1 -1 -1
$$ -1 -1 -1 -1 -1 -1 -1 -1 -1 -1 -1 -1 -1 -1 -1 -1 -1 -1 -1 -1 -1 -1 -1 -1
$$ -1 -1 -1 -1 -1 -1 -1 -1 -1 -1 -1 -1 -1 -1 -1 -1 -1 -1 -1 -1 -1 -1 -1 -1
$$ -1 -1 -1 -1 -1 -1 -1 -1 -1 -1 -1 -1 -1 -1 -1 -1 -1 -1 -1 -1 -1 -1 -1 -1
$$ -1 -1 -1 -1 -1 -1 -1 -1 -1 -1 -1 -1 -1 -1 -1 -1 -1 -1 -1 -1 -1 -1 -1 -1
$$ -1 -1 -1 -1 -1 -1 -1 -1 -1 -1 -1 -1 -1 -1 -1 -1 -1 -1 -1 -1 -1 -1 -1 -1
$$ -1 -1 -1 -1 -1 -1 -1 -1 -1 -1 -1 -1 -1 -1 -1 -1 -1 -1 -1 -1 -1 -1 -1 -1
$$ -1 -1 -1 -1 -1 -1 -1 -1 -1 -1 -1 -1 -1 -1 -1 -1 -1 -1 -1 -1 -1 -1 -1 -1
$$ -1 -1 -1 -1 -1 -1 -1 -1 -1 -1 -1 -1 -1 -1 -1 -1 -1 -1 -1 -1 -1 -1 -1 -1
$$ -1 -1 -1 -1 -1 -1 -1 -1 -1 -1 -1 -1 -1 -1 -1 -1
$$ ##$RG_tab7= (0..255)
$$ -1 -1 -1 -1 -1 -1 -1 -1 -1 -1 -1 -1 -1 -1 -1 -1 -1 -1 -1 -1 -1 -1 -1 -1
$$ -1 -1 -1 -1 -1 -1 -1 -1 -1 -1 -1 -1 -1 -1 -1 -1 -1 -1 -1 -1 -1 -1 -1 -1
$$ -1 -1 -1 -1 -1 -1 -1 -1 -1 -1 -1 -1 -1 -1 -1 -1 -1 -1 -1 -1 -1 -1 -1 -1
$$ -1 -1 -1 -1 -1 -1 -1 -1 -1 -1 -1 -1 -1 -1 -1 -1 -1 -1 -1 -1 -1 -1 -1 -1
$$ -1 -1 -1 -1 -1 -1 -1 -1 -1 -1 -1 -1 -1 -1 -1 -1 -1 -1 -1 -1 -1 -1 -1 -1
$$ -1 -1 -1 -1 -1 -1 -1 -1 -1 -1 -1 -1 -1 -1 -1 -1 -1 -1 -1 -1 -1 -1 -1 -1
$$ -1 -1 -1 -1 -1 -1 -1 -1 -1 -1 -1 -1 -1 -1 -1 -1 -1 -1 -1 -1 -1 -1 -1 -1
$$ -1 -1 -1 -1 -1 -1 -1 -1 -1 -1 -1 -1 -1 -1 -1 -1 -1 -1 -1 -1 -1 -1 -1 -1
$$ -1 -1 -1 -1 -1 -1 -1 -1 -1 -1 -1 -1 -1 -1 -1 -1 -1 -1 -1 -1 -1 -1 -1 -1
$$ -1 -1 -1 -1 -1 -1 -1 -1 -1 -1 -1 -1 -1 -1 -1 -1 -1 -1 -1 -1 -1 -1 -1 -1
$$ -1 -1 -1 -1 -1 -1 -1 -1 -1 -1 -1 -1 -1 -1 -1 -1
$$ ##$RG_tab8= (0..255)
$$ -1 -1 -1 -1 -1 -1 -1 -1 -1 -1 -1 -1 -1 -1 -1 -1 -1 -1 -1 -1 -1 -1 -1 -1
$$ -1 -1 -1 -1 -1 -1 -1 -1 -1 -1 -1 -1 -1 -1 -1 -1 -1 -1 -1 -1 -1 -1 -1 -1
$$ -1 -1 -1 -1 -1 -1 -1 -1 -1 -1 -1 -1 -1 -1 -1 -1 -1 -1 -1 -1 -1 -1 -1 -1
$$ -1 -1 -1 -1 -1 -1 -1 -1 -1 -1 -1 -1 -1 -1 -1 -1 -1 -1 -1 -1 -1 -1 -1 -1
$$ -1 -1 -1 -1 -1 -1 -1 -1 -1 -1 -1 -1 -1 -1 -1 -1 -1 -1 -1 -1 -1 -1 -1 -1
$$ -1 -1 -1 -1 -1 -1 -1 -1 -1 -1 -1 -1 -1 -1 -1 -1 -1 -1 -1 -1 -1 -1 -1 -1
$$ -1 -1 -1 -1 -1 -1 -1 -1 -1 -1 -1 -1 -1 -1 -1 -1 -1 -1 -1 -1 -1 -1 -1 -1
$$ -1 -1 -1 -1 -1 -1 -1 -1 -1 -1 -1 -1 -1 -1 -1 -1 -1 -1 -1 -1 -1 -1 -1 -1
$$ -1 -1 -1 -1 -1 -1 -1 -1 -1 -1 -1 -1 -1 -1 -1 -1 -1 -1 -1 -1 -1 -1 -1 -1
$$ -1 -1 -1 -1 -1 -1 -1 -1 -1 -1 -1 -1 -1 -1 -1 -1 -1 -1 -1 -1 -1 -1 -1 -1
$$ -1 -1 -1 -1 -1 -1 -1 -1 -1 -1 -1 -1 -1 -1 -1 -1
$$ ##$RG_tabA= (0..255)
$$ 0.25 0.28 0.32 0.35 0.4 0.44 0.5 0.56 0.64 0.7 0.8 0.89 1 1.12 1.28 1.4
$$ 1.6 1.78 2 2.25 2.56 2.8 3.2 3.56 4 4.5 5 5.6 6.35 7.12 8 9 10 11.3 12.7
$$ 14.2 16 18 20.2 22.6 25.4 28.5 32 36 40.3 45.2 50.8 57 64 71.8 80.6 90.5
$$ 101 114 128 144 161 181 203 -1 -1 -1 -1 -1 -1 -1 -1 -1 -1 -1 -1 -1 -1 -1
$$ -1 -1 -1 -1 -1 -1 -1 -1 -1 -1 -1 -1 -1 -1 -1 -1 -1 -1 -1 -1 -1 -1 -1 -1
$$ -1 -1 -1 -1 -1 -1 -1 -1 -1 -1 -1 -1 -1 -1 -1 -1 -1 -1 -1 -1 -1 -1 -1 -1
$$ -1 -1 -1 -1 -1 -1 -1 -1 -1 -1 -1 -1 -1 -1 -1 -1 -1 -1 -1 -1 -1 -1 -1 -1
$$ -1 -1 -1 -1 -1 -1 -1 -1 -1 -1 -1 -1 -1 -1 -1 -1 -1 -1 -1 -1 -1 -1 -1 -1
$$ -1 -1 -1 -1 -1 -1 -1 -1 -1 -1 -1 -1 -1 -1 -1 -1 -1 -1 -1 -1 -1 -1 -1 -1
$$ -1 -1 -1 -1 -1 -1 -1 -1 -1 -1 -1 -1 -1 -1 -1 -1 -1 -1 -1 -1 -1 -1 -1 -1
$$ -1 -1 -1 -1 -1 -1 -1 -1 -1 -1 -1 -1 -1 -1 -1 -1 -1 -1 -1 -1 -1 -1 -1 -1
$$ -1 -1 -1 -1 -1 -1 -1 -1 -1 -1 -1 -1 -1 -1
$$ ##$ROBOTTY= <no>
$$ ##$ROUT14= (0..7)
$$ 0 0 0 0 0 0 0 0
$$ ##$ROUTER= -1
$$ ##$RX22TY= <no>
$$ ##$RXFMAX= (0..7)
$$ 647.5 -1 -1 -1 -1 -1 -1 -1
$$ ##$RXFMIN= (0..7)
$$ 5 -1 -1 -1 -1 -1 -1 -1
$$ ##$RXINTLV= (0..7)
$$ 1 0 0 0 0 0 0 0
$$ ##$RXMSTY= <no>
$$ ##$RockSwitchEth= <no>
$$ ##$SCMTY= <no>
$$ ##$SGUC1= (0..15)
$$ 17 20 19 0 0 0 0 0 0 0 0 0 0 0 0 0
$$ ##$SGUC2= (0..15)
$$ 0 256 18 0 0 0 0 0 0 0 0 0 0 0 0 0
$$ ##$SLCBCONF= <SHNV>
$$ ##$SPECTR= 10
$$ ##$SY2FLAG= 0
$$ ##$SYNCTRIG= 11
$$ ##$SamChgEth= (0..3)
$$ <no> <no> <no> <no>
$$ ##$ServiceNo= <>
$$ ##$Sgu1PowerLevels= (0..7)
$$ 90 74 58 42 26 10 0 0
$$ ##$Sgu2PowerLevels= (0..7)
$$ 90 74 58 42 26 10 0 0
$$ ##$Sgu3PowerLevels= (0..7)
$$ 90 74 58 42 26 10 0 0
$$ ##$Sgu4PowerLevels= (0..7)
$$ 90 74 58 42 26 10 0 0
$$ ##$Sgu5PowerLevels= (0..7)
$$ 0 0 0 0 0 0 0 0
$$ ##$Sgu6PowerLevels= (0..7)
$$ 0 0 0 0 0 0 0 0
$$ ##$Sgu7PowerLevels= (0..7)
$$ 0 0 0 0 0 0 0 0
$$ ##$Sgu8PowerLevels= (0..7)
$$ 0 0 0 0 0 0 0 0
$$ ##$SguType= 3
$$ ##$ShimMaxVal= 32760
$$ ##$ShimPow1Ch2Sh= (0..38)
$$ 0 0 0 0 0 0 0 0 0 0 0 0 0 0 0 0 0 0 0 0 0 0 0 0 0 0 0 0 0 0 0 0 0 0 0 0
$$ 0 0 0
$$ ##$ShimPow1Imax= (0..38)
$$ 0 0 0 0 0 0 0 0 0 0 0 0 0 0 0 0 0 0 0 0 0 0 0 0 0 0 0 0 0 0 0 0 0 0 0 0
$$ 0 0 0
$$ ##$ShimPow1NChan= 0
$$ ##$ShimPow1TotIMax= 0
$$ ##$ShimPow1Vmax= (0..38)
$$ 0 0 0 0 0 0 0 0 0 0 0 0 0 0 0 0 0 0 0 0 0 0 0 0 0 0 0 0 0 0 0 0 0 0 0 0
$$ 0 0 0
$$ ##$ShimPow2Ch2Sh= (0..38)
$$ 0 0 0 0 0 0 0 0 0 0 0 0 0 0 0 0 0 0 0 0 0 0 0 0 0 0 0 0 0 0 0 0 0 0 0 0
$$ 0 0 0
$$ ##$ShimPow2Imax= (0..38)
$$ 0 0 0 0 0 0 0 0 0 0 0 0 0 0 0 0 0 0 0 0 0 0 0 0 0 0 0 0 0 0 0 0 0 0 0 0
$$ 0 0 0
$$ ##$ShimPow2NChan= 0
$$ ##$ShimPow2TotIMax= 0
$$ ##$ShimPow2Vmax= (0..38)
$$ 0 0 0 0 0 0 0 0 0 0 0 0 0 0 0 0 0 0 0 0 0 0 0 0 0 0 0 0 0 0 0 0 0 0 0 0
$$ 0 0 0
$$ ##$ShimPow3Ch2Sh= (0..38)
$$ 0 0 0 0 0 0 0 0 0 0 0 0 0 0 0 0 0 0 0 0 0 0 0 0 0 0 0 0 0 0 0 0 0 0 0 0
$$ 0 0 0
$$ ##$ShimPow3Imax= (0..38)
$$ 0 0 0 0 0 0 0 0 0 0 0 0 0 0 0 0 0 0 0 0 0 0 0 0 0 0 0 0 0 0 0 0 0 0 0 0
$$ 0 0 0
$$ ##$ShimPow3NChan= 0
$$ ##$ShimPow3TotIMax= 0
$$ ##$ShimPow3Vmax= (0..38)
$$ 0 0 0 0 0 0 0 0 0 0 0 0 0 0 0 0 0 0 0 0 0 0 0 0 0 0 0 0 0 0 0 0 0 0 0 0
$$ 0 0 0
$$ ##$ShimPow4Ch2Sh= (0..38)
$$ 0 0 0 0 0 0 0 0 0 0 0 0 0 0 0 0 0 0 0 0 0 0 0 0 0 0 0 0 0 0 0 0 0 0 0 0
$$ 0 0 0
$$ ##$ShimPow4Imax= (0..38)
$$ 0 0 0 0 0 0 0 0 0 0 0 0 0 0 0 0 0 0 0 0 0 0 0 0 0 0 0 0 0 0 0 0 0 0 0 0
$$ 0 0 0
$$ ##$ShimPow4NChan= 0
$$ ##$ShimPow4TotIMax= 0
$$ ##$ShimPow4Vmax= (0..38)
$$ 0 0 0 0 0 0 0 0 0 0 0 0 0 0 0 0 0 0 0 0 0 0 0 0 0 0 0 0 0 0 0 0 0 0 0 0
$$ 0 0 0
$$ ##$ShimPowMaxUA= (0..63)
$$ 130000 130000 130000 130000 130000 130000 130000 130000 130000 130000 130000
$$ 130000 130000 130000 130000 130000 130000 130000 130000 130000 130000 130000
$$ 130000 130000 130000 130000 130000 130000 130000 130000 130000 130000 130000
$$ 130000 130000 130000 130000 130000 130000 130000 0 0 0 0 0 0 0 0 0 0 0
$$ 0 0 0 0 0 0 0 0 0 0 0 0 0
$$ ##$ShimPowMaxUC= (0..63)
$$ 130000 130000 130000 130000 130000 130000 130000 130000 130000 130000 130000
$$ 130000 130000 130000 130000 130000 130000 130000 130000 130000 130000 130000
$$ 130000 130000 130000 130000 130000 130000 130000 130000 130000 130000 130000
$$ 130000 130000 130000 130000 130000 130000 130000 0 0 0 0 0 0 0 0 0 0 0
$$ 0 0 0 0 0 0 0 0 0 0 0 0 0
$$ ##$ShimPowMaxUG= (0..63)
$$ 1000000 1000000 1000000 1000000 1000000 1000000 1000000 1000000 1000000
$$ 1000000 1000000 1000000 1000000 1000000 1000000 1000000 1000000 1000000
$$ 1000000 1000000 1000000 1000000 1000000 1000000 1000000 1000000 1000000
$$ 1000000 1000000 1000000 1000000 1000000 1000000 1000000 1000000 1000000
$$ 1000000 1000000 1000000 0 0 0 0 0 0 0 0 0 0 0 0 0 0 0 0 0 0 0 0 0 0 0 0
$$ 0
$$ ##$ShimPowNum= 0
$$ ##$ShimPowRcbType= 3
$$ ##$ShimPowRes= (0..63)
$$ 1e-20 1e-20 1e-20 1e-20 1e-20 1e-20 1e-20 1e-20 1e-20 1e-20 1e-20 1e-20
$$ 1e-20 1e-20 1e-20 1e-20 1e-20 1e-20 1e-20 1e-20 1e-20 1e-20 1e-20 1e-20
$$ 1e-20 1e-20 1e-20 1e-20 1e-20 1e-20 1e-20 1e-20 1e-20 1e-20 1e-20 1e-20
$$ 1e-20 1e-20 1e-20 1e-20 0 0 0 0 0 0 0 0 0 0 0 0 0 0 0 0 0 0 0 0 0 0 0 0
$$ ##$ShimPowRng0= (0..63)
$$ 1 1 1 1 1 1 1 1 1 1 1 1 1 1 1 1 1 1 1 1 1 1 1 1 1 1 1 1 1 1 1 1 1 1 1 1
$$ 1 1 1 1 0 0 0 0 0 0 0 0 0 0 0 0 0 0 0 0 0 0 0 0 0 0 0 0
$$ ##$ShimPowRng1= (0..63)
$$ 1 1 1 1 1 1 1 1 1 1 1 1 1 1 1 1 1 1 1 1 1 1 1 1 1 1 1 1 1 1 1 1 1 1 1 1
$$ 1 1 1 1 0 0 0 0 0 0 0 0 0 0 0 0 0 0 0 0 0 0 0 0 0 0 0 0
$$ ##$ShimPowRng2= (0..63)
$$ 1 1 1 1 1 1 1 1 1 1 1 1 1 1 1 1 1 1 1 1 1 1 1 1 1 1 1 1 1 1 1 1 1 1 1 1
$$ 1 1 1 1 0 0 0 0 0 0 0 0 0 0 0 0 0 0 0 0 0 0 0 0 0 0 0 0
$$ ##$ShimPowRng3= (0..63)
$$ 1 1 1 1 1 1 1 1 1 1 1 1 1 1 1 1 1 1 1 1 1 1 1 1 1 1 1 1 1 1 1 1 1 1 1 1
$$ 1 1 1 1 0 0 0 0 0 0 0 0 0 0 0 0 0 0 0 0 0 0 0 0 0 0 0 0
$$ ##$ShimPowType1= 0
$$ ##$ShimPowType2= 0
$$ ##$ShimPowType3= 0
$$ ##$ShimPowType4= 0
$$ ##$ShimSysAngle= <>
$$ ##$ShimSysFunc= (0..63)
$$ 1 2 3 4 5 6 7 8 9 10 0 37 38 35 16 15 14 13 12 11 28 27 26 25 24 23 36
$$ 22 30 29 20 21 34 33 32 31 17 18 19 0 0 0 0 0 0 0 0 0 0 0 0 0 0 0 0 0 0
$$ 0 0 0 0 0 0 0
$$ ##$ShimSysMatId= <no>
$$ ##$ShimSysMatrix= 1
$$ ##$ShimSysOffset= <56mm>
$$ ##$ShimSysType= 4
$$ ##$ShimUnit= 0
$$ ##$TFXNUM= 0
$$ ##$TOSITY= <no>
$$ ##$TRIPLO2= 0
$$ ##$VTU= 2
$$ ##$VTUETH= <149.236.99.20>
$$ ##$VTUTY= <no>
$$ ##$WBREFAM= (0..15)
$$ 100 100 100 100 100 100 100 100 100 100 100 100 100 100 100 100
$$ ##$WBREFLM= (0..15)
$$ 1 0 0 0 0 0 0 0 0 0 0 0 0 0 0 0
$$ ##$WBREFPH= (0..15)
$$ 0.07 0 0 0 0 0 0 0 0 0 0 0 0 0 0 0
$$ ##$WBSGU= (0..15)
$$ 0 0 0 0 0 0 0 0 0 0 0 0 0 0 0 0
$$ ##$XFAC= 2
$$ ##END=
##$RELAX= 
$$ Bruker specific parameters
$$ --------------------------
##$DATPATH= </Users/matthias/Documents/NMR/NMR Spectra/Data Stuff>
##$EXPNO= 1
##$NAME= <Guvacine>
##$PROCNO= 1
##$ACQT0= -3.15126050420168
##$AMP= (0..31)
100 100 100 100 100 100 100 100 100 100 100 100 100 100 100 100 100 100
100 100 100 100 100 100 100 100 100 100 100 100 100 100
##$AMPCOIL= (0..32)
0 0 0 0 0 0 0 0 0 0 0 0 0 0 0 0 0 0 0 0 0 0 0 0 0 0 0 0 0 0 0 0 0
##$AQSEQ= 0
##$AQ_mod= 3
##$AUNM= <au_zg>
##$AUTOPOS= <>
##$BF1= 500.25
##$BF2= 500.25
##$BF3= 500.25
##$BF4= 500.25
##$BF5= 500.25
##$BF6= 500.25
##$BF7= 500.25
##$BF8= 500.25
##$BWFAC= (0..63)
0 0 0 0 0 0 0 0 0 0 0 0 0 0 0 0 0 0 0 0 0 0 0 0 0 0 0 0 0 0 0 0 0 0 0 0
0 0 0 0 0 0 0 0 0 0 0 0 0 0 0 0 0 0 0 0 0 0 0 0 0 0 0 0
##$BYTORDA= 0
##$CHANFCU= (0..24)
0 0 0 0 0 0 0 0 0 0 0 0 0 0 0 0 0 0 0 0 0 0 0 0 0
##$CHANREC= (0..24)
0 0 0 0 0 0 0 0 0 0 0 0 0 0 0 0 0 0 0 0 0 0 0 0 0
##$CHEMSTR= <none>
##$CNST= (0..63)
1 1 1 1 1 1 1 1 1 1 1 1 1 1 1 1 1 1 1 1 1 1 1 1 1 1 1 1 1 1 1 1 1 1 1 1
1 1 1 1 1 1 1 1 1 1 1 1 1 1 1 1 1 1 1 1 1 1 1 1 1 1 1 1
##$CPDPRG= (0..8)
<> <> <> <> <> <> <> <> <>
##$D= (0..63)
0 1 0 0 0 0 0 0 0 0 0 0 0 0 0 0 0.0002 0 0 0 0 0 0 0 0 0 0 0 0 0 0 0 0
0 0 0 0 0 0 0 0 0 0 0 0 0 0 0 0 0 0 0 0 0 0 0 0 0 0 0 0 0 0 0
##$DATE= 1747650704
##$DATE_START= 0
##$DE= 8
##$DECIM= 2496
##$DIGMOD= 1
##$DIGTYP= 12
##$DR= 22
##$DS= 2
##$DSPFIRM= 0
##$DSPFVS= 20
##$DTYPA= 0
##$EXP= <1_IfC_1H>
##$ExpStatus= 0
##$FCUCHAN= (0..9)
0 1 0 0 0 0 0 0 0 0
##$FILCOR= 0
##$FL1= 90
##$FL2= 90
##$FL3= 90
##$FL4= 90
##$FN_INDIRECT= (0..7)
0 0 0 0 0 0 0 0
##$FOV= 20
##$FQ1LIST= <>
##$FQ2LIST= <>
##$FQ3LIST= <>
##$FQ4LIST= <>
##$FQ5LIST= <>
##$FQ6LIST= <>
##$FQ7LIST= <>
##$FQ8LIST= <>
##$FS= (0..7)
83 83 83 83 83 83 83 83
##$FW= 4032000
##$FnILOOP= 0
##$FnMODE= 0
##$FnTYPE= 0
##$GPNAM= (0..31)
<> <> <> <> <> <> <> <> <> <> <> <> <> <> <> <> <> <> <> <> <> <> <> <>
<> <> <> <> <> <> <> <>
##$GPX= (0..31)
0 0 0 0 0 0 0 0 0 0 0 0 0 0 0 0 0 0 0 0 0 0 0 0 0 0 0 0 0 0 0 0
##$GPY= (0..31)
0 0 0 0 0 0 0 0 0 0 0 0 0 0 0 0 0 0 0 0 0 0 0 0 0 0 0 0 0 0 0 0
##$GPZ= (0..31)
0 0 0 0 0 0 0 0 0 0 0 0 0 0 0 0 0 0 0 0 0 0 0 0 0 0 0 0 0 0 0 0
##$GRPDLY= 67.9842376708984
##$GrpdlyHandling= 0
##$HDDUTY= 20
##$HDRATE= 1
##$HOLDER= 0
##$HPMOD= (0..32)
0 0 0 0 0 0 0 0 0 0 0 0 0 0 0 0 0 0 0 0 0 0 0 0 0 0 0 0 0 0 0 0 0
##$IN= (0..63)
0 0 0 0 0 0 0 0 0 0 0 0 0 0 0 0 0 0 0 0 0 0 0 0 0 0 0 0 0 0 0 0 0 0 0 0
0 0 0 0 0 0 0 0 0 0 0 0 0 0 0 0 0 0 0 0 0 0 0 0 0 0 0 0
##$INF= (0..7)
0 0 0 0 0 0 0 0
##$INP= (0..63)
0 0 0 0 0 0 0 0 0 0 0 0 0 0 0 0 0 0 0 0 0 0 0 0 0 0 0 0 0 0 0 0 0 0 0 0
0 0 0 0 0 0 0 0 0 0 0 0 0 0 0 0 0 0 0 0 0 0 0 0 0 0 0 0
##$INSTRUM= <spect>
##$INTEGFAC= (0..63)
0 0 0 0 0 0 0 0 0 0 0 0 0 0 0 0 0 0 0 0 0 0 0 0 0 0 0 0 0 0 0 0 0 0 0 0
0 0 0 0 0 0 0 0 0 0 0 0 0 0 0 0 0 0 0 0 0 0 0 0 0 0 0 0
##$L= (0..31)
1 1 1 1 1 1 1 1 1 1 1 1 1 1 1 1 1 1 1 1 1 1 1 1 1 1 1 1 1 1 1 1
##$LFILTER= 500
##$LGAIN= 5
##$LINPSTP= 0
##$LOCKED= yes
##$LOCKFLD= 5539
##$LOCKGN= 118.199996948242
##$LOCKPOW= -39
##$LOCKPPM= 4.69999980926514
##$LOCNUC= <2H>
##$LOCPHAS= 8.269753
##$LOCSHFT= yes
##$LOCSW= 0
##$LTIME= 0.25
##$MASR= 4200
##$MULEXPNO= (0..15)
0 0 0 0 0 0 0 0 0 0 0 0 0 0 0 0
##$NBL= 1
##$NC= -6
##$NLOGCH= 3
##$NOVFLW= 0
##$NS= 8
##$NUC1= <1H>
##$NUC2= <off>
##$NUC3= <off>
##$NUC4= <off>
##$NUC5= <off>
##$NUC6= <off>
##$NUC7= <off>
##$NUC8= <off>
##$NUCLEUS= <off>
##$NUSLIST= <automatic>
##$NusAMOUNT= 25
##$NusFPNZ= no
##$NusJSP= 0
##$NusSEED= 54321
##$NusSPTYPE= 0
##$NusT2= 1
##$NusTD= 0
##$O1= 3562.76000002254
##$O2= 3089.25
##$O3= 3089.25
##$O4= 3089.25
##$O5= 3089.25
##$O6= 3089.25
##$O7= 3089.25
##$O8= 3089.25
##$OVERFLW= 0
##$P= (0..63)
15 15 30 0 0 19.8 30 60 20000 0 0 80000 80000 1000 0 0 1000 2500 100000
600 0 0 0 0 0 216 100000 15 0.1 1000 0 0 20000 0 0 0 0 0 0 0 2000 0 0 0
240 0 80000 46600 10000 0 80000 0 0 0 0 0 0 0 0 0 0 0 0 0
##$PACOIL= (0..32)
0 0 0 0 0 0 0 0 0 0 0 0 0 0 0 0 0 0 0 0 0 0 0 0 0 0 0 0 0 0 0 0 0
##$PARMODE= 0
##$PCPD= (0..9)
0 80 0 0 0 0 0 0 0 0
##$PEXSEL= (0..9)
1 1 1 1 1 1 1 1 1 1
##$PHCOR= (0..31)
0 0 0 0 0 0 0 0 0 0 0 0 0 0 0 0 0 0 0 0 0 0 0 0 0 0 0 0 0 0 0 0
##$PHLIST= <>
##$PH_ref= 0
##$PL= (0..63)
120 120 120 120 120 120 120 120 120 120 120 120 120 120 120 120 120 120
120 120 120 120 120 120 120 120 120 120 120 120 120 120 120 120 120 120
120 120 120 120 120 120 120 120 120 120 120 120 120 120 120 120 120 120
120 120 120 120 120 120 120 120 120 120
##$PLSTEP= 0.1
##$PLSTRT= -6
##$PLW= (0..63)
0 13.91 0 0 0 0 0 0 0 0.00012519 3.4776 0.25867 0 0 0 0 0 0 13.91 0.48904
0 0 0 0 0 0 0 0.26833 0 3.4776 0 0 5.0078e-06 0 0 0 0 0 0 0 0 0 0 0 0 0
0 0 0 0 0 0 0 0 0 0 0 0 0 0 0 0 0 0
##$PLWMAX= (0..7)
102.4 0 0 0 0 0 0 0
##$PR= 1
##$PRECHAN= (0..32)
-1 2 -1 0 -1 1 -1 -1 -1 -1 -1 -1 -1 -1 -1 -1 -1 -1 -1 -1 -1 -1 -1 -1 -1
-1 -1 -1 -1 -1 -1 -1 -1
##$PROBHD= <Z800701_0081 (PA BBO 500S2 BB-H-D-05 Z)>
##$PROBINPUTS= (0..15)
<> <> <> <> <> <> <> <> <> <> <> <> <> <> <> <>
##$PULPROG= <zg30>
##$PW= 0
##$PYNM= <>
##$ProbeDescription= <>
##$ProjAngle= 0
##$RECCHAN= (0..9)
0 1 0 0 0 0 0 0 0 0
##$RECPH= 0
##$RECPRE= (0..24)
-1 0 -1 -1 -1 -1 -1 -1 -1 -1 -1 -1 -1 -1 -1 -1 -1 -1 -1 -1 -1 -1 -1 -1
-1
##$RECPRFX= (0..32)
1 0 0 0 0 0 0 0 0 0 0 0 0 0 0 0 -1 -1 -1 -1 -1 -1 -1 -1 -1 -1 -1 -1 -1
-1 -1 -1 -1
##$RG= 32
##$RO= 0
##$RSEL= (0..24)
0 2 0 0 0 0 0 0 0 0 0 0 0 0 0 0 0 0 0 0 0 0 0 0 0
##$SAMPLEID= <>
##$SFO1= 500.25356276
##$SFO2= 500.25308925
##$SFO3= 500.25308925
##$SFO4= 500.25308925
##$SFO5= 500.25308925
##$SFO6= 500.25308925
##$SFO7= 500.25308925
##$SFO8= 500.25308925
##$SOLVENT= <D2O>
##$SOLVOLD= <off>
##$SP= (0..63)
120 120 120 120 120 120 120 120 120 120 120 120 120 120 120 120 120 120
120 120 120 120 120 120 120 120 120 120 120 120 120 120 120 120 120 120
120 120 120 120 120 120 120 120 120 120 120 120 120 120 120 120 120 120
120 120 120 120 120 120 120 120 120 120
##$SPECTR= 0
##$SPINCNT= 0
##$SPNAM= (0..63)
<> <Gaus1_270.1000> <Gaus1_180r.1000> <> <> <Sinc1.1000> <Squa100.1000>
<> <Squa100.1000> <> <Sinc1.1000> <Sinc1.1000> <> <> <> <> <> <> <> <Sinc1.1000>
<Sinc1.1000> <Sinc1.1000> <Sinc1.1000> <> <> <> <> <> <> <Crp60,20,20.10>
<Bip720,50,20.1> <> <> <> <Rsnob.1000> <Gaus1_180r.1000> <Gaus1_180r.1000>
<> <> <> <Gaus1_180r.1000> <Squa100.1000> <> <> <> <> <> <> <> <> <> <>
<> <> <> <> <> <> <> <> <> <> <> <>
##$SPOAL= (0..63)
0.5 1 0.5 0.5 0.5 0.5 0.5 0.5 0.5 0.5 0.5 0.5 0.5 0.5 0.5 0.5 0.5 0.5 0.5
1 1 1 1 0.5 0.5 0.5 0.5 0.5 0.5 0.5 0.5 0.5 0.5 0.5 0.5 0.5 0.5 0.5 0.5
0.5 0.5 0.5 0.5 0.5 0.5 0.5 0.5 0.5 0.5 0.5 0.5 0.5 0.5 0.5 0.5 0.5 0.5
0.5 0.5 0.5 0.5 0.5 0.5 0.5
##$SPOFFS= (0..63)
0 0 0 0 0 0 0 0 0 0 0 0 0 0 0 0 0 0 0 0 0 0 0 0 0 0 0 0 0 0 0 0 0 0 0 0
0 0 0 0 0 0 0 0 0 0 0 0 0 0 0 0 0 0 0 0 0 0 0 0 0 0 0 0
##$SPPEX= (0..63)
0 0 0 0 0 0 0 0 0 0 0 0 0 0 0 0 0 0 0 0 0 0 0 0 0 0 0 0 0 0 0 0 0 0 0 0
0 0 0 0 0 0 0 0 0 0 0 0 0 0 0 0 0 0 0 0 0 0 0 0 0 0 0 0
##$SPW= (0..63)
0 2.5983e-05 1.1548e-05 0 0 0.0090249 0.00012519 0 3.1298e-07 0 0.0090249
0.0090249 0 0 0 0 0 0 0 1.843315e-05 2.865374e-05 1.337927e-05 7.215328e-05
0 0 0 0 0 0 0.11955 3.4776 0 0 0 0.00012625 1.1548e-05 0.00073906 0 0 0
1.1548e-05 3.1298e-07 0 0 0 0 0 0 0 0 0 0 0 0 0 0 0 0 0 0 0 0 0 0
##$SUBNAM= (0..9)
<> <> <> <> <> <> <> <> <> <>
##$SW= 16.0175181334285
##$SWIBOX= (0..32)
0 0 3 0 0 0 0 0 0 0 0 0 0 0 0 0 0 0 0 0 0 0 0 0 0 0 0 0 0 0 0 0 0
##$SW_h= 8012.82051282051
##$SWfinal= 0
##$SigLockShift= 0
##$TD= 64100
##$TD0= 1
##$TD_INDIRECT= (0..7)
0 0 0 0 0 0 0 0
##$TDav= 1
##$TE= 298.0006
##$TE1= 298.0006
##$TE2= 0
##$TE3= 0
##$TE4= 0
##$TEG= 300
##$TE_MAGNET= 0
##$TE_PIDX= 1
##$TE_RAW= 300
##$TE_STAB= (0..9)
2 2 0 0 0 0 0 0 0 0
##$TOTROT= (0..63)
0 0 0 0 0 0 0 0 0 0 0 0 0 0 0 0 0 0 0 0 0 0 0 0 0 0 0 0 0 0 0 0 0 0 0 0
0 0 0 0 0 0 0 0 0 0 0 0 0 0 0 0 0 0 0 0 0 0 0 0 0 0 0 0
##$TUBE_TYPE= <>
##$USERA1= <>
##$USERA10= <>
##$USERA2= <>
##$USERA3= <>
##$USERA4= <>
##$USERA5= <>
##$USERA6= <>
##$USERA7= <>
##$USERA8= <>
##$USERA9= <>
##$UUID= <>
##$VALIDCODE= -1
##$VALIST= <>
##$VCLIST= <>
##$VDLIST= <>
##$VPLIST= <>
##$VTLIST= <>
##$VtChillPowType= 0
##$VtChillPowVal= 0
##$VtChillType= 0
##$VtGasFlow= 0
##$WAVEMAKER= (0..7)
<> <> <> <> <> <> <> <>
##$WBST= 1024
##$WBSW= (0..7)
4 10 10 10 10 10 10 10
##$XL= 0
##$YL= 0
##$YMAX_a= 734359
##$YMIN_a= -706875
##$ZGOPTNS= <>
##$scaledByNS= no
##$scaledByRG= no
##$shimCoilTempK= 300
##$ABSF1= 15.2262888215233
##$ABSF2= -0.791344917893062
##$ABSG= 5
##$ABSL= 3
##$ALPHA= 0
##$AQORDER= 0
##$ASSFAC= 0
##$ASSFACI= 0
##$ASSFACX= 0
##$ASSWID= 0
##$AUNMP= <proc_1d>
##$AXLEFT= 0
##$AXNAME= <>
##$AXNUC= <1H>
##$AXRIGHT= 0
##$AXTYPE= 0
##$AXUNIT= <>
##$AZFE= 0.1
##$AZFW= 0.1
##$BCFW= 0
##$BC_mod= 0
##$BYTORDP= 0
##$COROFFS= 0
##$CY= 15
##$DATMOD= 1
##$DC= 0
##$DFILT= <>
##$DTYPP= 0
##$ERETIC= no
##$F1P= 0
##$F2P= 0
##$FCOR= 1
##$FTSIZE= 65536
##$FT_mod= 6
##$GAMMA= 0
##$GB= 0
##$INTBC= 1
##$INTSCL= 1
##$ISEN= 128
##$LB= 0.1
##$LEV0= 0
##$LPBIN= 0
##$MAXI= 10000
##$MC2= 0
##$MEAN= 0
##$ME_mod= 0
##$MI= 0
##$MddCEXP= no
##$MddCT_SP= no
##$MddF180= no
##$MddLAMBDA= 0
##$MddMEMORY= 0
##$MddMERGE= 0
##$MddNCOMP= 0
##$MddNITER= 0
##$MddNOISE= 0
##$MddPHASE= 0
##$MddSEED= 0
##$MddSRSIZE= 0
##$Mdd_CsALG= 0
##$Mdd_CsLAMBDA= 0
##$Mdd_CsNITER= 0
##$Mdd_CsNORM= 0
##$Mdd_CsVE= no
##$Mdd_CsZF= 0
##$Mdd_LrLAMBDA= 0
##$Mdd_LrNITER= 0
##$Mdd_LrRANK= 0
##$Mdd_LrZF= 0
##$Mdd_mod= 0
##$NCOEF= 0
##$NC_proc= -4
##$NLEV= 6
##$NOISF1= 0
##$NOISF2= 0
##$NSP= 0
##$NTH_PI= 0
##$NZP= 0
##$OFFSET= 15.1307751253029
##$PC= 1
##$PHC0= 29.2553244809326
##$PHC1= -29.0909165010148
##$PH_mod= 1
##$PKNL= yes
##$PPARMOD= 0
##$PPDIAG= 0
##$PPIPTYP= 0
##$PPMPNUM= 2147483647
##$PPRESOL= 1
##$PSCAL= 4
##$PSIGN= 0
##$PYNMP= <proc.py>
##$RDF1= 0
##$RDF2= 0
##$RDFWHM= 0
##$RDINT= 0
##$RDPOS= 0
##$REVERSE= no
##$SF= 500.25
##$SI= 65536
##$SIGF1= 0
##$SIGF2= 0
##$SINO= 0
##$SIOLD= 65536
##$SPECTYP= <>
##$SREF_mod= 1
##$SREGLST= <1H.CDCl3>
##$SSB= 0
##$STSI= 65536
##$STSR= 0
##$SW_p= 8012.82051282051
##$SYMM= 0
##$S_DEV= 0
##$TDeff= 64100
##$TDoff= 0
##$TI= <>
##$TILT= no
##$TM1= 0
##$TM2= 0
##$TOPLEV= 0
##$USERP1= <>
##$USERP10= <>
##$USERP2= <>
##$USERP3= <>
##$USERP4= <>
##$USERP5= <>
##$USERP6= <>
##$USERP7= <>
##$USERP8= <>
##$USERP9= <>
##$WDW= 1
##$XDIM= 65536
##$YMAX_p= 283896087
##$YMIN_p= -95119
##$CURPLOT= <C280>
##$CURPRIN= <$C280>
##$DFORMAT= <normdp>
##$LAYOUT= <+/1D_H.xwp>
##$LFORMAT= <normlp>
##$PFORMAT= <normpl>
$$ End of Bruker specific parameters
$$ ---------------------------------
##XUNITS= HZ
##YUNITS= ARBITRARY UNITS
##XFACTOR= 0.122265938000801
##YFACTOR= 1
##DELTAX= -0.122265938000801
##NPOINTS= 65536
##FIRSTX= 8012.69824688251
##FIRSTY= 3178
##LASTX= 0
##MAXY= 283896087
##MINY= -95119
##XYDATA= (X++(Y..Y))
65535C178l5E10F7L72L51C57A21J345a848jA907K97b020i85j31j352D69J6R14
65516A399e14j809P0i6j113G68K031C78e61A252K86N44J586a447A152R39A90a186
65497a20C698c32j977q75o25f34j584h42A926J810j392E1a65o60A010M84c588
65479d237f93n18B278D53j54a080O2D315a76j668l28a57q65A2f35k744N49k162
65461d992a223l34M17G26a140k158B99J897b073j51j437R55A182O55p57j4L182
65444D248F4a20C015j109p68d30j226E98L022j266%O36a586a74k32A399L506c62
65425d005j309K646e55A663J116P86H94m26A21K213l22h91p86L81F91J773K02
65408B666p09L44g48q51g21A8K089n73M76c72J30B395H88IJ605n86b569B56M95
65389G51b369d49A564J025q37e44K29j849d59j952A245K520j539J618A044c91
65372h02A063K7A96b193P56A545a171j647c29B205a304l242a514p2P31J33n10
65355a232B523g61q28j80c76p2g8B048n86A03J87L044A120d9j109e32C38c142
65336a564A326m75L43b560a120b75A297P91a331D76k27b263l57A401J664A396
65319A430a023A1b536I72J029B36b004j057B535R83j402a29j563j362J02a175
65302b567k43l006K883D863a032j55D63M099A466a185e7j623F92L950H79C9L535
65285C574m98E06a151k71A96K447E20b09C239J74H59BP68M12A20i47G31c99n389
65266e788a860A632C1b948a168r11d53A554E42a629j898A315N58J017K909A635
65249c328c08B230n25P89H86L342J263im994a350c04k610j877b115j563n16J421
65232b773n66j3p57e04A922j50b01A741a658j340a016o27C87K183i2k450M64A338
65213A149a074l32G02a181A758J192J586B049a59B181r71J142K05a941Q16p2k267
65196c464j472J067C778H63c76j284K16l805K403I99L05n17a680P05l57A873j19
65179A754J985J569k029K9F55a625h9A025a585E52h3B542Q45a300m81A698J633
65162C331q23J979a698k053P13k50J064i93A803J336Ga396B565N70b9j56C2a179
65143A084M13p05a577r7L93d18J76A609e52A011K387b4l365a38E004c61A199k39
65125I60N43E60K440A294A17R72c137J318A69J108L668k051K280j711j714L06
65109B055r2R56k94p37D23K030a784H58D7J954f56b6j479j577b4k039d11l220
65091c631P06g36k365J34A724J391C2a4r70B568o5I76J32L22K257C34M34b396
65072a551J37k254N5l86a69p01Q6A22i32k156H18m04L61J407g44C656o18b87G42
65052A852e45m258k0a716e60H72a8G45L169G67M477R44I87K111M95j130a162a92
65033C357K101A753E21f04D816A200c226O77D48b714j771a705j588e11k734i04
65016a009r07k032L45D70e99j963a73E13J333f60A140J475L44j250K15A81c80
64998C5c208j082a707f41B019a474n473b296F11H3c312J108j045Q57N05k205A088
64980B689K549Q33H39j65J24l27b103H93Q58j28L38o07m54c647J053J04c83A273
64961G33J87g158J470a794F6K7J860N127l86C009a57l225k14O66c98k068A203
64943a429p26E03N91J535A145K820c806a280j304k450K189C53K743l88a013p95
64927a808A52M59J44C48O09J484a326m509a925C303j392a557d82C922l4A281b287
64909A054L087B023J017m19c866A731J129b603A216b295A18K773n11J741j768
64894B353d61D255j972h66J18C156K788k287r85b59j421A411J57j04N76L26g47
64876A394a450k937i16m69M87H89a828j540J161j98h35l718L2A45Q01a896e08
64858A143N4a652k157a631m878O89Q63h07A526D94K8i08D770D94J82d520f19H162
64839B820c331a112C546j495a769F68P62L377j381E39K224j339H1f28m15k829
64823c872l917L016K191k125J583j351a221G3M353a097j207C274j42J00m41j34
64807B657J004J32A180A38Q35R78A22M75a53k442C286A042J244j119b001j892
64791c893m88g82K45a91C720a04m741A480n40g24k103b16A135h70j734j299K34
64774c669a509n41j815n003K520P30Q64b39B004B4P89M091H79L43A26M555A25
64756c063C076N26A239b079F1K6a93j836F77P05h23r2E384A009b588j093n41a731
64737A511k28J35J929B81R80c363b63E14J494M207B643b406e61D33a952d69D932
64719i02n20m76l277b223A886C65K815j16L07A449i24A818K24a13l291K63a403
64701a635m68G26b332E18R21g67L01C371a315G41a570n84M11j957J520h97A002
64683C030J058j08I65d102R05i87L10a05k174c65D360f55p36M34b64k008n2p10
64665c034d94m10l487H0Q20k46P66m11a877B85a444O45j319A119N779A562i34
64647c474F46K863O53j83H83e19r00l157E2K37L58b727A355L600e17l939i81A909
64628a661B078b729C43P698b030n362h18D028p86E58c492l284k575K962g29k578
64612c307A227J52J401j95K493k330C33J22P13e338j558c401l567c351a457o1
64596a518A779J08d48A349a324r12A064k59N11K633a057a1p07j909k563a768A285
64578C11J184p04J172k88M052q91j984A114a892B375P03A88a445m90oA25J783
64561A908i64m550a703E29e40A225a328k512J717p72n5q76N42a146A999Q72b214
64543a939f91A673c31A468J771c111J109F38J299M47g62L29l411M3J526A539L196
64526D735A967C4L57P54O37a656g7B398a113q76q5A195J988J307r60J830J948
64509G308B562j65r39m47N79d07R0m647A898K084b978N95A540K25C89j83f29j432
64491b061J34h0j139jA769R77b609g02a23H99J83D74L574L548K843C645j459a487
64472b862C822J814p12J240o85B04J135K786K838j073j460m67b480j459M47B90
64455cl430n40j684a113A123O668k662a643p27B084p6g61E415j068j987d59m37
64438h96F13c453j075p15b208A270h98A416c216J292q15rj229a944Q0k184e73
64420c497O83C28J099J404l14B51M887B393b43k239i00D18J611c41C341i3j056
64403a149o51j491C748c00B016r72R22L307A196A22J897f75k12d35F38c270m138
64386g408Q00a506N58k599D35A31e788K661p76k282J66K928J504b17D356J510
64370E866j498j603a348j080A392F28O34Q9Q44K206p0a777A83c680j881a391A407
64352e67A478J459a590N35l7D699J75K45p7j233f45o96A429c808Q02j75J309B948
64333A485a588C314k80d21C220m5A93e25B257E34b993g36G24J562a151j8k456
64316c625r51h10j309B233O95b657k599K302l966c91k32G87L002Q26l51d467j522
64299e989J761c26m120M37K79K60A629K161L83F52J1b106B43J721C71P83h74E00
64280A152K38d150J523A105O85a096A07L005j490e14D41q1a808j255r5B486R79
64263C465m06A032l86M8d138a409A658M22L481q44j794l62n00J654A408K079Q93
64246D380j874L957b520L23c16J54A870M20J289A767d70j209k502j805J657l050
64230g379c321J079j031k034N95J058N75a301F5M146a999k117J93a034C138a019
64213b870A558n35a852h88r2r3k138A485P85kP02a195A433i37k508E9h04A563
64194C928J662G43A99J788N53L737a819j436f39C242p32b127A865g58n20E51c973
64176A428R61h3j345l593a274A218F07e214j235a892A55a986j294b58r12d19B057
64158C553E31a229k908K68e64j170O83k390e87H54J597K481A309a94B639J208
64142C847A371l4J346r35d65P4l424a286I27K054A139e09j90m776a729L56A897
64124b16B109I09D34a463H78L685B12O21R0a795c94E818c57D156J422J18k424
64107C272C18K778a217m0D773a580l374a528A379a767j756B345K429r35j524K587
64091D902b474o561K331K775a087j35j720a032l067J52B52M265E1f00b78B057
64074G63b577C04Q2J718I60K769g04j984k4j341J363k26a60A96a649j223P77D177
64055C232a910j512a580b79k518e36H36B93c335o26c70B06G0e58n7B310a981m5
64037b026A929b015C534m71b105J026d44j90j120O89J37A285j81a706j24e69A187
64019A043k0a428L48J37L13A828c820J884D245k022a542j180A719J014P85j588
64003A930r41a154o8B935d433J23G25d196I93L163O31m1b820b30m47a18B977A65
63984b946L00j375a207N6k019E97L9K2a338N12B204C40L208e00k260P37A626b860
63965f318A333b340p66j860b451d96k025O57C27e126b148E9b934J205D23L896
63949D319A288R14C26M66k5c16D28o9d9l906j705J546C021n07p9H05E7O928J113
63930H098D8a997j051h9C842m53A78f241K264A021m13a074E0c106B040j48m6J376
63912C222e05j29l90A265J276I62B97J714K154A265M46K806A964b013n0j340l111
63895f514K67L64c7A153d306I6J113b004O79A205a626M11H02M199d12o908J362
63878e958I37N00b116F78b132i95k068m807L607A122b068j868g63B004c216p64
63862c980I28M209b503j96C62Q43f80C730i15j442p05a91A337E18i1lr15G49N686
63843F435c22A422L46q61e65j7n131a758l26A652a78G64N59O47b93A530K766A469
63824A721k55c346A073J700A119N0L268L74A486a484A067O702j355j048A563c20
63807a759A454B43c234k985b505A36L240a077J61l501a316C15K581P38m35a318
63790B356L64j29J252a09m32K02A925c078F047k069a062A485a273a78C603i6m993
63773e089a536B179o92l28K407l36H93en85A18b185A563B11c018k438A259b075
63755C45a534j865H49c331B18K246p02a754P88k762k924b241m164K243a582j83
63739a765p52j191C00J220K307c62m86l896M47B882D83K523L437j739a13l502
63723c615g15k367A287K977E57N62M222m05j373b126B346n46J478A480j64E92
63706B63J698J263k9E5J263e04r24l020a680O73A646E64K031I09h55k336B580
63688C403e0l016a247j479l359B89K419Nj097Ia783A585c137n66a604e32B297
63670a365b66B561I32M293k01A872K962k248R30j580K871r46d02B316N25A61L124
63653C285M493K176B650a555H80M02g13q58d89j2B646m42o34E2K49a516C25c438
63634b546A982L845k032L228j007k523j704J410a738l085k87K392f53B108N83
63619B691j46L986k085A662h56C596b368j93J09B97Q16J738j16a369B401J985
63603D386E7b31r78C11a664k579m088D33L050e14B625a357B135L887j488j749
63587B785f78l74p15e70l699I27B98Q09K773a08B888K749B92b27C005b876B617
63569d974J718c8B032d01o69j201a052A282b655j21A212M38K485q07i30r66k019
63552c915j664O45l644L416b006j919a344J88k87m72F1c200a054l515h51r94H95
63534B034c986J935Q82C175m66b431A787J42a250b27A346d020j456B265L172b422
63517a781F846C1a176I9b393M08k853i33C328I53a579P64A972C77O88L17m94K97
63499A185h78E72K450M06H73b196e36A978b58k06G95a322J04o84j411K42e80l348
63481c928F65m8a539O97l122N19k646J528J808M14I97a750j638j0h23j164L57
63464a630k190f2D135b261P05N1B34J789c882P24Q47e39A00m4J982r79b776n77
63446c353D988A859M448b173A154e12A75J547E64J421E21J992c256A837R12q29
63430A920a949h66J64A866L539C02K716K923A624d53M7B095J030K132B256B06
63413a082A069J658c137j123i31B10N030k154e67A920J590A395a98l548a148D035
63396G072B517a269D354j060f07j010A641b92E72J650M05I78f6l432a584j87N8
63379a713B81O28i26c78F093A671f70F68i27C353B91h69D063d985M38a44j147
63362a291O00j077e8k208D332p77a662p89k826J731c93B269n00N39c763B656K10
63345B866o58i01j035D480H43M039A601c86B8c733L92b86j559b39B624d52n60
63328a012Q4C920d82A859E80j37O34b336A043M26m21e135I66K028J202A246J12
63311A358i99A974F6M03L61J256N506C491j269i59G34d142j799J798a823q21B74
63293c005g03l250J718k074A038K153a657A8a476B939d354h57A070K372P30j173
63277B999A191c385P55C032j343l26M27b053O6f13C780A189g47D372m19G09K00
63260I09l19c118h20A13K403o88A94a274k581a538K91A223A34d451b162D486a277
63242c827E61c523J17C903A740G29K111n01I55d68A050k46a680C066m3c60j589
63225a949m458b391A89a31C521j642Q86G59c638J018J008A634K466L26a601k095
63209c696A994J025g65p77j350B236p68l97b640P92A239a277F14k81P96b677D01
63191a425k083C464j206c074E01c276a114C031J049m56G16a179n2A308P4K73o18
63174A037M087j084b929l936A69K759i20m57A116i39M21k081a074C434a610o00
63158b210a061B279i52l9B084a466l61Q2n90J001A254j69b186j221A315C94J381
63141A775cj955l72h08j502E74L119E74J434k71K431c56E99M45c59k76o03M00
63123h38j75A387J529a555M24j094B837J861A834a127B490q4k55H23a771D71J626
63106B097a253A086J481a98C891h92A288a800J80b34A783c278q30j271J705a638
63089B570a382N3A13a753e0A688e68H16M365f19A987c22C915A202b774b28E50
63071C013j463c934J402D201j434c847j158P49B877j335b194J054B45c715j805
63056e520b670L8A009M163p28k093R75J321A715K236A810f08K9B446J871a889
63039a486C557M281k536j009O25A323d51E57f07k825Q1A678c069R54C06f32j82
63022h14C8P04h92A648a283o389a248D07J141k67P26G82b633k08a196j155Q44
63005a507c39m09j347a49D382a306D275j841O67G76a33D706A960C81R68b2E27
62987B784a115k380L28j368k41b340a51o69C629A269b867R37h16m74F00a824h75
62969A142l41J550a8A538O20I58a725D81j99L085a187l711K029j161J444j41D
62951B063q39J002BJ764j99l62L054L106k840j868k28b48A020b669N92B917B43
62933B967A215a77j529k601a107N47p77j976B124A95a754B429h01o812c566f51
62916a22C070K092F86b31j881j691p44Q40f18l348k47i36C355c94B195M29b361
62898B854a054q86D70b923C118r13a833P48k442m030b766B666K02M653l642k44
62882C635A364F67B72a880q15j635h12j482R09k86r6l444a855D161r30a459B627
62864G297j525k509l30i93l097a33F39a087a44B329f19A925M010A856p13J160
62848B303o33E04a655E68J50b882l462a194E395j631g78m610A633N858G23b524
62831b143D918j246N60j692l67a72n87j7B002K57j97j35gE92c073I32k3D4b028
62811b620J205B08d274K066k029f47o16j607F91M312j552A115L98i91A049a606
62794e616b274L82k878a281k399a766k90A65N79e881d54F013E35a559A397n59
62778H38e05D595j878g913J655b61j690j376B317L578B768J870j445j290J662
62763C565j397L307K674k911j513A827o87b740A884M742k140B130d120a182B689
62747A843L208j208p60b061L93B167e66J39j804P86m88R15j619J148G27a68j578
62730a746C777C89b659h4E51L302p4k64K835B321k89l84K18J795J148A645M04
62713B049p8a261B256d25j29o07r39M57c39D311A492H1O283E34q4j11J962M38
62695B739K177b147P24j798p63A993F35b327k887b512J178A260b764J243l455
62680d976a392I56a200e96j135j540o89J811k608C092J816j92J71b581b47j419
62664a666J20A956J520j573J921J882D22B6J696a347d74A786G15c433e15m7k788
62647c350j253j39j757a918j69j292J120k228a453A038g7p3Qj506j80k285M04
62630c709J062A389F30L27Q90K950j540q03j005J859A5P70L136O3M3j119j334
62613A574B35R6L199a250o53k015A96J808a076H75a137j48m444K646O75k69l228
62596e905b151j592A35B1b775J89J206a93C807B69B0d263j085a302a78J2j557
62579a723A517g90b13j316D14J892J873j564q95J033k1j319J698Q28q89J324B074
62561b785B794c95k33m44D5O04a127B744b208P61j00f71A876M134j377a72r29
62544a101m979h91C052E47c799M0H79a903NP90n23B109j04J193b258e51B010L23
62526B333O59d477J121a156A961a342e77j642d27F11b990J014A965G30b483l330
62510e813A32N542dA54J515B36a348C468L032H62a161C93b273G04K490R49L433
62493G576k678a86p80a78C869H84J082J398j038a430a00B448d698a078B405L366
62477E771A600a674B386n76J10K425h27j241B460b148D073L086C312A461K990
62462D451q67c577J332L22j771k198b300f21m290F8K487e89j842I53P11e77K12
62445c65B09L87a669j435H23K256r49J499j149F86L837N281A321B59K130O17a265
62427d276P81H64J146e577a775h05k954J645C19a569k98Q29r09j418B23K81a983
62409g75k94C47J450J580a139j317h43m980J133j603J159a392d82D196I87a150
62392E008B050C81a077A354P52m00D6b517B145o5a609n098A874R25e098A013L249
62375D262b887B517D33a788H73D28c56m787b220B122I64c758L83i48A11c099Q09
62358b290I98K662G22O70a719q59I85N51L210A063a455A180J484a221K28q36D41
62340A355C36f82F34M212j3L287B409b596K00m76a260I66c858q79G24J797i82
62322b74A658a840L02O4A498J466K912B373a530N62C47d306P47D078A016h97k66
62305a163o36A171K579O08a609F706j460a459a89n275K179O75J301B920L488d30
62288a009j820j246J155k43j459J471k77J118N64j040J269k546k081Ll91K018
62272d514P00j47C192a59k719O08E86M921b814a358o9B3L252g953L521K95R26
62255c211d15q96r76A207a343C299N084C028B28c234N32K76G71c809P88E239B524
62237C70L60a142B109F21K312K333O68J425F90a492D01b757l77R97K17C30a918
62219b325A058K918c02j156m95D17K892A339FQ970J322C354j471d564J674J098
62203a792a47l53G60L57a403e00j24I62J772c468J468b35m267E00M894j55B036
62185A067K67a979A473J67N72J650K931A745J58k21E59O272k308Q65k19k376j187
62168A606o72d235J927R27B368E52L65L19M69b667A480f98l497q95K191A675A07
62150a973l63A132N64J644d440o77J834a117A2c810k06A399d07k023k195K33a936
62132B465a382f15l168l423b246k508B191L881e559o80A692J235c61F567k172
62117D395A066Q2J713a435m398A004K132I56A91M078a715l309J085J81B99P097
62101G396j612o51c83o03m186D56P34i97D625H86e10B433j175a448a09J9r10l350
62083d350J054B237a687d51B048c263a423B51J635L313P50m18k92A257K999D7
62066A283L284a592n13q1k39N81Q12B746J50j297J317a08a0B910a084B321o65
62049A656K224p05j21a15m160a896O93C387p22H97N0O130b42k774K54H05L152
62032C957A198a366l189A284K143D14K649K987A729R80F24b905a031B88b906B463
62015b78m960a12n66C276A120a002C687J28F39L517j836J361A365h39K60A697
61998C542a165b50k77n67B185K057j263a008j471H19C86J125G19c37D54J347o66
61981A135a653j90B595K002B019b73o83A334K153j038j161c995J602j993J159
61966c227a135j699H19P68O54B61R12b241l777a622A131m7c525a600A53e074D42
61948D019b18k889A081b320j449b85D46c841Q47j338m31A167f41C409o08lj090
61931A708G47b518a042R6k643B777J010b59J06j529L16H4d043J420j301Q39gA834
61912b603B39L807a70B57L207F44a092B828K566J339B375h05n43k195B211c52
61895b643I17k08J552B52e42Lm748j749M60J613C151d34k823J3f98A43b291N01
61877a790A702a80A308O051j592j842p19A053g87j975Q07j398l682K143A517a624
61860c247Q01k225n39c30A9O08b696o338b849c24l22n28E298h20j096q67C313
61842G473C472B04a304A748M112o13c82J45H28b791l023a871E64A58M279H53c940
61824A240k75K148J283G78M95f20j452e00A363O78h61l58l748K130l78k784n70
61807f569h40F18J160C14O57c607O98a376k573K00J817A302D66a869A278K833
61791D111l19J90g50A986h53D405j332a542A230K622D95K78C42a354B990N43b195
61773a29B070A45b515r06J283B088J116f57j526k783b161j359r81a77B829a371
61756A027J156L611m39A939L371l09p0a291B103M273D15d990I27L142A586j8B3
61738e82k454A834K408g17l842a945G6a119l427a697A811K233N9j420B75Q65a055
61720A47d94d0A844d862G50J056Q70D81b77j752E65a721k019F92a713h03E560
61702C045a788O1C18L765j684Gd013D68M02a159l575a469e06m251d91l179k915
61685f585K708k895k25K857k18b138B644o26J090N11j779n47N86J745B42c504
61668f685a438J80l10k03n9C82L20c432p43b10B380L080l9k410a707j286G76d260
61649G5f3p243E83P40a565p50C428m34r27d57I18a814j218j869R79A093f394A18
61630D476J586B305K735N182D827p45j544e62o740d38B966D24K503G52J601a035
61613b497n50l619h37l592b125B114a179A583j16J755O35K41P61a057A790B05
61596b354f04m142A001J776K742I55e628J244J491n181c637n41K026h92n050J286
61580d656M5a10A934q17e79A514a955m512o11b935j248F91J865F05b19l391j212
61563d822O62J880F67j23e980K076a240M57L44F20J274i78n91A141c209j692H25
61545F52g95B128m24D11e61O5A305c133A396K524a455l273K254A15L200b244j654
61528c898b24A632o45M76Q72d92B687m47p05j49L461H78j72a974B74K249a251
61510A15J108K151O25c061j498A871K390b212d56B951b531j610a419j801j03A564
61493C348A270a230C394q71i29k30B859A9M072j507b879K52K17k736j732e94j111
61476a705N54L03k223B538J722D03P7N686j163r97E62f50l21k732a293B625j152
61459A473a132A655a649g18l078J273j5j636a523k82e3A021b555O50A272J336
61443B608j175k62h18l663K066d42B790H60O2a164n740K092H08P08r5a020k434
61426c454j312J443pm795b968A2c307l621b554F94L28K95J042K474B398F04J661
61409B265h58C35K704i0k569L4Q83O7C085J239B37b393A244K90a187l122J260
61392c049d19B243a215q29A445b839p41b21m841J789A901H14P28J817h26k554
61376c380R8J288d94A120K373p32n36K026J223g31A348b056I47R88o26b571P85
61359a786A945k05L53f0B057O856k227f15J12l51B152b924F6d0A098J310a913
61341A802N072B158a079A254k40a099C372g40A334L107a170B544a801L9I07a666
61324e365A640qp4L729j593q86c97j507k421a842M70l994A328J459J252N711B072
61306g77p8k593j889a345C725H8R17l33c304k364b555H36N2b217A931p94a031
61288D99J731L788F36K011K04R6b023h89k145k19a059k869J281R63A005c35C850
61270B755j358C46a282B239p36J151a03k345j058E32K483c17A873M71a70k896
61254c066O39j967c08A614K147D4P04K401c051B583C29b292A469m89M649b292
61237b343A065a072A501o17F6L67K64J652h88j717C94b087j007J78C661A024K93
61220A317a440k673d15j424f50D143r82b87n464K361k871j537K909m79a075j522
61204b597B226p68b980a283o7o29O84k21l03C758p59g93A839H38d165Q39a525
61186c34I62a715C921I94M1c57m42E34O00b359m367a776p71j87m146q60a598q80
61168b478B30N91a659D478F17c731A593G86c978H16K475a043l732b171c89k141
61152b530p78a82j289m148c04C787O24p06f3B379l30L63P31a983D338J668F87
61134H56B88a89C526L737l233A540n71C04M813a59l700r90J714C6J373J629a405
61116a997g39C853A408K378c23j559i03L36C346Ca318J16q21j108a290o10A598
61098D103i49l912a267m28j118d30m4l194A062n29a865M15m511b333A203a4l024
61081c038j936J096Q8a291G06J740J427A796H78b038K49I06a793m55A059D43b97
61063B638o6D87a079j636a8j238n20D56J131b81k471Q88g59F09J12B96b877A981
61044A424L057J885j458J979k351n50A314J51m74J247a091r84a031H30B11P05
61028I16J84M30a400I36c459A75N53l52J145i83E7c808H59a030E397q65B110a028
61009d138j577a331j918k562a873B16J381i20A493M585B87f220k78b158b74M8
60993b26l230K34J034l50b56j905M14B476D58a454A543a30I85L54K863r06p37
60976B559a068c48I62a114A356L3C71J266b029I3a786A802g84j936o23n357c985
60958b836B680J888B125C05a238j731R15Q3A521e93D23N92c024a089q12C439d0
60940d678J638k124o36F74K188j072L394b87r50p68j486K23B409j075E64K853
60924C417H00a89n6I75O48d483A040B95d466N41p55J675A032D67d888A35a288
60906B069E14K118F49d89B12c631R65I85J801a799j185k438a044F46J96pa674
60888c98q83O27A610J619k03K129q85J235A251h53A572a258j156o71F40a058A396
60870C037I67J739H7d077a506b14D23K925a78j34k881J586A239J606A333h62r7
60853i59A381M690j792p11M87b182k949C27j24K406a288L45A682b008b62B80a373
60835D043A509J38c43A009d420q09K291j658g6k013G37R66F99e970k251J691C061
60817A176K09J548n64a006m01A874b563F0a843J31N99B272R68n53Q30A378K45
60800A623b428j961J244I67d84k703A355j83b361p3r6R25N36M75A807J434J631
60783D872A460J295J005a400R1k031C919j179e89B378I52d11B680J49D1i64k308
60766c272D054I55K809a220l721a15j892m04n84J107H25L66J176A26J86J971a082
60748a291K38B363G54b008i45l777q27b590B498b248k54D00d2l72A020L323k040
60731B303j057M497R76I47M098f299K800c23m113J450k057M2b278o06a248a81
60714a687A911L68q27c779l912a457a87j160C638M7j311p46K384H24a820Q21a87
60696B697a989g87H27J722K553B68J485c44r76N0b26F22M846F89d044f99a13I38
60677C129A423L578p79A207a229F21l00J232J730b456K50j246B967a716K37P17
60661g62k11B782C73b858m33J374Q58k08J55A181d67j818a036M50D501L31a851
60643a904A910E27J438a21l450k668K51b03j202n20A296L13a787A957J951n49
60627C359C31i86j028A221e1n502A921a954l305a631A346J93A33J27Q42A60J77
60610C37A67g94D21a17D833L57d63k544A707e47k36B19a642k909i05D062A54N6
60592B10a68j640k164i0j45l659J612j792a050k401J5C33N97R06c07D3K08d5j546
60573a591c6j245l70A276M271B281a173B758b164d73j020k357f41B371q34d195
60556B101r49N2C3J434K092b4H34a110c22C000D2c257L64F34b135k82B09i24b54
60536a534O3B344c88a86B188a470d58j787q05j928b432A683f7A414E50a938A053
60518e628b393B741J027A099b052A97i22n297a661j500h33I43c588J312C27M985
60502E312B497J019k09j239d05k720j89B603a604e28D484j073A58b85m968R32
60486d321A15N48c159l280b825N87d15a89k037r71J6a155k949O26Q92J03D625
60468F473K73A371J138j34e64B920j021j60K994e413b302E004k433b08A581G72
60451e445a101m79p75C748m02c018j428J04L60B996q2b087P25B83e47A908L13
60434B221b457f77E67d498k151a058k763o36L07A214O75p96K408r62d154a893
60417C732R68J065j335j494a914A795a927B567R06B39O988L11l519A972b646C668
60400C312j006G15K518O20P22K851d62j151j993o24A635h74l921J594p90E93e24
60382B384f37k044a196B778c11k55a85G32K48L193j238G9M688n72a393m26A399
60364b417B445J151A635C56b705l300j09k94b549j161i89A974K138A673a582j63
60348a745P53O5j966d2j849d70E873J83a611g01I55b935A414m02a524j028B672
60330B244G1b678f70A741G46a62m508b000f11A094h48j37j680A88L2a253E47L538
60312D085A171h47l675j944a694K97e24C081M13j27f64j872A705J956D57a482
60295a634C747K076f79A220h34J49A588C62A41J939b754a212C260j202N3a869
60278b004l23m0J141q93i10j465J22l246J272J768I65K139r56b898J276B265b214
60260f51B280K100l19A982a301M77I88k54b784M83q05i00C206c26j131h8B492
60242A020g07A029J856j057b77I19L88N4b888l320b222l9A931K206F40N19K450
60225C609Q10A52L380E45K763j465C38b319p90j810j63a624k209Q46k907P61a133
60207B179n91K488A099L223l09A276b390G19b6j572b3l551m139J2b388D16a690
60189b219O12p71A31J300J213e70k693q84a103D701j437b55B188o56a718k700
60173d418B317g14F69L100A220j90a702e91k047l062J697a708k571O79m74n70
60157d644a064G55k88J560N49J577A512a253A51b77r16C015c639k097J628F09
60140a221r35D038d15F08e80B193A64J016K140J313e19A689J220L88j53J94L28
60123C666b570M50B908N752B984J809j115d10j31F49J780a712m62F78b285p64
60107c049P34A774H46d068A280K200L30J831a294k214i56c77n138b663c51m81
60091h32A210F7a845O26a16k436J111m63A018b548k170f54A223d877j155K440
60075c592i14G09a069d17E22J077M27K18J431m11n30m39c577l223c239J417M05
60058a417D056H40K2L647A183a706j816J499j029k168a964K32J35K2j240C483
60041E55c291O8M9A144c4C042J88N37g48C984A971c735F02J499a079j001D945
60023h10k319l334b300E06J247N75m83g81B477q68k59f96j88m88k829h27C302
60005H48c897J933m409c114n53D215j548l39J054j300a698K32m118b615m668L01
59989f982K873J128A327e62B661g74j176E69R35h3E252A241a485l090b21k9A067
59971A130K785C19M384J751j377j944o79Q98H36b474q2C79K67K539A289A66d004
59953a834C02K672B16K907K242B673g64j093Q75L33l60B872q41b96l835c64B23
59935a323C744G96b387a12l10A14P91d299l477K347f99q03m23G8d38A34K254J161
59917C549B33a471j678a83E82c628e16j552C90d589j093K491A052D73P31L9a296
59899I78d374n31A277C89l8a102k857B10J536p17c72B006a287q89D07L218Pe52
59880B535J224I09e86o80j522h9C013m77k92j21E88c86B858P769l461a539B725
59862A144b365J067D07O516M59k562B201Q62q97a245H38b487D15K324r17L15J796
59845C933B56J164a307A233l61a990j202j274A031e798K298j890J640A347a706
59829c197i20F69c562J673A623O14K882k052F29e419K129A426L723O66k383j506
59813A926K047G53i62B908N86A200f65j765o04B705k15J372f2l024r15B684K169
59796D853H59d15m580b174C30b999L11P70B814P63N61J30L60K197c229J23f98
59778d64j85A316L192b260A374M41L76g18m938O20b50D571a178k004J498a85j96
59761c81l657m839a280B368d042k26A54c824k68a825G76a234f09B135D34L205
59745C639N19I69a728I51c792R88E05J691q08a335j221A724a048j039l13Q5al703
59727c704G07J045p23a717b00j586A454K162j795d481c58A734p21K793A356a194
59710b598c67B24N869B870J458J31M10D50k16b272A28K008a342A413a513B360
59693B878A255b589j327a432r51J046A374n77Q60J417a056l757B146k46K439J915
59677F254k333A770a694j45J76o36O87N96j088j702a216B885G47N028B810D56
59660B173l41a631L40J49j356a151I62d207J373A096b264b40C65b05I86L389q0
59643D295P52B026D88a897A528i69J09B05c413A196K293j53j399a153L72j608
59627b389A804J18n78N774C002M288l467f31J58C212p96a691A448a402m016O13
59611d805D61O816l096b747J15N92A90a664j139O42n50A001N611A664G23M084
59595D807k203J716A230f07A878b93j794k775J321J417A24K060a320B496j019
59580A477f055m92K423Q43B180J981K753A866b7A927J602N8a738f88b57B09a279
59562B343K194M33B056Q37c60j927B402b199i33B750H0L573J020A039g04k646
59546c350C138b785k493K320k767A522L048j908a382A79b769Q26k097l9a715j160
59530b875A784o37k1A76K794q19d602b002j535J507C30a546G5N868k804j487d26
59512d580h97n611a824B37K033k98C90M515j492e37B013Q50h74J00J88a17k99
59495d16l388C590a87m755A174K640c514k484M50a083B918A138K582E22J017D52
59478F42b140q1M65B075A45Q53a261B047L433J437C179b684F8K095b761r05B414
59460B433J562k11L019k889p84j076a270H33R51K404E48K301j251L73N158e33
59443a243l029A584P87r09J230r97K619b43B60K109a047d66C632M17a310f44C923
59425D718b160l651G22L498c75l96j144k02C356J275L43L329C501c571k304n6
59409e931K472K6J684H1e147c92M2o029c114j330J901l697b737R1j3k602a11B822
59390I13L405K083B035a801K07p28B097L815L10A270b7A176j29c14l55D05b99
59372a06j358A229K273a913j9C47a319M09A634a902j496h66k504l665D59J615
59356B074M87d71I94c75H36L982J500A629d449J782m34C192J681p77Q34j69B012
59338f80j311h36A058b955A277b984d70B019L57m38g86A226b732g68A25a87j081
59321a268a16k318j498J064F333k510A170a676C277j003B05J981m99b625a293
59305e28r63N98A096h57l026e84E05a768G68K302M07Q61h80A495h67A157A35N942
59287F077e19j193F59c05E76M846j033p55b461e47M6A351N736A259g053L387D166
59269g69j492n645a878e71B324P85f234R6a317B165H74a988B117a501B35K424
59253B659a779I08j58L151K989h12B608A47e018A364J832b793J042h28A539b269
59236A405E50c331e23k527k398G65J126a051j185J52B628a534q32k348J702j04
59220c116J23a52p16k128O12q6R25l106d20q33k471a129E513n87j870a099A172
59202A208J323J324A329o7a329N53B06b197p87c00H87h3j84C711d722M93a132
59184D285j194j469b382o24J472j145a322O53r71B555f88L33n95j301n33M53C998
59166g22n98M84G91c227k562k82k56b941O28Q79j996m3E032B155j037K064j512
59149A670d244j218m92J180a99c0A334b203j150R17l037J797a032F78N401B593
59132e635b118B401E05J06b52l011E38J730A43a184k277D90J911H84c96I56R75
59115A931a019j548G30N37J649B96c855a762j873J87D78R23A87K97N00D34L43
59098G77J991j4m74D12c448B305F14G0K969D50J586b941A7J97f65D80b130C17
59079A864d739a421A45R7O86a517H032j507e93l387Q20k048J478l99J571J012
59063a546j152J256d89k411g80j254i47A856H9K129c602a031J89j686b29F20A27
59045a469K53p07d36A625J87F83i02D340b146A532i61c11E131k307m58a715P1
59028a644A823L737K192j089e1j663N43C406g13B541b744k232b474A96a79l325
59012c504g99a01A54b607A144A14K914J054N43J271A58b578l43A599a322j911
58996c233P14o15C092j166k47fm517k2l45b084n124L67C31c67A100l56b846e1
58977A419O47J419k79A155b971A448F5a229G29b30l93D527k126L064j006A643
58960D098N88C21O54L208d228K082A107Q54b950a258D51b377J139A088c51j432
58944a783g73b20m091J525J137L41A355e93m97j660L56I08c621N94j020J180a067
58926a818g40j909a62l562Q19j012B913P16A178a479j996A601c70j48A211K612
58910C823g97o399J073J322j753c036a12l329b12k200q77a239l93k75j045i44
58893B417j24QJ532N83j049b685A118E39J982i45J6C962A328K298l34K030o01
58876D721G85g3k519f25A719J805A397a444A141b578l20F09L168n49j21A73K025
58859B198o37d304N5F24b66j033k958a47B855d528m14j730c120O89A297N62d36
58841c435K71d40j252D273M5A086N07a334M37G75J025a171A299J621o25J287R01
58824D483k91K76J30A405i60j631D505B079K552A031c582g84b27G60a440B551
58807A224J187J402j22n53P72f64j198F17b435J34A32K408a177O4l621B539J608
58790D147F30a198N79B247J173J133B45J343a025A676Q30A01d355a473D052k41
58774C811o80A336E12K016O73h79k763J442j363c34I77a971j10L73d9I6J047J708
58756B851cn329b367P71o94A656c67A087f69j494C096a078j130A810J15a727A49
58738A634J761j532L396k503c355q70j61K180r10a023B396H48b282R64A92M73
58722F65K233l86e48E19J13N20a071A076K597A372a441F98a62B902A365b321A587
58704b08j891j420J090K02n377c217k14l614J579N2f58D98g57H11J558d677b210
58686I37h85m288J138h80n68c48B775p72b95p28F27J219d653J077I23N22d646
58668d425B56e754J531A801A73cj002G096B156k86K252F25b265C895L324a822
58651a111j810l940L54C497J585B4a871L38m311a386J94dD064n48j383a512r83
58634b495P76N79j988b84p97l911a836j59p04J068O83B611a724f88K98l282A760
58616A751c264A160L321m02Rc321a54E08J578D80b374B653J535o7d067a622B045
58598A638a975O57l433K216a119A864I12K030M341C323A274A74J664l78N890k300
58582E050g46A103f04j298A606K183h01F3J400j07L334A551M696D5N771J401J426
58565H643k225k881A521N83D5b563E078k157d51j424A740F4J513L885a76A033
58548C496d922b41p48d29q37j041A555k97L474J004G77J223q74K740E3a952P48
58531a204n521K149a337m033J791E0c162A135K086f20A334Hd05m480r34a760l713
58514e473b006K03N1l35j868J308A914n74b009o921K393A498b9j475m528Q84a701
58496d59B727O01L80a764A603M044K079c94j701C68K35M44c563q16C026J444G13
58478b491K73A619a134j466g32A901a079j323e58B801C32J559a146C102c58j388
58462a746j708a577C95h32j418C409j033d443J54o53i69r56k27l9R64A179J349
58445B528A080J432a957k470J704I45c945R06j700m21j18I7K819G75j77d13A294
58427a006k234l374J249J682J415r8j561a37I95d925K89b176k471o93J519J415
58411b406R84K45I1J04N179q08a419c91E64K11J722E12f25q97B161c95A52J60
58393C12N40L33b771F64c519e55k872J154C607J126A945b636d88A599R21e35H61
58375C182I34a872o090g73B163f789K785aA747e78A695@a930K62l73B845J234
58358D079c708O96j525q86J756D88M953H20j27a133q26b51j088A666K682A375
58341C754Q80r58A004K980l7a459j361j725J460h09k159e81B366K827F72b101
58324a171H24J192L58A127a958A926o22n18P20G17g31l105g22K74a81D33h84E13
58305b262q51b54H98b75C50c420P8J131F87a954Q20p41K41p86a059B064a22k217
58287b339k014j586J006M06a228C75Q70K873D70J853A11c087m63A206M84E96Q99
58270A495K190j820J463F01a377o24A446K452A583a122HN71c537A940F51J139
58254A790b314M08a40r99k65j350b68j654j478P02H29e21C611J688j158B50b145
58236f11A136P45r2J953A299j94M237J125B368A009a672p32q13k20R23j444l15
58219d273H23P22a505j944J472B736J039O56B110K104R40A223J047a405j69j991
58203c565f38k13m231b091i89M21j972k97g40J3I68J130P00o41n23L934q69d523
58184d406r36m060a449n085j193b698A559f56j528k133b032j445N60B213a642
58168b498r46O84C437r79E96K094a095A22J464k78E40e45k358g77m488B10K383
58151B593I65M247A972J93J646R20J527j057A860J648G25K899C1g85D24r2c12
58133A744l05c630A766f56l709J479B33e366P5a776j377k799J510J306D52e25
58116A311J541J493G54c095j899b413b77J28E12g58B005J834j802c030A227K374
58100C601a61l205B384k52j037c142k811J825B477f46b0A11O25b039J18P56k363
58083c528m88J460A713a55d2k3l405J536b0I49m65a011j0C336L427c675M87k053
58065e241K231j311i68A620J895J085H25K003J960A993K296A656G06L328D87e90
58048a355l401a991D921B080J62O12a329A824L791j492b110g69k85I47c850l252
58032g102c05B554J733k117M077E9N73a597l97m504c12j903o355b388O87P18g8
58014G57A56a812B40N78d22E709k39B209K740k407C63d74m095F32Q8c179f20B34
57995b571C575A666c333O27i90F19a234c35C310i3k886Q74a08j113m50j002I03
57977A8e559J274R36B94d10m98H05h21k362o61H02K794A408J219j220o0b273k507
57959d780C270b186J98k420j282b6n44m90m806a951L89f03B495b83B32f49j445
57942b094A176D53J498K08E00f81j943m01i50n158j414c075j239j246G30e45j125
57925a670B154K63a038G57k47J252k95a241A068a653f41A895J84f57J12B953r66
57908A987c003H41K280K60i78A994F71f6j485N85H30b301j277C934J132g31B234
57890G50d5A170K793M29A210b38C539r98i83c50C61e35n53j303B586l16b152k86
57872b438l830a515A348K085r36A24J301C31M415k212I18i26A375B83K755J989
57856E027f44n39L9D764n26k074R08a479H27a559B427g33j01J67A814N703B413
57838b809l079A942j20k31a753k390J575E90h6H71D17J262l21a273b5A783c989
57820e049a762B487H14d771J866b88k653o7h57r80c80j84C414A278E73g17l395
57803d112a679l02n84a193D238c378j721d92j299C81K40L019A045m83m8J792p12
57786A594b27B146J313A192K324J031j38I76N65J125J199b990i33C208A295c78
57769a918R3A163N036a393E64J890A216c852c38F11L050A063A8K034E75R43g39
57751b305C17J068a052I5a983P84O1G88K836A212n73L29O25K772A299b050k055
57734d105a06F188A881M60b42j543O31q00H91K165A275a309C373b17F40G5J816
57717A891e58I23R66J231L389a584l651l600P40J577A038N120j306c376a360A253
57700F88J594L53H96f46B475L95G44J136b63l704C561h58A536b039m82a32n024
57683e156b22m675k19G88b569j410A024b13l072A010J735b146j453J753q42A605
57666A819d084a426A873B24c298m41J020a244R7C528L040j970g49c01C523L14
57650C837K343k391a675l45i35l491O34H38f65K39A231Q41l17g88B733f36m81
57633a117C187A41J886O40g82k1q11j731C43b49A824c394l325e07B441K647j484
57616C604L405j908j375h6j433B625K426K034l080r85J765C43c95F25b433b43
57599C784B85b93j385L81k631K83i86A179L986a50n549J547B563J220R3j129j193
57582A554b513Q56e56J32o17k66A454a808L90e79j750C282K145L136A980a710
57565a594j765m51a811A600l77J09L183j471aC85a060A017d110n51E99K25a575
57547a457l11O99l675m69j446c018A176a854e1j051l110a921G84A59L799o42c260
57529c916J715E04K495r43b072C78a169B020F9a645AK516L328k57A134a663A532
57511g03B942j316J195A174a035A924J193M60q17d208J794k816j659K866N06M00
57495c117A342b078i37m16c04n78k669C642A051c351N16J203j130a180C457m81
57479B976b242D432H19b7r63K23k077j569j434O04b132A701J854A072e97B567
57462a00q73B944E51J54b041D76L027J398A642e06k687i31n37m54B08J392C26
57444a744A971c11C242j585b156j474I4M790a889N5A312%J669J623J614A610a769
57426E793B152I66h44j35b21o1j785k947N29J554A188B42J97P24J181J427o81
57409C090A351L092j325A273a547p949Q75L437b070J019j63A52M44J984j267a752
57392b589h98l720m657c761G89c352Q45R49B434k36a855l169b114i96L07F2J022
57375A084M25Q04J322a953f13A349k81C71c58r34e08j574m346J233a265G5J841
57358A916d14C225m13B7J211D36j77M65c169a366B755M08J958k265m26j203E88
57340B84h77D050j126a381j066k157n17A559m6b033l268a277A849f01l03j736
57324b640R38j333B982o77b288k111A500L50a926j200a010k448R41A488a874G36
57307a234k14B568c523R81E38a109j437D74c28l792C892J45e54F73J282R35L239
57290F129P39C031d87j187r07B867M8b646a178G955l396B025j17b29n24q23f31
57272c945J74e54p51q29k807j94K449P22k80j248J725n09O1J36d91G11a748a38
57253a973l861K433J014F33a494j020J173n017b016N53l806K265N89C365a771
57237a49A960o60R39q48g29o36D485A427L68A6f049K665C669c497a557B275e91
57219C89M97J43e001J60c46C739b10k44C577Q52b69A832a462m084a938l439b667
57201H55m0d83a14m320j918K77A893i89G62L367O55n09b10E35a170j445q34J498
57183a951K60P94j204B448j097b461C40C9J110J865b487j774j08J627J025B256
57166A301f22E34d110N20J671G98f29r33n53j829j34k238a993R03A131b350p521
57149i871M028o52J749a800f55A613m60J43J65C11b60A077l72K843j487H66M368
57132E234j768p91j067d10C384I94J19d96k014B440A152c716C7M534A866a124
57115a863D461j3E33N42K948C65K305A77a427R7e09m668K173C941J187B414a152
57097g97o33a55l308j73E00Q47e733M10K652B48b199O2p83A602k30O21J599B2
57078I79J551a529n453J312A9K119a089N06k427b99B777c317j391a409F146I75
57061b771Q98l73C136j444F92i28j673c80I41e42B230h55J26l984R47G47c51l63
57043g14C861f47A193P59r55A47a514B107a049l248j104D16J098J990K59n79j025
57026B159f37r32B054O37K37m17n69d323k641K442a389E78b475j328J551D314
57009E903A129Q4M740j420o11a258m671N24j424b900j934h99B772f75A817p35
56993A082a55k100k626b049k914a548A658k59L07a309QC8N114A999L7D9e288K395
56975b893J062A218m46d326m33b069E08c87I86m64R1K877J865q35k110M71A324
56957b398b71j736N12N84p27A221b126n685L495a914m22B246L553k251A520b439
56940A771J369b080D373k027J531j546J187f48B6K850J458J509B633b614J305
56925a309A352a93k969A39M224A709E42f59E679B393J371o40b36o025a930A607
56908F92J146d91B474C92j73a093j140b68B204L22r70m74m96J053b032J31A018
56890C458d3q52j15j378A552b496A79J47e054J63a150r58A856L325B582j070d537
56872i14l259R47A408n01h95j482B867n44J260n88q24O57M508B646F8L138L162
56855F368j809A720j87N93a92r54k243q00f42k566h9l519F58J272i85A496K585
56838D081f24B999J473A096l74e73r5A479L186C70c03k766j429j188m116K454
56822g348K868q98G79i15p45o7n23A696L198k61A069M57c54E44J386p78b84B317
56803B399R32K747E05O95K265A587c686J835k648m12a34I9K535A88c182J166B697
56785G74kl76d284B764j134b376B822b192j949L21j60l971a219m55m400a245l93
56768a638j303L11b20B21a39I76e39l948d5A042h38B13b681j265b5k74A469a115
56749d498h49B645A130l5J251L641A877L76m2e28C418c274G71K441J117mb71n087
56731e358O84A262J868I72a308A879g86j366o21l878a425B795a225A438g21j64
56715h85l470J500a384k880K58p5a130F4a168m36C96a203L86p14B305b122k069
56698d191J304K78k95J392B083K448F62A08M012c54k418b44p8l879a73D081A767
56680B120e21j946C131q95a211k83A27P12J648C01d06B726c216j23J273A886M345
56663F231i05c21I08k8a623d87B270f45K53j62G36a179L50A958K14K748b21j011
56645a232j177N16h97K67j172B993h57m807J573j101A849o48b661n40f76A752
56628a095N0B529e40a08G1J832c18C708A448c23o34k040d17A943k8E39a528b74
56609a124j199J80I1K318K989J08B02c073k221j82o23b323l447b827b71j404C292
56591E47g70A961D6L391A577M03B45J417c093j93j322J625C12b31j013k338F074
56573D901c132A53a230l186J093E44J890M99J298I77b512k437b267a125j778k656
56557e559h87j323j079j189c34B575H60d863a089b20l281j121a058D87b65D80
56540C534j14K186J683l349J237q62A904a802P52c03F15b371F84K168O31K89q4
56523C688c303a434r20d64A339L392A275e081A089a004C669j507L03J31a257F40
56506G4L204n39p67fB027C78J584G41M11J711a891C94L363E06e079a322I36J386
56488B322N29M142k621j341d81e6j391f88m55A133J317a626P37j770k398j682
56472f739Q49e29C211a397M80A886J075L93j001j102b842J72F41b098A343K38
56456A581b960M86A420c112K1a059B217L52A065a558k289c49n920b377D62a69
56439g79q91c30D65b452B537J586j565Q98j404p38b776C04J53J093J268K85h74
56421F36K599k55a553c38k409D86K175G38J112B84M789k157m81Q15g15B046J044
56404C090J323B175a471A531F38L437A048J489b212H58c630J087n63o56g45k020
56388b765J126b70A45R07R70R01a420r11B151i03D554A723J655I02J549L561E26
56370F05K717b524e10j235D650j688R96j929c045A842N60A109b873a166B916J34
56354C050j94L320I36M94J36c028R0A729E44a048k318a333H1a444k227A894E19
56336D23K628J304J153k120j488d80r92M32j528l914J907j116J998B09n1J297
56320A455J075A35e018b076C3e448A142O56a948B79O644J761H25R03m28D43k21
56303B22d384a776N91m58P37F79a651M99k484k754C33M270B149d25k439a47k829
56286b976R63B51b981J328j280j370l88g17p292c360f50o859L208a818j134e6
56269A672j74o73J630k33J223j255m33J168B79K841j088a942j631N72qa263j959
56252c222a391B137k0R25e10k470B532C03c739C387m95D16j09b42D4b314b4k452
56234b476k539b41j224k288a565L48D603b54j217L6j38G36L779K588H1i93q34
56217a827A399o67c86K4B141a201m466K302d14A714c451J309E970j636j888l16
56201B130b621k02i56L60j475B344a340j219F182I25a795a13A883J53K47H57K087
56184B944A288a634F83J462L82M387l385b879N06R68j655O98C498r26D93f79m254
56167d933b064A786f554D49Q94e20k17E94K564l47o84r13n68N69c030j759a78
56149a124l222M52j537J353a504d52B063c848n80J880E023O81A936C65L68K239
56133B972J403G06K078C33c579J766B177J201C89J082g99GJ601d069M3A315L139
56116D454N04J83k567c06j319j702a295p25j284Q12h22k783C586q88n35a703j088
56099b791F60d04j330j055A927o28L24E08jJ786K143j904k49b389a177A357C52
56081G19l8K355L448B413a056k471j089B522b673k968K704b05B26a356L30k274
56065c300a491B603A1c227DQ16B0L174E99L92J551m23a432C137d90r25B79a704
56046A705c274A305J425A223j72O34L302L49A40e328k221K244b367B255i74q8
56030a062j412j397J125j740E51J268H04k31i20E43c029d40C388a144A884Q0f71
56012B6K49M026j537E18a886h40D197a704j654j755C001a40m538H02J819G57b48
55994A348B56N13L078n02e26A71a501n032e14C087A509o40d52j09m810b224r92
55977c216M88J078N21m02k050P86l022a545B031K06J749j317o61G8J738m40A6
55959B363J576A412e11F54pk45b078B22J209l0K362A855J21O81Q17a85r76a58
55940I75D70K72R19a874m270J985J461i76d81k835J627b86k076k562H68a156q11
55923a967E49R31b389B855J742J655B563c41D092j217L57B74a18H60i42p91m35
55906b168n610K242c67C074d60k526j409r65a337f60j678d7A463J516J259j418
55890B820N89A649L446k037n09A211D44K742b89q06j301C74g74C995K864A68b08
55872E413A161J592M36a418IK503D41a625O53k977A573b608k918b513J73B355
55855C951C51b857g87B235Q09b473A65O16d96i6m670a722n95e99E994B097a635
55837a017m885b618k204r37A883L168k266P21I32K356j631J74O51C00a338l17
55821a655Q15l116a150A709Q0d63j657D33L089J47m77j534o0a581j527j066B195
55803c30E56a721f59D051K51p95A722i01J44P8K73A660J616A71e606a074A030
55785c090M07I1d073a809D146a43k498P89j082A634J690M685A542c98A463a29
55768a611k860G18L200j153J190F33l14a360j70B29N030B351k41G37a412j492
55752b904k03j574m585a261C296j312d150B5e050j099J635A005a396k217A349
55736H57K195K366n30G46k43J071c22l11k869G03M78b25l840k60a416j603B777
55718A531D59b639C1M85NJ54A69K101a28k9D16c476C82c81A649p99a451D253H67
55698a832r3h60I55a383j168l042b765P98m84B395j170P97K10F53d656J140i31
55680c237o06C633a197k929G39a261B16K167j87d488J043B56c799J867A525i33
55663a471b82k166A208K031j345K00L9J526D05J451J770G72a204l47d2C124G43
55645A005d08k461a044j704N40j72B130E24d229f64E41c94k987k464M59D458r8
55628D360A996o77L52J033L49j193b464K9j96K39k984a34k284A12h41C45L927
55611D272J578B878b222a014a15G85d547b199F27N12J738O38B10b101j4p36e80
55593I38N35N109A178b125A912c790L66B89b179C107J619P45j832j510B36J55
55577C91O694k253a006m913A40f22k634B701G01g17A961I8a824n27k312K210K4
55560b429A746L42a860A792L677Q88A376R42J065g86j645j525r82K099R58l484
55544e365b486C808j257B04a345O13k884i47A763K329J839B833J857B04Q10K435
55528C449a508o41C305R15H10c33m140L59k60J131C94K648a3j336d77n020J970
55511c527j55J755C86L2b023j334f25l166M40M51m96a461P24H92M05l23l40f4
55492B762J244A951a06j204B848b56F46a788J49A965m62J197R71L94A031a749
55475i55c5j336A27J147a402j532o4k760C640a654j786C458I89a168m9L00j191
55458b108A187J45K659j585i80A242J31N81o67K21l09c582A270N616A321J008
55442B329J283a156C43a709l16D32R96L851L018J24k752l47A51a289N23C02h9
55424a890D46M633C12e87j02J22l72j68F68a069D76d956G73e74C319K472j408
55407D383a718j163A957E29b065J38h17k003j655j522k41h04B686O23J315L310
55391G934d15k022C210a487b90l859J564r88J019Oa161k829a868m96r87a501B974
55373D91i45j068J60L53j728j19e7n04n379a974e70D644l97e34j692a078l199
55356d277J436A394a883m127J588l076b711O20M69H72J613L69k58a516j580A00
55339C34K541A26b063a20j439I11C30a348K2o66b63q92H80a36B827a983n41d70
55320a657j170l07b61A059O71G73R03k69K26n05k07b127M75c8A264F25a4m688
55302d702J593I06b522i02k116j751K53J696m951b716a120q51G5f62A403N14J299
55285C216q02A093B11a698C581j323F08J294N087J143G31C60h08C196j211A90
55268B956n60h72b15q58B684r70n55J708r64k81K870B016c29j90l215Q23H71d067
55249b282E73A25d3j776n27l640c39q34j372B39L819j724N71p21J659J137A697
55231B278E3i34C986j908a370f32k753j65i43D1b190j127j759j031J337J404B010
55213B409J154J054A058K685J419k007j39n10c9k542k448a893A634O22n24b283
55196B35a471l768K472c04B90N31M102A755c724B946K047a019B283b97l576L04
55180c569nJ111A865l82a955g31A257J738i4j001L74l003r23D27K050r95Q81d865
55161a768A557h82k742J5b22o60A261m69J323k21p43J915j61e36j274I95l51a758
55142i51E47J411c78A668f45A78a088r43f58B195r64a375m0m018a347A709o4b324
55123C383a485j625a487k828J907D7J952J641J610G41A27J128f79C91A74J2N849
55106F035B24P26O86l81c170a035D343E38b562l7R72H78J104c62A368K707q12
55089C263j587P515D469A914a092m215m10J499c52A430l34h12Fa242k518J154
55073b606D416q41A43A1c382E255A369E21f91B74L692k20j312c912R83A84N7d890
55054E06J718a862j305R09A756l19c38B568R67j527b236D498c075j256a260H01
55037A931K434a745a55A867a602e7k67r53d1m57p51F04f613J317e43A017Q80J868
55019C765b794A038j71J602b952a144j770n03A330j38d321O1L41P4J28a803C701
55001E866A425O39J717h84n30q31e67C707n04A286P64G96J281c625a335n68F222
54983I99l93A9d765A233K564i02B001H42K050M92D77N411k224P46a518M8A403
54965a004C485p52J248j586a278G08j51P93D99a83n755b836O81A583J394n48L642
54948F071B637H51J297I26J20L274p39C59a262B113O916k602j927J95M5b379P21
54931a658C102q23k64K555A371J20J227A46g06J75H78l09K833A042N394k735c8
54913a428k672r25B633N01I16b022f0j292C26M626k235J495I47d53F25K973e25
54895a689l34j635J00D503i40M6j599j995F00J671G19d577h43j839B951P7j419
54878A609e58k89A58L415j577a323A191c491r45J849J021e01A295K257j088d75
54861a301B525A215f16j37k327i07n83r78D92h85k453C09O94e44n188r09K431
54844d210A188a023A45K127N75c33l198J036l55m82N92J285C599j214e01A391
54827b294L10A151m31O93L251B053J911q17M98p07b290F15J136f82k013j333A914
54809i78C413c552m251a898ik565i76B347M61a371l265b037E7a179o718L901F74
54791G0J256P89b790J095j011e37b07A266f13j974n935L384a721g01A673O327
54775H000J36F06K436a745k915a237A998J727A802p51L262A794f47H86h99B192
54758A585a352C056q33l45J162E51J255J651a464n41f79A598F96L10a055c72A302
54740b207J101B328J405A312c34D587J227K135k581k408a106A970J491H13O67
54725A480J12J49b085E270j192P00K340B045f82n95F0K565m45a670k487J016A647
54707B724c121k353J580B350J65a064q29L56m323K914P15o81d62C645J40j092
54691B693lj138J394d29j695k50b20j776A263b3E3M87j86K2b885B08d79J1C403
54671F21J651I33J301R91a681j465F81J106J009a382p92A547b485k50f0B537q34
54654A703a667L43a86j855E48J945j067c513E23D5O84d174Q21A546g51J4A840
54636B029c194N72m59n50M22A684b757A690K595a346J1k114G96b489R85b72l17
54619e89A962r19g5j718L52J1J8j714p15o21A51J068K027a416j86F41e32j690
54601b222k798B518K484j772p20m8j034L51K43h06o72B996b787k495C900j335
54585B565N65n31f56A18k6b36l782J348C39d73A275K117j554K078c37r36F6J317
54567A383J241c20n252L61a668l85j385a11G98J503r4g75C498A713l85b769d40
54549B244N4G23d290j247K397O52h62j435R26l338a789A910D27R56B69L848j502
54532B615b50k412C429Q23j083j477L337J10l97k030c2G57p4a55m355D79J775
54515B254R38C89N64K87D41a898h23j546f04D46b846I83J822j237R52m25a890
54497D389A224A98N09K323A046J201K573h78j260L27d88n16l663a58A866J262
54481C128j465J969J909b503A173J426E33K639N9a660A332P25J419A716J954h2
54464A534l49d96e6k240A947a897B772q43B41J974I65h13l572J925b95C726J023
54447D749b072m217j255K165K084j986b213A083N04k96H2L038a785G28J512F74
54430B459b817C542K027B692J687j852J369K208Q30j421r78J155k697a090G80
54414A918b096A74L98J899A057g25H57e831J169i9B665g30G43d16B222L730a231
54396f077K670J102g5m731j211a029H92a798Q36c98k024B048o07L637k523J725
54380D280b002h1C08N264j762b92I76J248J873j982J004M03R0b011j061A169O42
54363A811k16O10h36L2B537J507B25a063C338N712C01N21O94n95h9l444C483L990
54345G473A606Q10G29a85B503J626F83b387J176N77A838n05i50A641a990e20C642
54327h46B14O125J899m079G81J373K202A786L379j904J459j925j351l08a130j710
54311b840I21e37a84A261D69K383b34k079B476p23B25M26a8m31fGb687k231B647
54291F172a349d61A532b178j886D68d20D384j78K38j560a144P1A030J345a068
54274i56b58k91A626C18b36F20b87C56J490G5g05D539J454b620A927q49e4I18
54255b4m26j956j292l108A214b244A124n56b062C89b568M03k69J127M83h2A737
54237c89A86J830b135f98r57k047A489K16k63b767f83l019K62A0J344c523l11
54220c834J153J45C280o73p36M04A035b531O04r11J34j84C15e74A295j87l13c41
54201C08a964j100R05A486J072O61a445A03K999a420C115K217k65A166a594n1
54185a645A535C50P60P91j11J768A281A19J14J782J571a415b00j463Q04k753g01
54167g87l721h4D74c760l170J46j29K592J011I39N66b012j698J851M2d96O6D24
54148B85a59j653j179E82N59K865L5A676f19o53R9k449C228m28D84K686q2m2K333
54129E379J85B39c498J88b30j184l098a889O74j92C17f56k04j28a75B460A04a416
54110C429q29N958l205o42N74F69a769I03N348L73k973B0a775E79M514A120O87
54093A807J005A008OJ350N7M760j798B441j140E31a331B203a277I07L488B190
54076F870B049g13j413i27k449m29B71a542A96N615A863a044C208j480K75g92
54059D155n23c362J46J37m5O46a125j119Q19j089E950B086h36A807o54c577a253
54041B854L1c074j79H87l08j15e014l116K378b286K38H37B87M25a880N77A398
54023B895j256n0a714C83A88K71j46c307K34P08j949l156c244B599a244k828J082
54006b990j078Q47P79A658F42a718Q43A736J23a406A305D08J52K05b714l664K383
53989c995N15L41D75J036J233J191N13n9J023H52d13k489A65K468A028a60B473
53971b728J081k715J855A881F69c584k521c051l15O89d05j220A414M438e92j194
53955a786j879A170R62N00R23K01A111c488j34B152K297q8j343A493a710K25g08
53937C231b616L4B115R06j430J633J369A695J14b106A699Q83F20f02l33B133l23
53920A810n27J372F3J462g26D752F97R40f30F23k30L994J626h42E634B380J791
53903D171K86p26q7j664H48a766k286j200Q34a248C405p7b277Q6r85j988J535
53886c629N61a098r68j837J911A048L84J80b396r59F031j080A562K870k120a725
53869G70g119j622A044a264p07A021J750O82B96M314l51Q58e22l91K01B588M756
53852G344B907j93c920n40j499K417P13c69A878L998D51m7a462l063a1j323B539
53834E019m19A228b739j881c50p17m23A92L105J43f494j780a869n85k753a304
53817h91L18A772G75J925n46B87K476j121d33h2F16a871j355M28P77g34B432J841
53799D273J01j978j29l40G17j08c448J609l99P11j815d18B239a281M74j056j372
53782c235F2a937I44a141M39j430M96A384C60b637A308B46d554C307E93J363b207
53764f065j041a649k125k28m32J941A820o62R76K55J7n92a787l83G35L627p75
53747C587p15h09j917E24J8J901K654B223H02C68b103L24m495a727A769R8B75
53729A540m77L504A13e141j479b049c92j165J43D145p34c3A800b824D9N40J006
53712A595K383L224k095h25A356N4J083E73b493n20j479A753n52B88O49f8j330
53695a398D234L39j508n82n12o33O75H21b199A593L939a17A816M38h63A101O81
53678A782J931A753K195j892a752A414J19i9B271d74j164k130P49A145a432r67
53662b399r03C55h69l195J638l680J18P84K231P17r25J57j160j009F05b608a42
53644E24g58l69p9l076M5A805P38A194J742J923K495j683b18D368a690J70k404
53627c924O55P06A135N962b72j064A606J826j170b913d20k795L37B082b97C065
53610D550a485k028J177Q79G4J817a10B037O79D86a561m3C519q89b581P78P19
53593a084B85J354j90K526F42O76J533c023k407J498J091f43A230K209c077D17
53576I3c160J471D32a945l48e35p77D458N71j550J381B411a405P1A823L17D65
53558B13M013A224n31R15l58a179R5k111l026f6B426N469H91J401J215q03a65
53540c904g34A679a263C96c544J317j131M59a271l12k177N90D075E05c081J238
53524a843B983J87A200a19A044a953G45J36R03d24B621K731j583a551A42N767
53508E909b407j869a772m411F96M900R08B481d358B681J342A682a226k492B51
53492f3j193F87l30f032i73H1b486D87d130G91I1b212f65H98J382J694O56B032
53473A418L754l71k056a45k200B82K241J109D04d24m034q98G27a607j525N44j063
53456c651l224b244a43l51A23L703A824k90D52k1K24f3I3d66B333D14J443e439
53437a925P71j83A265L722j577b75A253F5b063F06L785j858a585d76B768c532
53420c503q99A93M674a313C29P80a974J83j065l84p54E43B11a080B292q00P432
53403H924C651B66L456f65m638J483p9a323a71D02O12L20J786j203J34i14C745
53385b515A503J024C93K624j196b674j854A908J61d58k650J438A81b872f19A659
53368A207a775B224N446k706k313b76o059b354c44I27B45d083C669A507J279A121
53351A202a42C134O04J4j429p78K529M59q49b859l60J277K98o35N96e27J28C38
53332c353l379B52O55b350q38r1C383E5J51c806o12C606A555J879A196K436q79
53315B753o81l57e86j637ej633A926e161M83A832P19H64d559b83n209a880E147
53297F1c020d10j016G58b538a076B637l22a202j532l43k652J755Q92M32J269k154
53280c535i04j819k049C22K326B70a063c67o47B968a70j5l042E35L715A034b14
53262b498kj067p16a625b05B677N075j550l80k220j308b108j505M6j13k736a414
53244B094iH43c164C23K99b703a249C571r83m69a84B69c277j197a841g18G25J369
53226B094J612D37Q11fD844E75b183C598o19a760i5n034o72F30k15d37o36D03
53207E20b340H28L710p07j900b60A778B87K092O68m67c266K19b13B935a089k013
53190c102j291i58j803N09L61e2B713E83J503b553d29A371b75k661k6A338K240
53173C578a431B157B18J237a137D460J488G22a489M17l4j08r25j18A318c71B303
53155A107g08B275b692k489a462k331j2B64h00j186A907M134J19A239N53N18Q42
53138C152n44j207b021j583i92A655b696f50j015b13G37c535k802a980D537c38
53121c066k665b163N79j333d61l165A06N62J033j85N51a969i54k255k461b250
53104B027K688d013J380A013N439a72j891e48A468c595J489G38L621r60a489k449
53088c938k068j460K386a315k258J663j437h0k142j940J839B63J064e84m001b2
53071i09l700d57l33A836n72C9a036D374K84A675P05a35l46A857G39J867I43a138
53052C079f554c240P19B341I73J451J189a758h66b70E150B550q57l18e39A101
53035E04e80k192k479K573D55b290Q71O8N52j051p51E09b667E70B03L779A661
53017a504C05L129o83A364D81K037J480A214J120i7D41P89E58f5o8j879j250C364
52998a716B970J462a829k851O79e50o4A457K260j684k10l19c016f50r95G37J207
52981A944a15I97K203a530k881j54K019H16K913j823A27c541I36d984J367a102
52964A057K913a989p35i97M24q93A078a402B420N653l701H30Q13D1b748m262R57
52947f053J229a058j095r3k979K083N30h42B332H75b779j304J322a265D85A18
52930B762b231q33n97l198a643C78J226a814f31m04D81J811K784O33A784c68n263
52913e631B153p32c584J524A690e35B380C96b229F823j492b139q28B321e158l362
52897h520F03L327Q31q23a06l067c22l14C349a251A686J352f55o96H00K024J180
52880D004A123e03B036G83L551c359N74J157q53k885J33K279B351J507H2a837
52863d330a645l486K267a214j831A256h21O7l370j643b814B101K658C62b045L91
52847a654f24j678P48r78a224I79a154B824R57D33a467A536M589q62A50L397p3
52830C474j695J306A52a022j031k420a328M01k447I03a827I93O15C49L12L995
52814D656j251b85k920J326I59b60p18p94j671a147j960J61e82j627l84j575h70
52796A507O11c273C626J277e43D17d020j053K114A600j26K54J31K445A411c512
52779B25a503l705a987P52Q8D277C15c146D88J466a204D31a284M7p95K20j407
52762c219j640k4H65d85m80C834L43j212m51C56j5K19e07k668k946b236l183B15
52743b722R38D727k53A180b08j641g12j46A466a35F95e28b05j414p06a059B856
52725C824a316A458c144B7N330D19c122C961n41A463g054b042A062i6C510b655
52708a517A763E65c813G35J948a203C129m61A27a244N32B899R84f46m742a891
52691E818A046a214E187B035A009a521m70E34a197j149d39H75M907j415j932r59
52675A476F88a360a02D410e78j677D22b480o024a486D404H72b80H65C46K393k79
52658B460G83a548B207J977A935a948j781B399H87a686D525k221B77c88r985K743
52642g630J209K52J713k269J378f84j958O76j158C480O97a146A069N19P67a636
52625A738D81b198h74A023g33r01mm16B578E94b105R36r7m22B898j069K367K476
52607F672g50l65C796n25j301N03a771l34k42G85f11j032j845k508h01F094k509
52590C585K84J218M926C824a657j458j444h08B3d45k386I04m21Q16G2J661a712
52572A489L26a453k171A232J322J16k67a884Q35m332j257A79L177m73A138l2L544
52555D650K981B596i39j63m685K761j62A054K684C93J347a101F23K347N28A512
52538B990J674A810ek068C466d1E193A686b03C7K975A068f87C768C84a694o57
52521b351Q35M06j98j024A610e60G12a755h59a12k73m58l109J797D322j592J520
52504D250a34n420K008a016D80N70J529C39d76A275l90K968N903A73K132K12f11
52486A312J087M6j191K2c132B079q54J406K775B64g4k611h7C136k39O75P07k48
52468D031I24b145A449b947r1B250J847J885i50m705j879J200K664j389g78D712
52451A930R7q71J371b455J119j23N83k345k1i41I14M619a02F98b150E53L04RK095
52432B961L400N52h6n62D430E5b145c24A786Q59b26F1K553c601C150J211B031
52414D147b686B226A92c484Q21A825J648B50a597A725m06a97k146B279O38c857
52397e444b211l88d33f5k95E74b510B522K74f12E120O81k531E74a90l7lI14f64
52377F14a141A03c514A171J25b285d28j497A22K427E99i38n723K730a793Q61a81
52359i63j611j045a590n364E37K532L07a833B22p7a818C14b589e62r85l682M13
52342d816J896l68B509D27a247j897A79L31k00a950j246A965b107A485a727k200
52326c927H42k62J200K318A331n5n63J163L799A183C10h99j964B278J946e31k85
52309h16a53G8h3j213p42k188i05I38h74A224K71o61J89c555j012a749K52I81
52290G35d454M99a60j765k834A556J784a268k833Q47a189a02j558k473i9k813
52274b912j616a991D07d239J683E576a222q30I21C04J727j10J857j511d02q37
52258a239p91R48M52A310h1j258j15j32A211d387k196b459c43k04A332J49h97
52240a326j166h46K98r76l390J99l643K542i80B22d257Q17a034L89A324c776F17
52222A419b408j524e51k021B854k31J509Q93B465o0A123L840C60c146l03A629
52205a071j18j145A980q83C4J610a37B39b33l165j758I91l26b764K2A147K718
52188C865i10n454K862H36L09h60r16B747L743F18J557b650A700K673k137J984
52172D220D37Q40L679n61D17L511L019k094H48f89D075R5b70p9C531a6j161r6
52154a273J61r91j220a68j391B302j010a673k530D0h54m76j787a076K91A675p74
52137I01J529N653l843j490R72b580J148B598a296d91m187b173j530N64A131g42
52120a428C186J421J242M135m393E33J063E19a293n484a07B96K378a49l073g1
52103i88j578i55D692c55l41n91n3B155J965b31B589h68a35j667k331C353J185
52086D538A309b118D55R80J680A337b902l068a643B632b306j267a307A054J856
52071B910K603B130d404C14J998a189e7m862J14K5R92J359a137M95k720H92D9
52053C482J879b24A366a465p76M56j170l85a51D978j662j029a758B010a161B06
52036D70a794I14J183c159f58D748j732A349C11K603J140A755e569b31B291J081
52020C372b815M34B68K031E7A0K28e690b364i46F05B5O77B15a258A54i73l029
52002d002G47R71c352J205A896E92M464m59D11h69m272b188D504M63q74J02l96
51985C799p77J327O81K634M06l206B071b668j33J166E38L368K212k453j270f90
51968E52K381c173P87A553J392b568l030A011M89O87J44b32B502K205j91M09k253
51951B672n11A81O320k113H07K149n89a486A822N382J200j522l153j660a099F979
51934D115A648A40N010j306M645R47l893j200i91B365J362i96k751j88J028f32
51917c815a60D146A607a944R39n82q53@B974Q85j168f58B748j186c47B343O29
51900B972r71a802l48l38h05D939J039l64k793j273h84A968F34a0A435G11J17
51883H28M18J21c246A856K534G54J86A23c457J708k595a434D050J933j55B15a329
51865B61b747O18r91d63B347k46K233J489j701D88a868l175K490k744a381l59
51849a740n245J851J456B804K057k400J68K164a3n43A298M130k119p90N76l97
51833B698R52a086o18A394o54d340A207a977D06pc104j395K221O05j978B88j39
51816A49b971B362k5a006A52e518K363B685A4b52A31a09A00d07B701c316a497
51798a081A147a064a95A780g69A485m54a728h07H51l07a08l52D184j026a262n706
51781f968L38B905G95a726F47B74J654d437j073g81j392q4L71n70B718A198a342
51763b467A799k42F1K588q56l0M819a98B299K518g80D66b748j81m76A67a786B052
51744A961K1L273A239N15j65dk972m910L023K58A983H86b235A753D65e095b518
51726G859C864H53J769r80m91c86D287J920I79m26d263J093d18n9A080b06k284
51709b490j096b27A053a09C91b596Q07o75f22j700i40D101A191J681K654J74k623
51692C077j462h68m015Q07l945o9L967C083j364J88j46a016b7D88M593H30J207
51675B037N61p36p32k90a497p29J78A62Q17a408j553g3A379i69l386k552K832
51658d075a007l221B2a728j550j336b296j803k162b372b27D670J966j238B493
51642G55d134C500g012k012c715J588M35Q06k703i88iA249a026D30d367l239b641
51624c194D640b143n81J303D81J125J519P7A576n69c951I83a075m99B950a658
51607C3L267J738c655B197O1J950a20k490B181R1H84c375a585J2H1a418k32A382
51588A292K238j150j179K786a391j952j517a263l087o28K106A184g24j942B889
51572H017D21b931J309K10C788j231b452f91K25k570A88P90O20J554J587l30B48
51554B54O132P22l284c305a515j032Q83B310K131k005q85f6q50A670J295j2J230
51537D183K44B044j91a931l449b454B392b313d41j851j289i55G91g09j005C07
51520a940C412F96a52j151n850a815B54d623B513J328J197j377a177A072a351
51504f88p28A049d582A25O373A723c36A456a5j737A779J299j117J680A477o90
51488G87J454A33J42g16D54a874B784r29L15R85J701n80A430J691J270J02j146
51471C347q69a409A389N57K120m09A5Qc155l65I83R5lB67b429A622j81c160r14
51452d074a281C065A20J98a502A383J390P50J131F39K967P99a144B946o28b901
51435b071l491E087m07B074n63M423k385b977B679m30i12H57K347A565J604j233
51419A936R32a295j580F96P04E58A43g90c11k55j314A177K93J055p03Q96r09g71
51400G96K640Q20j228r49K078j660e04m68L84A949O25J825k51J382k463i66J48
51383h18A673b366A400a804l41p25n62B016m47J096r29J348a256F46L75a293B239
51365C559a724d85B199K452a192B915K706G94c756j187a278k941J679A231J911
51350C142N29B64J389M38o41J306E00J496a321e41B071I94b05B717c420l452J340
51333e532a975q27D255R80k446O68E15K432n06M079j820A272F07P34c86B51a737
51315E6h94A04a301C25h29j173D57A54P398k581a141B750L827C251a441j268f15
51297D207l58A82J892a340c83k23C315l25K175J794g17F35O837B643j041B12a965
51279A066J238M516I87c90r13E016P51a136D43J643f6m791A828J818c104J090
51263b014j407a588f03R6k343B52a008j379L79O77A107a020l84m498a122l22k145
51246c589J039E10K452o45f00k382a403k371J454J152q42D12J334K974A702a17
51229A838d17H86K149Q14A786b87B830A219k13a575L9B347J763q55b16A809Q4
51212A893A04R03N30n71M18f81j804R46p575b071A692c778J796j605a639j714
51196c353j227b253C810a488A835R17J75E34R49K348F41J399b780R12F26f404
51179b787B546j150M52i39j340H41M542j394J698A746K362j651M023B701c719
51163a229N31A925D95e633J47b578B292n37c821M93D36K33K825J817a924q63f33
51145F163A700a542k96k210N40d06m457Lg4j7k989D1N66f128K804j073C54K207
51127B561b504A834K074G92p5b236B25J162K267M56j683K771b90B310N14J031
51111C855A312a460j394j165f68j295k672o81J215O29f48B022K781k014A39M581
51095D720B048d99B666a659A941J597j372L954L338C015d07E93J762A141O30c639
51078B88N44a04E970j650a527k882F2k3L235j310h62n67l253j048A860d719l35
51061e054B851J06d96j739l053F27K726J644j308J688k437i11j504k459b314m57
51045b771A675d16k958h60A029K220H26c718J415k41B149a145m38N66B351D20
51028F06a228F23L694B71R60e361K430F74f35q17j67D60a129B588r70l09c33A379
51009B048g2A171e0l107o52a62j872a98j939e57B5K51b139O70j584E40O11m22
50991G29O257d3B094K93c716C737O74k082m88D21c079l5E63e79A561b529a245
50973C555b12k211K70A763J007K483j575a88j449j499Q53j859C90K17K424A489
50956C979q23j241m56d8C187j036N26A38a23j824j1C118O92J583n42a035j555
50939b590A983R4b393B514K847A269i2k430Q3C376I52e121K082C317a261a53C799
50921A609D81J789M177B288Q17A004i64B385a93j828D032c23m190i10I77M73c357
50903A347j46f03k368j778c16o68k38b07D93J64h44k223o3e33m778a173j800j71
50885c144J423N12B430b431A064J1K246J632b301J049D139P17A069c233A766P21
50869B487p90j27A47b908A222A25P40L81Q64a750B28M110A148K544a364l049b127
50851a875d82k16q98D75a5G0L10K2d269d3A020N50e93B496H34c477j395J369D679
50831g22l831J104J153J027j281E87a136A655L75a150d79l334B25M253n46G42
50814b588K50E59c25l529J75J547d00F19a022n58k14e67n68c12j214n06j265C46
50795a278r83M80J11l346J384C376c122i67C94b037j963d28B095j76l02j66c075
50777b389i99j160C051e32D761J421H69b076G15J026l22e40j123K78j245A649
50760D415B201B63GM524j351B90K997G75e06j322A896b582A136P58J42b85B595
50742A396b415k044J12a598A320M650B404J689I37l49J606j33b323a105I99a046
50725G32a19k489J231l032a712P98n016J260C29b065B029L708k093P31J17k083
50709B409J433C84a011C2R43j7c26A630O69M6R2I22b192A058K634A142A95h92
50690c433a093j741D38J62a020j518A517a146G49J299H3A5c466J278B112r04c801
50672c144J246B86O21a207r96A075a461A262D71e78J06j17j826q96d52k158G15
50654A791R14h65c79B34b069O5A380n34J190L947G82L648o53A347c693a304j296
50637b600l57i39E27g38c7C686c149C42L90e08A837l51j82J157j87m18B48c777
50618g43D44e08A976J183J476Q78k115h55C147J841K812k619H35b488A93a098
50601c358A217a532j155e54G090j515m61j628A191a482m052a663c05k611j839
50586d755J299j213K241j153m01c94j232l32j352a176C381K157B530g23k733i58
50569b01j04D3b143B079K953A419a612C6a806l25k323K37J217E39L113a409l025
50552d434a248C10b661J021D82g26c53j74m375a253C93J48K513b035D3Q19b428
50534i93L30l474p43C579J277j006j051J595j567p77a494l548i34I97a898k824
50518d722l09a529C369H67J669o30n30c810l973L014N42b089k472a466I70GL255
50501C262j348J7E00L593J98c82j017C402J534B121r03K545j749a524A412a198
50484A715M486A992K942L06D16g60F31b281k733Q64i92E9a424c7A08a595k192
50467c787B12c255a464J07m213j892b504F12b152r99o51a236K43F2J012@A497
50449a969g12K40A588J455A096L184A045e335b022C031b379i52D3J013a62g3j591
50432a664G39b290n737a486B32J417n34K166o5f59B034L151B526P4n57i13D773
50414C352E90b375p44a040E47MM679k353J156L97k5A223d69C456H62J872a47A255
50395D24J030e79B177h30k256C08L391j088b726J188A780K514J52C67J43a83k17
50378d00j079m79A858Q44Q26j698b440k901K316A563L25g96o62A625Q37K21N82
50361C265M58G76d433a61j128k303C33L546j578l22b172k026a353r77l57D596
50344B051o60J245G38Q75L339k163f31C288E84d676O65G00b02r89j491c51A978
50326b359k34A479c01O3B508C69O6e95C5h75H89a330k64b6m718a687l009b61j084
50307a345j386j413J976l48l407a433C870b209l07N09r94i85j91H755C064a58
50290A668J305o92B77a72G5K282K596B014J066N58A048J183f65n522K903C604
50273g89A299g02m996K523e18C104O59j444c284D03N70c57B90M388k290a400b75
50255a251n48k49A554L98a095k746C90h80B113J39a48C246j395k30D15J867R28
50238C210h26j342R39d80j49m633A491K291A091O24a540G150B143D50J480b75
50221B838E33d229J719B178L110f53k198J31D242j018a278p94p63K58j612J199
50205b990j881B739J788J558H51L494a814k247Q50e40D223j842l50M23P53e733
50188c296E77d242h10A705I4b118i17C439I85a190j461G38M245A103c269A133
50171h24L29m605A336J531E98M543a11k112L88f15k586k042K575p94p09O67a553
50153A741b003K94g08C551B57L19A70d560b53H02C12K261J778p82J027j160a648
50135b203M70M8j96k023J212K63N54k238e8C782A583o9K136j261O12Q9j107b69
50116A404J560b430h61m09B371D05a984a55j845k173f68J29C384Q75c498D92B46
50098a700A400D12L40k32L007L58A736Q80B04L275h86G68N48h32l814A064J998
50081C062A285L294f6B867l44A051J207O77d318j489f38B919L4l8K87n81R7H65
50062a819l249K78A250d86k203Q96C048c11l311A544b98O9B809b01E78J639a128
50044a217o89B281J517M84A089a504L37a06n96r35b18p07m256b86B04g39cj194
50026a197A977P6b030P24D728j117d13k199p69A475O68b919e39C409j624b672
50009a14o108K677P33p97A496c039a02B681j025q03h68k69j300N24b4B631q8a058
49990B81b460L92I06d966R25D86L828m86k07J169a940g14a67n809K877a59I71
49972a00D402j773b975C156j4A110a419J31F32j37d78a97B77N37b316M28E44M43
49954I87L396A672a988d89l815d38Q5r69c29A663B67j19L883Q02n38e346a180
49936A517g76E60J696F39b642B63J781g96L28A222j28G1J625e51A872L145G61
49918a175L8j286f02j03j904a02k425O83D527B136c44m001b123A925a782g47A989
49900A550a419j664e76n43d14B677b591P54l60G38c97j781d15G7b013G30d35n76
49882a011A502c058E34J72K31B33K807F94b104g4B772G20J540J76c30C562a748
49864f70k786h47A5a863K34k711k216J810a180q92m009a423A163e51B174a590
49847A68J900l22J916a95j902D08N88c098j338C401a530e56C476I35b658C4a719
49829h24j188A998A16h19O4C457K484c314F99b215k843K467D45J717K707j679
49813C190H00k9J579K198B094c556N74k665b279a04k823j442C20h7j7A791k51
49796A540k26N16d108j383b391C24b783n26a196k480J296A869K96m17q59e48G16
49778d040J955j898a540f58j511b50D231j468b999j104A156b03A911b613B97L550
49762C847a847K58C083H65d84l16k826a476F30K858n30l54A256E45b363A514K795
49745D309F42J120b06k444B554d01m48l60n02m014J407l85j378K171K10J815d47
49727C41a286a98k134K61F89a75C037o09b14j164N16H7L621A012L15L245a081
49709A646J262q86H59c784J763e74F62B75Q18L807H66l40a554m51g11G20J050
49692A770K454C06b801C044L344A842e850b588J043O44A127d418J575J254B197
49676a987m11Q63g66A261c184a173k766Q21H49a607j668C78L488J6L439r44B624
49658C267e98C477J094k003l00a429k485f9k779a294f1A946i87k036A235i41c60
49640a558l38C98c74l624a353j48j132B19J41g6E175m10B304K55b47C357J006
49623D363j937a390m269e21A12a937A594K90aB792P12j047r71b112o80A282B77
49605A317c916l494J924a971B008J169K38c710M71N91j361J817e66H23K100A350
49588b726f4F25P89J987b22n086a31r83n001K383J765k553g78C984K59B002q96
49571A106P76i81A053M17L983a91l327P22F90M4a579L95j780j006a078l66q9a67
49552B784o69a600f2l408O58g12o50A246m58b614C744i33k133J312M98A939h14
49534A848q38g59G33N77K96F24a160K70k502J139B197Da474k28m63q2b6o44C824
49514A0b208o06q66g35I96a877A83b114h78C241K652K030B457A147b001j020L11
49497b710B916j417k83f96B579h91a19k02B744d49A221L005b903a156B638a611
49480G09N299c365N81f87E07i91A323g84b03A141b079j564h9j449C38J627g0o61
49462g31j404j179a549C074p68m03Q47J779J58d5l772j561J822K5m378J202e51
49444a350MI4J146K101A566N59A31L74J231K38Q32L75P95j483a384A148M24K52
49426A824n20M97b443O70H92f76B039N241k332A241L609B9c475J699E37N40b615
49408a841B599c72C736A042h81A830J664j033k1o00J883j355j171a33l4k60a85
49390F507E79M530D96b361j447J473b21k210G57d902P97F10c273l16I79k30K912
49373C661c08l558C088M580j012h33A477b59j581C09f99C146J023A535f1C534
49356A433b352j089J315O10E91e035K058a424G1K948B9b246b27B130D92H7d80
49338b65B61K212n61a569j346E79b60B455J258a737g0F917j835A237a03C098i77
49320a882k365J363m45a408C273H51K67J115I0d595j465J671A90b747h90q44D358
49302C868g28k048e07p68p15J96A179n20d337D19J620e95k85j285j766H96C0j2
49284A8g8A260M99J064K570n60A43L76M062B209g62a94k581J81d41l219k056b274
49265a983a7l823l58a321l911j302a649K39m34C176C01B2L153g4j489a0p700a252
49246A633a114A667a626j506O25J88B335K863a290c28l76l277A568a697l421b515
49229h51m01C563L4A655a457k156j831p10j24J198J238J661H74c25j831k544b310
49211a386B216a147C863MJ65J592E49a60E8J41a233l819i18E09ld92q2B818f99
49191A94J801a784B321j047d281k278j685L704a947C843A376d07o13C628l61F24
49174b798I7K879a958g74E95M505j084A729L96o73L678B245J17L537j847A448
49157B737a561j634A64O48d469B7K418J872L7a036A886b627E37K96a110k491E14
49139a02m671J572F46a914Q37B456a061o47I27Q7J736a79p31A336d77j423J06
49122a794c60k166L1J012c70C13K502a072j570D91h83A044M01J479a257k225k225
49105e707K44C24a086j024J3j184N78Q08n728L742j407J28a129B366a27k48A245
49087a336p14n364c359R74D82O004e32j750l131l95a984A048J754c36j763f24
49070b845a265N09fj412A93a608I64b84B49N892H66L481I07K187a613B881B42
49052F079q80A678J105il87A423J109C31d92k006j799m912M273K309n48F26a281
49034a429C24b206C187N62j202d92D577j205j626O59D90b808H23B96a901k122
49018d023a945e76p82A643R80J312K23A917Gg2E49K09J179M0e63l654J865R00
49000a452N26A213m7O800f99f0r08l876I81J257R98A183K156J17a602A583L964
48983E547A456d450J265j993A381O47D0g3m377K22J786R54q86k89j310J753C287
48965D371i77E92L819H61P53B38K474K488D20E1a44B691H17O04N53J611R75K143
48947F703A497O22O96D10b813a034E89a486B618b32B567Q71H22a799H36J76M76
48930A488k80r9K853a720j783j993b072A254b16r59q7q32A658p90b814J077k622
48913d359a58F12J947j200a984A549J009A181M02b835b93C373C95M988a17l956
48897d073I09k38K67a077J6F69J154E29N172k376A146a624j277h22m692J164d19
48879d98p73a94j07A860J066a408m61B833d15F13P2L024j234J248N164B689a295
48861B564j31a77l15k55B959G19c657A936g86k921A404c25C566K266A798a384
48844b981B275h06D58i32A60J697c838A871A78@d07J32j82k083n53g50C774A438
48825I37b429j182F5J209i41K57B128a228C268K641K80M0n97a069C97L116K74
48808C787A224J842K965a297C888Q55B029b530j387b85A005b80H9M82P32b244
48791B935R33e79j736P8B303e542k78a666d0A739O497k855A024J673K45o7a695
48773b581k809g05A300B98K329K217A536E49i70j282P81I23l40h27D018j323K129
48756D824B88b640N02K86B546I66a947A502j55F71K118F20c041M84B280C45A34
48738B607C11h07E68c76F99J995b375p48j377l455k714d757a097l65A862i46m50
48721a396D52K539B17E2b678j574k190j825b243A159Q19J79Q63b764P50B457O0
48704B517a247K29M29C98J064J851a074l550j327a607C204b190A134D2M267i34
48687h547J790M90K699d49A314K254d851b075A490c96B175@c643l214J878D59
48670B327c611h07j579r49C6oJ028K276N17b08k650j441a695B611a306p35p38
48653b779C12K364a25A112L24c048j910l666M070e47k01B92J341J613b673j57
48637b830b53l558i95J84m435i29G29J723b356J133C967N22Q39j162F00Q86k85
48620A201J174l71i70j668g20B900f93b43k372M16R81j615A548O38J907N18A943
48602b148k7A464e666n77Q00j495a515g01m960k571a676A389b498B343K548J59
48586E050A233J319c79n220h59A155c357j551b224a023D71d34A842h13p09j911
48570c433G85f45j462k227C09N824A771q85Q05K388q70C46f989a99j735m012b427
48552A052c53m132a39A662J36J359R36C10h39l756l635K002K572B522O37J4j353
48535A820L844J667C027j487G27M23j16m02q8a617j89h98L92D365D11a836A250
48517B39N1K310q26E09L289C76c793a896j724B136q16c272H72L247K634J250A642
48499C50c77C37J41a591H21d10j970J041E193j920D29J739L504K46A704b903D86
48481H60b325B313p84J358a415k076b61q44o39c97G51d084j871K330j855J812
48465c668A269e362O85J722e84J2k89j377C375K562k828K143H41B94O02Q80b170
48447F38L714I90L65e776c80B036e64H76a017A221l4M592k666j167E24a82k391
48430b573A321N62L68b66A313J868f18k397k328b010B949p74f14E70K323L155
48414F048P8j959A205b324l955K598k828b367j325J552A618E27L070b347k701
48399e048h25k143l972J472K729Q00Q28L79j855N16J33n48D401Q08i5C168K641
48382E809j984L05o03h48G95L677G93N371m53j070D71a473C546C95d346J946i67
48364C840c190k012B11e675b777Q63a02l377A453D77K099q49K870k248a39o7k204
48347b410A912H93h56e4k3A350D9K469DJ952Q64K47A154b402O03l261a155A741
48328B611a711F560J670m6B076K080A748L159Q86j291A790b432J94A383K288F31
48311B427j209j47g21A55b92J35G49a247j518q51J398a30j329J58l015J376c05
48293C565n14K5p58M88M632k812A602K528a424L49B559a835G58K968j396K683
48277E013A898a34A363L313E79J627K17J606j973a417B286D4b273j654A767K4
48261A791L141A909d132l433b000J8m808c215J147A26b795k081a615j185J06j027
48245c721i76J39l290h08D05J417b66q80A332b888j616i06E604k210a284l377
48229d661a787A496B78J910N61h7p04k095p10B657k20a2k23l498J152J128d68
48211E88a693C247e24C78L323NA784N30a475j837D66L83h6l60I43N86a634j899
48193c533B107R53c182D60K70c022M73C68Q66a903F13M012A834L314j35A451C39
48175D16O139b195K74I58K363A146a724l158K422d13j640N91a74A727K417j580
48159B564D56M84J49b02m958A350n61J729q12b261A006m97K979o65A173O02a386
48141f915J187K087d92m21n678L60K04b521P37k60c84O1j560B708L113B353i7
48123B255c574P76R9a101A145a570A091a35A754A98c026J178H57O93c54A959o45
48106A314C66c247d53E512B608c66n437A284K848L245o52B633I74J301K647m66
48090D456q39j317b406B489D15i6c0k740D789A232C38a600b33k395A301J196a552
48072a182M26k751l933J420f03B288m98D34a615A039M20e84j804A073m30e60A878
48054A964J838A764a257C18J108G0J263K35c46p19K88B491J949J466B366k18G57
48036C671Q78A934K897j873J086H61d199r53a723F10M235j499a274B57N78c39
48019a010J38q1B446J741L74j395J46O88H77C51K228b78o026J433K241J189L4
48002a407C49J30A2J748F84b285B130p4b218P4A211O160j846k731d05A250C09
47984A701f08j010B650i0j384k73l57H86a132I14N410j006j75k272e86k399C282
47966I79b999F34c20C162j127J531j65i87D850J387D10J790G92k82K285Q4K04
47949C083J221K573B422M53K893n52A006B01b886B70K601c1l097J179A858O44
47933B502k43J431j9J757k574R91B09K543J609A46K95e001M23E81J084a182B516
47915E873q56I51c11m475J824J368C416H77P1a438C135A82J844o29C9e71H1L927
47897D008A177K198k85A91a792J62L25B636b413D85c516J65J415A874b916A209
47880A671h14m522K170E87b468a065a49j773o69J025B27f68m540K255B595p89
47864A806A14P81b755A728a403a82m304P81a748A190m13c490Q15a79C536j111
47848B425b575O56k352o24Q34Q13A832K293j77j564M158j802A733E16L5a719q85
47831b604E37J661N46J193j560J8A14a471O84k237G12O23L024b366c92I01e704
47813a381a56B120L546J919l020B108b988j07B603J647j242J178j784o64j74B28
47796e39D998E90J620F15b160A51b152K34B091k82c399e10E375j552a099o04p01
47779b404Q12j055l76f16C735d16j774k757h8j575n208b139A560c099Q68m66a240
47761e78j962n79A310F39a143H82a17B378b787L19G15A1b14j604C80K3a609g30
47742A34M522g96A747H3J52b746a282k228K45a619k998Q41a854H04d249a557p59
47725b316G21J796D77J154J031E04a683m03a005M62j21G72d38p13D94o2L29j12
47707F49j40c16M3k201A94M941k298l33R2c269J35c41D272K407k030n80a944j046
47689b990B90c799l61N95j931a694B745j175a030k28m70B49J574C40b092A375
47672A820m74O23K285m27H13j56a471j375Q00B51d076M83i71E0a361k798j451
47655e610L59K128M79a71j706B31K968a763j065P72m041A912J988a723P55j128
47639b096l92C29J083f21B752n45c48C496R81K690l500I84J849R38j427A98K235
47622B433K39O24e66m520L67A522p36b80l155j130C009P78a179k210a518E42K748
47605C290M43a290m056a061B620H65l04i87l69A922b28k089f60j419C015b97l246
47588c543J97J551B908M00K352B04Qa784l117g89H31a876O32C564G8O33L676B151
47569E109A499b676L73j773p39J629C76N562d60l701C50J984R48A084f0k201l948
47552f209b971d25l60C210C50j45K70L238q56c895k087K666a177q24A865O68a432
47534c158a377l26o33D006c40k532C667I37d340j153b30C11K312L18a916A284
47517c607M38B279K712J596F62a340A100J177c80m856c53B875M135A121J014E14
47500a949A957b263D446A961J784b175n70A015j62J742j97G63c993m1J245k124
47484d913b372L28B186a885a00B048p2a240k580A459J083K982k579K865A320j40
47468A180L86j58F20O010L54l010a235k402p7a228e36I54m1c344A557J368P63
47451C688r66c21j944d70k556J392M55j986E81J942q34K82c34l499k114K642i75
47433g01C653a842p64h91k165R01l016K515B762a963k846a237A296M809b455q61
47417c316B12a535k727o88n68J543O9J900A915J184f36D78b673F05K410f066a332
47399b667G602k593n19L20a70D99d642k59B970Q89c835k227L30A61J510a505b93
47381a637G7L596F57J478i08J84l80n391J506b217A874a833j138i19l679f13B613
47363A43L417A47a814F66e99C88L166J557n14A508A94N333j665J348j717d51A220
47345b85l0m36A184L686j902n22C04c518m024a684C097b625j239d04j240K24B52
47327C044L366l39B660g18k114j216N39K63c46H97g10B07L110B1K260i2j905F655
47308G680A987a797n209G6J046l45J711c4A364J631K354F83a283A10c16r63M88
47291g91l35i4D49j64N28J854B79a198a51p80A960Q02j346j94b267C340J709k297
47273B752A190Q48M662k243f97j830I41k97a796m01B378e87m863K418J063D311
47256A956B15J617p09J596D27K923j456C18L105K106j129b15k67C260o03r47M330
47239F040M875E323c055j291j06J693A281K054h64n99A515o60O73J309K599k633
47223B803d1k409Q90A741i28A292J17a524O96F54a505m17B110K121A041e43E58
47205E80J089K968A734d356J232A008J279O00B11N96K458j086K777B035h54B237
47188B766I57c438j279b325i84J73A343a024k48D001j573b617k656a226M43m041
47172d824k223K535A155K182b977K48A050J95a295j551a326k367C459L422a23
47156a280B065d18m79j591f41k080B07J866e318f95r31D391A800L08n59n84a016
47138f125A652h05C050N58o59a011l165a025H86C81M242E27a031H48h767c822
47121D921j696E45a244m73c45k710i94L25E94M026J656k184B41K506f30k32I46
47103a260B037c38k486K8O72f6j742l28I046C153d276A389n07e1C440o57c83E932
47084B241O59L149A877n74K135J007j744K510A588b696l938L221A653N8Q42a931
47067D063j638a173k785a831B708M69J24b218j024n57a801B958c19p06A304b182
47050c453a703P20a46l817J892C529a131C330A099c676e65B930a979D48g53p822
47034h575L689a003E692B247K439n84k004J109J75J15a006E73J496O39o40c974
47017f564K063a878C600p15I12K268Q75a126D978R26a065l726Q86Q19C504j280
47001B224b096H92b356a012A40J891r35K772A120K8J045n08i19%k927M53D815
46983D936A601k65N827j50j837j682m5N54l28j160d20l311a737f6k709C375j625
46966A750N26c51A797K875F8e571a065j90r69A393e349a248k566o51J515J341
46950a609C981K188A684L539A321a131A878L997k773F52A75N55a173j372J047
46935a498C248F9i29b59j940D939B252O92K531j455b676M19g40k77D008J353f54
46917h86B300j002a495A571a353B820C06e517a242A679H22K405a75l482m327K353
46901e631J004J563B61h86G8a351f08A827a575q49f27k913a208o30E08d458N93
46884c865I53J951j174R93q22l24d25A245L8h82j558a18j213l40D8c732k250b12
46865a239k378J51B791a132j33A378b911A239a67E539j270A398k69b680P78q58
46849b760k008A093c27A935b827J388k65e67B83K15a14D83K271J840J96j272f86
46831b91l38C50L207H25R73A91L168J317n17b054n69J084k630J013B145h91l540
46814d431a451A902a061n050K693A231a303J96j966f56B533j011M8c177A115K3
46798A138a974G948A845d526E109L686e70o816J440c68A678c589o92A623m09c615
46781h059L835j857A373M181b75H95b684A068b704j345J542C308K563j399H80
46765A356n25L914j419il600C19J880b4A875E02j02J411j39b548q16K38J043G35
46746B595I14Q96k92A54d851A085b320l697e01A59J569G72l51b560H99K334r7
46729C136L86J399B240d758f43j287O64C446J168d66A420R9a477G29f70k559H09
46711C90a533k997Q99J452C257M17a1j07A520k10C81N153j855I55c501A488j67
46694A321c045k093k30J538A114b02A191j12l96c207B068J421j202i49E16d59
46677b204A961K65N7D62M181O2r77b261k86a047A288Q24L636o78k10j611j272
46660A977b186r27D81J025a603A029j49B7L30N56a834A302J251h52B675HL029
46643C037A321E77O25l32a241D325A986a939A34d26A421r4Q79M40K57A250m18
46626H32P04b310k37E13i68B356G32b63l324r17a081j483o41k90i66l92F720l296
46608C424b187j138r03J484a107C796n97j480B37J483o33a076D58Q49i38l949
46592d887a980h04l283d78B207a181M82I65i86j290Q80D336J43b627j307j71j869
46575e974R85l52a841D121j29j52j651H4L498j696L31J451M105l058i59n236K194
46558d001c1A581K093b802m33J515B80N755Q53C46q8a196a03l37k804c47d1j456
46540a497A49e31k958E79M771o34A613C14O87d43E82i94j870j252a849C59b088
46522D7e08p38K52A474J336J565Q20A947h63A699L776a404E29K95a192M1B608
46504A714b779D34c510J97J028Q26k305l514J101b839K23A118b29A58a481l916
46488e397B178J680A713D50L382n77b10k968j225K102o49a052l005J14C643A749
46471B067O9b152M36h16q41k850a548C023j111A28K860J358I21a368e61A995K113
46454D108A051Q81n28d144J42J510n91a94f5n705a884a15C231J277j596F14b86
46436b306m628b291l25j631a529j339A934a212o83A352n10D6d498a397G72d42
46419d757l567L453i00l120O50A377b196l053J914j460j505p87b985i51C334j483
46403A851J46n2K086H2c373A026g6C276A260a021A532o54O01e07B577N707A78
46385C380N22j695a021l151O53e49K20k241P97L08j397i72j558k352a477j818
46369c295D111F18c312g0k298A780k41M625I03c775D67h54l383k825D18J507b42
46351C51P52K696K85l7K581j119A4a806B519g87a10a6j192O5H78L300J57J782
46333F117k32j485M70j196J118K50q64K140D32K504J102e509b233d7C93e09k474
46316b983C428Q97g58k203a003c13j611k205A580G1K459r84C27a503l670K148
46300c025Q27A04J381M01b362c21E402A240k9K770c256a624E90b641r90a766A506
46282C10L90L26f79A153i52m85D329J947b460J064E12i82k05r46j375d49h6j713
46264a799O13A279O66a951b22B513a773B62J183D86L451J00A958c791a876K95
46248a581c3F14b467M93A817e5C794D88a543B519H92e189K27a85P7j332D997N481
46230A0478k437k400J102A781c225B199P55q20F74i06p30D08d535J240a466l93
46214a859p0e20l011J28j653k658a972C11J741a723b8A857c757c01B715p09b01
46196c123g02B094J098r59g19B017n77b334g82H86J636a048p67B396c12E0Q00
46179H50L76A66a554H02J472N27J22A186d502a330A528J739B8d264p44B156R82
46162C138m27O26A324d61A247M80M80r86K891k050B80N58c859H96a79C289b838
46144a346f60j517d90k022R73k236a502P15j660B041r40b014A145J688a113H11
46127h75a42C384A090c084m258K897a899C3d822j03J699M22g52J63A57P48L788
46110D693j370r41k36a986N21B04a01B65a028H17R2K424M014C297I6L01P75c091
46091A291A66J096a200m077N66N5g73A7b323l92J035j761E78a085q91A48c963
46073e697c06C674I93h56C618A335l68e56k896G16O99a819A117K824J153K508
46057G602E02J188F26a052L91j422A051J163C64a653I21b76k160q02A881k04o34
46040A043B13g67B427K64b732H58J47g734c845I63a490C98q7i12L1r45l313m002
46022i141K993j95b263f8B569k36M454j987e16A38J80K107K363K312l223H85q8
46005G97b75I31K3K221q89m02K68o11a16E12K072b246d53I19K121G8Q2e35l809
45986d344c17C659a98h9j192m617J796f32A15k8b549e81A943R52J628j619b213
45968e295D616K92i11j550A3h32C250Q38d42A260l07K065p36A70P09c517B417
45950I072D199k64a866h92F93K290H79b820A044C51f7k43e1m236j449K95J386
45933d055J429a258A251e881b668J306A088J128c707i04k203M34B149o97c141
45917c470a269A92b099B663a601L71j454k887b427l474L93J486Q93H81a865o20
45901b485A371n5Q76a2A428L052J158j889A519J551f625J471H22b385A140e08
45884c046k850b615p66a0o12C825A038a779j666D039r11a431C96N31Q36K899o71
45867C991C09O954H87J663M33A196a803k625a629C92K821l46a115e35k956i16
45850a316C112A359K648j090J248i3k356B961K868B782G14k32f64I15J748r03
45834A760g50B559a719j04m281K771o46J560o434L883m194K850c064j217O16J329
45818b336A80b47k21l396J290M22C283A88J418L644k544a096q00l24h65l055a345
45800B248A004O63d304P47a536J71E4h55B162c354a644b44k870j209a880Q0H51
45782C945O47K356M41k332A503b547a119C565K599j018j371A156a509j702k942
45767f153b785i83A803b837a082l03G09j72K37a027E33b285q49b92n606R21B3
45749F841k215G25d888I64K853f8A545L434A526L695A723b345i63l541i10j393
45733b303B099J972g92p6I71A40c423J387d35m603J222R68k89C824r19g50B129
45715f361j511a838j021l590j87f40j534L0E8a71C210H59d61B41I9h7l541E866
45696B628c90C296A142K599A273c330J310B727k35J28b19h2B335J351D57P77K066
45679C300p27j83a920E5J224a61A621e13j113j561j493l63a537n429L461B726
45662c228C71O312J384A026L282d25j322G56d250O88D7a04L2m532g32I16d580
45644c608I77J923A381a361e28A400l94N631A46a474j983A310a81k433f23k71
45628h94H6K627M221l233i70B269l96c124G87A82a930A360a07A613D16a684p15
45611b399o060d062J118a33I21c42I25a972C11a059j175B857h99k955a577k317
45595c894l55D932A941c029Q49A308J001J902j264a043j800m0b78n19C251k81
45579B970c026A281L342n21j734a218I22L662J692l114A055i09k90A468M662g70
45562b024j461a287A035i41j07j891I47C05b331f23E33d41l035a094k224l424
45546f742j168L667C091L90D22a905j98j037A270a993j370e78C141j456b69B09
45529F43J508a461l435a480j414b83j404n869a147D647K751k544D86K84g89ej240
45512a245j518a113B001R8b686B21J866a112j451e28j436G79J97b72A872F71J8
45495F89K932P9j017r92F96K497A259a626k017m178L097a369A028K437i52M9B880
45477B581K969B485K302j480A295j47L70M768A690c277R49B102b044C028J870
45462D898B29b325m10k010n43J635P22I81N23F56P7M32c54k483a127A124B12h76
45443b663I31e432k83b289R07B872i80A908d162D90M774A175e6j778j67h19k69
45426a088K09K89G71M163q10j851e34E094a817A1K98O58J514K800N288h97l549
45409d446a040j809m284b336A899n87L208p92c190m062n398M711a550A041k43
45394G98d37A398H3J215L374i13j997I78P87J625q42I24l70e274j117a134j168
45377b302f61b1G13O69a662a02q40n87A967J079D11b686Ia693M04l279j439f08
45358h14b4E935k127I45l80e606a760M81B942J21K967C74b859e77k948A081b837
45340B47N44h4C90K309J622j486a015A771G97d095c49j378A690K188a98k279R5
45323b382C001k45p50c842n96I93a047A535A97a185E48a334k062A03b484e64D33
45305H80R51b897A740J351i11l676a240I21b99D337j905o48J709A681b419q10
45289c229a319q58B452N05g98A393o81L895J945k714R98A961q71i73d16k261J232
45272a445D659A656A58b387j166D90J014N945j729k541N17d73A750O42A9J8i21
45254a027j929R86A282a96j520K30n02c21C214A004J372m38f32jD45M23N126p11
45236E283R04o29j779Q25j111A98d302J255L68a93I55B53e187a143E212A535b89
45218C8L576G33B85L495a121m486l903b979h44l32B177L630k717C62g54j97l4
45201i85F16P236l439k186m93a422j47j73a2A695A98O84a877j623O34H14J077
45184A891J914E37R05P15a496p71g11A029b964B79K45d334D58K241a697A451K834
45167D285J668j955b860c90D752a199k808C5a160j441G83a491c66k833A739E76
45150b690O74k689Q23J036C035c481a253C203K481Q66B663O33d18b07C358A029
45133A742b198B116J792a149m15M71k650j195D111j04j834d69B561K233a598q41
45117b439G48L554j358A151b49B160I02e31B99J267J158g27k202j121d44E879
45100H993l681E97d734a738k254A77a709r43i63l159C772b831r41d24F88d20j056
45083a476j061l209B71a54C612j756c518A756K21C88a706l909K287J64j409C920
45066b916l86B59j09K628L59k57j137a541B726j154g26j013A411L067b646J199
45050a447A021J412j4m6j062L161h8k66A975b38A558c722h22B965g043K528J344
45033c171C291r01H73J370a494G063N8E57N28b36A018J304I31a291G17h81j258
45016b139j93k77n54k010D064a834j499J172a38B945r71Q71L275j820K745l321
45000C724d50j290K69f49k590l2k53A953b908k921J585c59q38j70b37k301F39
44982C156j389g48k245A541L065B83L574L578B673i38G01a060B125a608p44B318
44965G0K473G01J291a401c19C011l05j212l87d332J718m20l809C61Q17c29C676
44947B474a43I8c362B75a113J50B98J485O06c26G11J465d50k17B179k29L98k33
44929B115r53J062l81c83j730k614G29a399A259J513j273M837A600J856o3M45
44913C838C75a172A167K156r45a325l0l670J097A957p07b14A001J560c1C278a064
44895d525G90O74G28B35L969r28A37i17l605b207A827j66K093a605P02p97c48
44877c504a666j284F79K618c426J145l067J732E686k74A909m32C57a856r03B654
44860a658j580i05C405K02c933N90C07K189P81J06j162b390I0Q42b278N85e48
44842b611B44b353I18k83b728a013F9a667j015h15B3b349h00a93k857k702b667
44824d99l443e56l702m96A870c81k391R78k649g90G25d5j485A783b974a430l96
44807a826A121c423j105J495J09a179k832p01a508E156A466J806h03p458J423
44792f838b603l655J890H21J18b352b34H30I8M24L326b637j673K093n86c64k741
44775c105M78A291D2Q1b299k22B169M48O11c070b26A217n22O68b927c89q75B655
44756D833E37b784n36j757K59a557A563Q10C55L049J86f00j006C774D19J915A98
44738b753l446D58J077a283K84j427C306A60b319D932K059A949h50j213A807d676
44721I72O101q92k607M61K267n84k856A286a467A971l83c634B070g594K894A963
44704f76j135c44B316O06L159b103k450m438j315c560J29Q39M6l117a301C06c089
44686d512a654E02j59O089A223O23e56A827R18j7J012h87A596L358M07A675b0
44668D58a939k379A00a31I55D49c795J579B202M130k184G46h57j577k243J154
44652c523a173p6A259Q64K91J296L129e38p64j254J019D833l76j806G89a819j00
44635a919A445N62N7K965k000I31c69A032J048F14f15n180e36m077M70M88Q54
44618b801j820k73B204c86m552j507P94J563j966b281E38b96j965L81j019a24
44601e94q11A212a460B057p16J997d678j197J13K645j31A435c9k236P36m87E29
44583d207B14f16B432b462A64L004O13k86c285J589g40C799L060k613P19A013
44566d833a858k45C571o9j671F36j8k36a760j11r3n5j709C24a237j372C860M18
44548D278A732P48A140a044G20K279h97A86K047K86a35C06a086A006a203A786
44531b525R73K73l994J847j478l593k35A865a025D43a826j271k415a732A51O87
44515H38p3P09C45b63G74d821J334i61A09K060l70J671E34h71F71b519C837p0
44497C767b364B161O454b384n517b391j450A454K337j426r3G17J419p26a842o20
44481b462A389K582j75H78P12f7B689c06A67J054J452K160j187J26B47c371N54
44464b817B543b759k606K176d33o310p86c144J238I68d685P93b80k877a253O04
44448f49l132M82C62K65C3a90A150n19b576p119r8M351C504p64L7H14f185A080
44429c383h83j366A737h91c33k30l206A867P43L611r32K779A319J108N3o19K444
44412D305E19K608j491a133A523L3c186i01A011c489l165J851c58A884d76p08
44396a184A75e100j386a501n83m44D46j17J465H02K713E00j00e356n04b774M40
44379b334D67e78B999o35g50j540A187J108j008b731A29j9Ma605d87C43K297c270
44360b924d70j256C54M17e320J047c20j567i8l289f36j126l951l600c971B73L409
44343C682e50A634J726a586C559M711l448j817p20J988D45A26b74q44j193j021
44327c332A42d202a215A955K466I03d139a888Q56A696J415n30g41j530n0D48O37
44310A085a142A15c030j2i28A358c10k581j502a741j7C92b20C656a334j781H30
44292G5b203O04j104Q3e74k052O69k952b51q8m574J964B977A154M00b9C51J881
44274B232Q18A149G8e065E09O668k894A391c38F61J744M91A315N701j365k793
44258B858c654a753g64j081D710A391b179l6a082G10c24k338F1J84c794j083A239
44240I0a646M44j692F27J266b45C76R72i69l08j84D271j437nJ267j54l92A541
44221i51j951K98A076L202k075j039J087J887h77k561a388N11A963M018k773A578
44204A486Q72H80d698B78M465B340A77e93B548b192k14E854E31K231J086g07N1
44187f56B93a052l63B846A220L194A386J490i34l905b92j697M92C090O05j469
44171B226K584j330q81R58a35D46L457f20j267l140R67b017j698h93C238o8P18
44154C888A081C38J056i49A211J872a130p035h08A516g65B325r65l44L115o98
44138C433f96A019Q71H04R60a442f80r41j932k15a880B753m37p30b712L14o663
44121i061b199B289d38B437D52b932a419E020A652q12a656A063k13b729I66e34
44104a559l121a047C343h63K65A25J258a628G08a430j203A628L664J072b070j519
44088c589a537C78b54k575I69b358H55L036p80a039r07b08l496a125B026R78b882
44070a298k58C762J296h89l703a558M73k553h28A026L361j561H67b708B55K079
44054B334b737C1b267B50L227F18J016h51M11m04A53a912m49P56B023m52g96E127
44035B839c895a440B201d92j764m86a078K01L68A616B58b400m258J070h25A377
44018fo245h25D048A247K681J779a940O1P93C82L860j031J916J894K41i80m98
44001a478A56b085n3N51K42L67a77C584K04a719e24K20q62B898K3n07a20j748
43983a868j515N24J175j300B04M0d342j77D119P52G9J382P72A32L504A426a173
43965C031GK850j306A16a9l313j294j261P47Q1a378j814g33j932I5a233A805J982
43947C787e160J512c83j123j743H54l13p5a007c57q39K49F49J171M04e01B040
43929I5a361M27d53E94h23B238n24L93A98K52J299b61E07e19j957q80L16a463
43910c254P57l15C151f38k07j008l140d20b6C737q22K286a401B151J757J01H93
43892A611C64P81P27f08B469i20A778e309b634A66J699L71e54G31J425P24c06
43874D661p60j227m55M68J789A075a305c86j017m56r66l517L074b48m9n46j141
43857a984K81B844a140k179A708D26A18a798N05k654G57e72m880J940r69B24f34
43839B656J23j297B67j26J921D32R64a565c68G81a209j096k426b203l468b703
43822a996A46L2c50AP55d48j319j596J591D253k111K827r04k91A45a993k071A033
43803b027j821F20R67l18L586j301b096n610J709A447E62K614r04p77M89m00D20
43785b178C908J322j145j170C96i06j694I71L490J214B427%b71A241a294j339
43769b633F45J570h0q04A798n80L010a070l829A603a261A14N71b924j152a047
43752A461b843c96B001A34K66K38k77J188J983b46m411E99J034A79i55j965I26
43734a097A056L471A363E02i14B877i0k252k71A638B44d79j262F27d7l598H39
43716A60a277j748c20m141b075d83M5C034a310j504Ha308p51l567l39K166j461
43699e260b174A956J119c27E8O06e09l307F66J647b987a085B481j14c960j381
43683e341b169j179O20B082K740J610k285C70b653E28a51l10p42l82A982d25j709
43666b134P46j824a401M26j130A27b235A70M23P34M82i78A643A85b495d45A494
43648b823m035a536b35k417B48K106p93d869a968j38j008H03c054A011K512A68
43631a150E408B232J729A255e153P85O47A470J634j341P1M468j453A347K96c110
43614b332B282J244b048C48Q56a329B872a269i2j491k336K09a462k486E86N6L82
43597A024d70j745k08k87J254m108P90b278k635j13A187b525g20G15J385e45j746
43580b291g3A04J181b950a114p09q76F84M784O29j659R56A991k01F47N08J747
43563B902a824q14i39A286J16g1A144a818K22e53a35C819J749M2a060j095C980
43545D964q37b098D0a528C09K416o04r04a148A109k24a457C723c98m306R62E36
43527a409l316b180l130J002J722G67M88J562e489J424j001K088i78C83a907H36
43510C049r97e520j62R6Qb585r54a686k308A085a307K02A16L394r56f53j833o85
43492c171o01a610O5A445c2A468k3L049l57j128A371l7P30b132Q81A808a42k044
43474b186G95a053k89F58b012I57K803c32p42k777a308M1D33b151O79C824l33
43457C491A445a512j715a33C2J735l87N657d2m392D355e85l44A327a655l60h23
43439H64L504p50E10d207h00E93K911j648C47M127j85j609L5O36L2q04A8K1c15
43419I06J924G76K48b084j520e32j250F87L153l44e75K24n62o19A528O21r19m31
43401G99a378L57j954J269K57B410J083c264h43l073d17A249j24E06a659e84F51
43383A63a50B02L17h39c41k12j517k791K322N4j513A230c605J517h84p45D42a33
43364A197J92J065l95p44A22a711j724k407f59k780a709C054A57J17d082j710
43348e792a936g39D81a633o44J094b69m501K047A399K103A158i18A881J360J82
43332C423g77A495g28A401J221A98b253j605N59j060n33J446j384b369e51K31
43316c20A507J83d691j850L176a104r69A867O233l762h2A040a053M30j866k914
43300e403C76d84k61m00B574J681i68l506D09L43O59f061J952B303I45b930a127
43282B808i69A181J260c160l509C242J807b53E68L974A032b479K96j956a254k554
43266c808l17d95l159O33J197a70l051j54a357A222c52B058K510j390r29q6h51
43248f24B202D83c770a759B983i29K53n08A026h38k300k965K455L4P79b80j310
43231a590j871a60k88o25B41c61q0Kj830j920c31j693E51b619L3e48D05K44c040
43211a119B116p14c330a575B453E70a149J15D138A601b09k98H53N402B943K55
43195C198O88g00j984k632h91F531A522b373B308o90c112h62l615P79A4L115K74
43178C403p61M53Q56R67J354b57l933a621n835K738K141H09I8M387J49c02B98
43160c56a6n957P63g89I62M04J702r16J17c162Q43A110g22n302b244D995k300
43143B695K800k452Q00D14J088C84b818L0H04R05o62O68a212l47k316f99m429
43126e128O36N92A274L818a231I50K847A767b083k842m45n43Q00a742q41F21M0
43109F61N766J569C197b171p74B243K220H9c796a490d37A01b756R81e08E619R37
43092F556A815K496A613J754J171c452f38D80b592k120i71k211e75l90k024A7
43075C197M248F55c008R11R30k668C018J958C44M037E95b616A381a308o35K17
43059a726C81K680N26O57j280Q4J419A74c060O22P64h6k895J477A223a20A555
43041a013n65o45A25M908a093k432E5J042mPK275G95a612O34A907J28B0J969k73
43022A716J049p31I6h76j452B902m58a082b76j944I53B66q9a763A433a943B2J577
43004A599D54L139b1I06O26p10C92p9O92J926J977j832h80c9n55J38j301N57r66
42985b166A427N055j789j153a325l238H1a736j668a630L64o79q49i13p72K56A42
42967c379a555I1c545J527f18I26M206G71g95l005a286q49m400j323L204j649
42951f303J916E514B491L133A498L056l73L62i39j912D038J313A148e14D282O04
42935D886j719F90J885c66p184K142J382J954R77p11f59A110K231b266K73A073
42918i08l104r4k379a39l583j78I51R13l65a98j762d87D118A992a778Q9j760N
42900c444a301K73A966K439j772e78@b186P46j118f28C197K151e372j161f90l232
42883c922R90A142M67E92a165q70A231J121c948J447C36b491J086m212Q25E52
42866B499d73k260k116J719A957O52b88l272Q99b90A00K516e23B805e68A181C18
42848A510L762H22K583a105J40D051L75J87a600j737e41j048E015d01B244r62
42832A282b205L21C033F27o5J751p85K83a388C07P1d085l716J205j845c364j722
42815e086r30j734k572M063b06q58J25j854k221b371G49a399E31K982I63a164
42798e534K232b06k373k870J015J812f77j891G44L475E32c957j501a974k32f03
42781E91j85e465n35A114a451k288a286H05J943i72o97A178c002A429J831b728
42764B17J459j38K051h6B529E98h52D0f04k793a034M83j638l587j97A467K687
42747D154j685N09O042j398k717k075d436K030B940B29e26j977O22b11B780c766
42730d86C100m03b919q64B711e2H15oJ731B55b388A051K3L362k217j058J06m79
42712G88b4k548O58j856A00K074J020n53J715I41O67d04B133C93c132I1J816P33
42694B640d576j362f80B366J03O7a26A789R78R07j241r57K474a730h15j309l53
42677b477L07o48a234A579J995d154A775E29K50K382m77J06M319k272a275j460
42661b735B98K132a936B490j32n86O188J637m360A861d491K190l479b680k7j886
42645d593b146k084R52G29P41l34K785j220r13b958j098J607l51b06F33b507b82
42627a041E510A548f14A733h38j08k580h5A582h87B052L004b605a6C986J609J752
42610G347j642B400b93I04m7a63A256m24J303F80a401d0l195k46a729O17p79D93
42591I77a00H8J534d797g06D461k175L483C61J931Q6K980k311m55m32a48A986
42573B06P89b13l17k190B73J122K486L478B873f181K253C22d99A784F91f54p44
42556a398A465P1e49C159E33B54K594q56J223A056B92b906O47f14A069m12J298
42539A955a85k827l17j125a532j789a211n761G20M032g11B50K68K563i54l41L55
42522i40a44B670J004A701B88a23j792B710J019j002i92A63J326a775h79j502
42506b381a008I81h34j22A955h11C333E15c322a470l339J151C84M234l83b659
42489B731b489r31a654j622j48q71O7B123J36b788A775L12L955B741j206p52J9
42472H02L16K566a482B751n28b076k095D258J566A855J710m14A385K33L747H46
42455c350C74a334h2C671J70P79k215J392c574a759I85J569d288J549A62Q67b9
42437A182P79L08P11r31B16a844N18f47l006a544e75j921a112A531b990l911O85
42420f216n4a68B407J170l06N675C079A51c270O43L79B743J518k107Q27J057j402
42403B636e56j762d28p13G98L474A75e83K35A174l17a216C2b244j41A210a870
42385C779j674a307G6L009D39K483I68h20k031F54J274e689B95K693r81o86J269
42368B590O96A426k39M66a077a56C09d2j364j868A682M529j627H44a909D53A43
42350A8a353o09B450A057K554b980MA162N05J979j137J636a001G01O16d039j968
42333f007J649J343j0p29a722O64M71B093M27b790a323h6A480J539a287k94O89
42316h92k631P62m73O26I5a268p44K14L98M54E44J39O15c248d25D44A11a801D460
42296A629f8D61g36C111I34L042b75A144N128B459D25Q06g13B513f4o75n925K305
42278d359A929m94M461A089b3D63Q74a513o51j50n047h54A468a985k46N50E632
42260C542E36ip51C58K697M74c227G35M51f98p43D409m0B015K132k86b29B009
42241C583a186L62j625a004B853f10k576c74k167O25r86h85A589J88a773F63R78
42224A641C91J355R57m22J063m02J534R82B99a087a59C759J509h32l070o71G69
42206B789E10L558A852e225k862K407a452E577e23j808B216A28c566H63J126d53
42189G11M308j635d48j551R80b41F38a525E23J176g57H3b729f62n55l257b43B738
42170A524O77E10N36B27L264j348K548C57P85P05q46b757J250D725a268o66N18
42153a416j4k313J590J95o5j651N51j295d89F004J086A897N0K988E45J7g159k205
42135i364A061M703b50r45o46m285b024K35A030P82K131A284a464Ei68q20j136
42118b924g62n82L82j870d09k59k994Fe1B059P92A131K025e02J62B786F15e446
42099c069D72c704a123E92a527J72j900D44a872k47E250b239n048j331L694C20
42082A112a872B730P16E88a428l927L64k254J128b019A891J994q03g6r79K4A689
42064EL21a490j63j240A531J328A121k56m22P094C610A598K575h91b3F15B90L55
42046F45i35I42Q8R61P67O02g06A010J614G12c996a402l563P05a904k642K216
42029b330P92d37a92A875l55h39m327l35a70j527o56C588D95g98n98B98J697J066
42011C061a340p08A114L93a837l052k831b669B302b098b98k744q30M14a561c25
41994B585L586l02k529J48E07a456c4k970l97a034l58k469Q90a28A593l34M485
41977E744B465b02B06b4j487A558K352h21k483a414k398J363c70j304B483K08
41961B691j275D44M404c826f49B987L09L908c25A103a183n40A78b362B184B6M508
41944D534J233B587J247c363j315a860A631H14f35k996Q59G3K649j177b582q5
41928b667E09K444J418O71A112l19l9Dc185A26J774a443k069l207K963O86a70
41910E151C14b384L72k25i79A24b942j904i76A000h78k491A77Q86J716a55A916
41892d06j434j555a320A010h88A64b125j01C900N788l738B622f26I0d24k342J343
41875a423B379a702B903J489j60j523G20b930k689o53K373B114o97a155l12j310
41859b777k978J579aC23c328M45A73L072j315a762F31M01L179A695m63R0d775
41841B545b318N6P34J09C346K525e08I83R79q90c343b17l00n670A485a9j995j284
41823c298B221l0a184H30J942f82D726H25i56a75k443I3b849M84k964K505M39
41806b385R9l467L99I30k41R6b949N40k234A216M000A66L763m40a148M32B105
41788D001E98N155r15j20J448J173o86p32N55f30p6A652J134l88q46f185A731
41770a156j388C4K530j092e76H64b361c50o50D306j800K462j840A95c196J398
41754a798J62J70D1L69a824l224I04g41j242B105K260k099a977A250K661b620
41737b258l459a845c94l426p36Q44e82H36L519A234e59l546K035D580a533c6k95
41720c31r44L79B058P40e162K507J320k327j974i76C189A60f72C809e50k734A777
41702B460B80J818j014O09E86K926R65A901K540A713a379B312r4G83J04a535J25
41685a410l9L4E07Q02NK377A667L58j77c49j621l236c33om20B154G3J506j2J578
41665C145b93k317q1J7A103J975H03K959A148J108j096L10D69d625O97c01D967
41647D699A775J149f87l833J662L41A047m4a421k787a563A125K372A278K16a291
41630a755A518j64c938J733I69a213n017K436B794A226c079h12A594i1j345A938
41613C738A339b075j58A578E60K197d56j829B523a04j718q09c17A407K093J888
41597E388b981b10l793J363N70q7A80a220I62J307q0m51m52a38m681g87C361N76
41579C937q37B70L846A104A10K264d25k517A4h17m41c26r50r76j506G67l59b988
41560d036l007a828A735f17H38b864l000A240K755D35b35r10N58B952r39a283
41543a22D279F73J244e57n20J35j001K78F91c34B491K922j252m41J50C53b024
41525D326Q17A273c452l862n60c513F77J080b610l4m100a761H49a079j509B898
41508B600N11L385A331e66C368Q6A701K454q90a328C023O28A364J5b450B68Q82
41491A150c07j04C625b150N60A442Rb239o89J80k755b32r05j956E45d689o21a919
41472b329P81l93k191l869K335R62J977r86a136B501A1d87m141J343Q31C874K174
41455F048k58j270J094j591H61K090c113M54C380o92E43J812a776k05h27C094
41438B722a11B270j040a025m19A62O05J154a124D77L127l50F97o2J726i13p98
41421a711j524a303l845b420A382P27K648o04r86b036N82A142d099a218k95K79
41405a234j224H09b422B8O916B57a197a20e9k633F18b469L84m977L368C017K580
41388E597A313J442b536D78P12e270d00k76j172j592A184a717j310B99N239j167
41372D371p8C71a726O87j358n16k34F53j55J297K897r93a45A933a767f81B199
41354C699j738D45b220L13g69j648C023j180Q77b59N2l097C52J330Q1Q08K681
41337E252j108G96e665j413a676B329D6a354C7A4a232j217B745O5L650n39J61
41320F082A817R1b11j789C28a484K87E64k3J948I89e80B18K775A418b97A877a207
41301e988A31o1d424I95a498k97j168J281C343j333q11a739A472L06a042D92K074
41284B566C07j27L094A00b427l81h99j212r42C99J701a770E5L650q11K788A393
41266b925B553j145o61h17j1j179N67L96n14B467A137d3A343f50k596l091H07
41248a323L37C58J178N13a210I97m64c95l674f14F93L994J111d04l810a810c18
41230D09N44B7K77L311l76A017a117E31R07o65G1L645p48b824m29a145k155B973
41211a501q3E738k41j497A282J562a012n185J777C47b099j823a732P36B21J631
41195A852a85B726N57J297M37J90j756j7b070q36j134P65J173A806J893K26E83
41177a648A595M16J142H85e068J023e03m19B355J525M829l69k320k379A709K011
41161C720K137B275E55K401K649K90j184n47j938K945K546A005L587c475L64C115
41144a337k624q40b141i85Qh9j51p08k954f75F42c011G29K711I07j89K729f88
41125a754m263b923J031j484M64a266M64E5h63p95f55o13C070A422B89L982K688
41108F959A246a492A003dj568K88A091a505B68K30j62P48a35B898o32a16A13J51
41090B64K385d719J208D307L173j166k421j249e85j404g70C416L17k4a83C68N056
41073E424k040c243l088j381J573K710B243e09o36j757d60j487p88a61q51k525
41057c537L72R72j292M86P0A5a52B118I59a302l872K496A192n72K190n69K480
41040D721Q93F55L812b20E90L160p95b398r80A339a272p41M92A46d596b03A219
41022B523J153a942C198d6E95L088A473L62p07b216k773a892p53M2C444f10C687
41004C112j307o92m39K819e315a719A702B5J320M05c113j43L09L54J073b36o954
40987g190R07P47J864j320l90J168a414B155K873J703k620e19l907B646J556j240
40971B962A449L46e076o37M10A940A66L41M946A227c69m98B070L80k71J198m96
40954B881m77a19l348A66a497j394a162p8C747a325k155P08p52R07j62A282c807
40936h73A868J73m59aC505B10b376J20b89F48a872n14j249B243e33D82b623k15
40918b838B556c40B138a777j431k262H78K161q60j042e926l283L848A449J578
40903C027b573p11L67j81D98b260k66n87C51J108l56n05h42A472a493j532J289
40886a736k505J309C674K540l073J542a100j411F29b727l7g63im45D148C17K259
40869B576R21D21J171d266O07C819j708J877E17c459a031j029C397J104A713b201
40852a66l77l72C85L012J230A384e71K11B150A044J378l98C31J051E82a2m714
40835d726q31b312A784J128b945a419j927J531a10j835l16j215k540a010o27m041
40819e678J909a448H79C71J551k65f99j784a079k971Q43k439a337k76A2M76M20
40802I08P28d911C58a208e10j048P22P9A804J633A208L127j500j233B66a968j029
40785b997k56C99N530B224d38b7B146b043r31C964d220F53N342b161A212L964
40769E176p69F74k91e45k087N69q35L4j863K155m68k200L56J156G64L274n01m10
40751C127A49c447d12B871c547o8J613g75l56o836J744j763c658a459q44m71j479
40734d253b20j21J70B015c669o787c927A820a140I16N8d782k574b392G3c478R55
40717b523p80A561O80i93k326l790L097f74A843a053n43d05C68d3l430B13K135
40700B348j130g69k077d43F01i62m79m190d18A858g93A49J330K127a824l445m35
40683e704a999C095J496a484n26I35K019A249b230j830C323J692B498L26J289
40668D113N10d8k080j843N41k049K431M16j353m780a726e04j563K22j383a590
40651B113o99b382j800Q53A127k02J045J932q15m02O85E59J592q10K164j503b1
40633b816J210B287d842n723L276b595R08r44M93P36MM00A835d4A185M32J560
40616C177A575e613a536I46c40n535k05G82h92B093J16a510m74Q27d60j345A190
40598a329A770O98f50j262l673K726R17J40j662f88D674H89g92j254I19J056R91
40581B966A6d275r32J932l803G3f9j91C112b085f74r24B164O82N8m41m55g81m306
40562e087j677J962K189F18e801N53J471m78A496N47e714b723n7j586D62b188
40545b133K30l73K77l46p63P46f42B47a447D5c919a783N60A136M918i81o5k440
40527c486m7k41G82J16a147j016q96A057P849k145a391D139j869l09a250D086
40510A425a615K46j545a315j024m821K570a335k29b66j196C756A36c611e00j046
40494a546B168A95N50f54j780C038j195N34J383j23J989j079f14m63j221A451
40477h58b94k046c97l408q04J651B306J113a391A219K240j51A301m22j86B31e3
40459a435d34C08f06p67p73i10E31K849n56q87K76J230c719A275K095r8b631Q50
40441a781A34K19a702l397K60j346J939Q87m4B13J933a588B167L871k847E15O05
40424A120K591A845f49B561q56j5a394k428h25d6l340J189l517g86B526N013C376
40406F798n18F03N166H6K755H40f77E66K436r63F92M225k354h10k905j69a193
40388b99A962G96C10R49B13J409l62b295l58m283K526F26J464i94l103O41D74
40370E227e97j792B59c088A094L903B286p50J846j183k62a39m922b367e57l326
40354c883p31B467c220L81A631p94i62B6i98H70M653L60L49N38N90B646j83c04
40335a987j521b64j473P59A007j94B66J941g26o94l75Q91A262c167a236N99q30
40318a467k672A136L854g59l203c07j701A028J029Q91A077a388G12L592E71b154
40301e263j321a331C427J537D82j97c474c93j402A969J181a938H54J089a065n45
40285a610G49f263j842I23J671I36e76l413j143a867C972j241J28J01i01A004
40268C991A330D63j19d42l839a998C360G45k54a164C921N70l10j78A488E96b621
40250fB648a60A164M51A17Q55M134J775j926j105A548c67k546J341M06k167L90
40233b943A593a135j312j943h97A976P50j330L979j3k503d013q12D660A959J731
40217C690g41k845j470K498k571E93J839D99O71b736J4e80B362k72O80F69a135
40199b607k07N33C590o75b3p30H73b925a147A767g8o12L18B758a270L0A462J531
40181B993Q38A583g76D37b32C269A055j30j55O33b522j853B107L171k45h21A573
40163C599j344a784B135J334g89K4j972a39A192h61k479A068A89J012K895j611
40147B485L82F30K938C73a289o625k826N022b362k99F95N794B942A346P03c978
40130c009B372M00m18J100A032J880J664e17J2A790d77n262K250e93I78c66j90
40113e56B359M542d61j607A781L697B251Q21K392A61K446j167J066j057e836R57
40097d879A790P84b725e27c3o122b286H33b238B129r16b920J444n483c267O66
40081b601a44B042L21B38B4b557l588h9D01b776D68M716k256d729J466A554G51
40063E095B174k09g58J49K02A528K020L747J487C213G68J335L465k415D23d265
40046c552k133a757I23K996A670A22K510A123a334q89B966f51j089H72Oc483Q72
40029b611e3K0m526f47A681R1A40M14e81n134d64D67a639q56j007P2a311e47m3
40010e90j830D95J86K0Ka765C82M254M9k080B63J159n42a782e55B407L68q12J05
39991B068J345j534J454g88a06B256d05R0l153C786c71k259A480e97l382a422
39974b185c47k731k707P16J775R60n3R46l446a416Kk873J044C602j731J839A140
39956H86D05d028m37m41a410M86n56q30a13F41e898K378J40b67D615l74A143c499
39937H55c416k86h28n57j751j068a163A91c919B600M042j806c804l496a871L00
39921a571k570J55a524j417j43o18B65L337Q10j695l98r90a639p72A92K094B33
39903b817a255j394A983G65i05B015J667i80j264A490b731l3A268j73E32M258
39887D790G27a800M77A586N6N56F37k21l1b649l366A044J811a637C890K98A903
39869B861A239b948A635k69b701L03r40J236K49C043K552F21b572h47C32a461
39852A828A75J664J725A177b361A20a228B874O98A076M714k325j695Q30M792q80
39836F512B984j026k68K726b425a041D654E42J410J211l32I54L626J40k130J46
39820B736p12a677E633g86k184i38B41O822l268G43B30g1A035k29J56a497j106
39803b603A226c218r21b052D76N63L577o94A778d40G74f48g4l441A156a294k36
39786a530c79A179J424a19A536J390p00A04a637o43h5j967D690b008m9O00K49
39769a208k198e89A429b046j21O21k336P86A911a930g28B387k28L127j678b65
39752d12A969l11b755J06D23K147a907M89C82a667J36A412Q29g80l426J181b49
39734H88g7B385N489B766A349L972k642O22a745k125B3K834f78o0j167j653b19
39716H52a411p76c66p82C487j095E36h25H83c035E07L079d791B54J930n51a769
39698a046k138N99A53J016r5a896H41K01L279G91K151b19I99C90e18C124K057
39681E181r3a96C894A360J433j91A92O35a509B232a09k120D871j875F44K098a015
39663e56K23j72k278j113C175I05h85k213g23J46k143A818J508R11j221Q78Q26
39646D720b013j83A11e388J892A041L71qf76A603a910j171n91M37R03J103rj068
39628b306C705a80E2J693J107q58R59a122D97a148l389b82B656P56A393a010l587
39611d597Q79k99j545J878I34K012n22K676L532k254k813H6K366a228j279m04
39595b911A642J39a200D308A440o20j33R18J746A318a411E42K185c352i70A376
39578F28J816a352k68m30F14J445b095f37A530E73g60G72a080I84J719q69e33
39560c798C953l74b64n216m47K250C278C36a787b23A836A49Q76D36f7B526d882
39542I41R14m47d46k63J20A551J532k40q24F87K656K037b357A52R24A72O034j724
39524D482J559j217B024K6b878L0F06e39l197o03B898M324k872p71J30J350j605
39507C454j004J678B27Q29c63B183a23m598J059j0d65H8d593j124f5C233C06J928
39489B234B4J927K828l83F04K215I00K21M167m15F61d640E01J423J201r77k31
39472A917c336A671K647j064J498L44m96k122a012l52k71j623Q04Q91A274M37
39456A711J366n03I87J272O78N87j745o27C86O028A183c14A228f42C579q22j120
39439A637b850i86A9O672A900N3K112B9J205a816l802B512L336A374M813j53k74
39422E760OB208a91F23a84p32m25q25a86B649D59c285I9K042l07G03M979r3B117
39402F550M17p57I35K84J404D63K435j97G7a032q83A241b002p92A660J540K183
39385E383m96j087p78J946j717m7J171j076n56K25I82K725j5J784k489d199H38
39367B650J06a309A50K582J608H48D15J582L300J539j999k78P34L085D080C48
39350E6P49L87L083M212A577M15L533j898l94a449E705B315q07K14E52c19B077
39332B916I91b282j874B324K098A693J470K769j874J590j973m66a323j352B583
39316E790r48k57L171K709E064K678B855E82O339C168L092k083j369P05R84j874
39300B623O54L187k421A295M163L138D086MA369a985C155J484a076E942J103j189
39284E856j103L487l46B866L009K20K961l102B282Q022q52B076K2g32B014J991
39268D005A806L347o21k61K246k810J107K205N458o159K017k39k844J52L12L495
39252I211k583q28B636i27B263M647j504J860k179j770J505M90M07J865B516G11
39235A801e90C005R83L328o91l310q37M755N268l722N051k14l104m908M564j003
39219I165l091K196J74l491k184N796k917k76Q59N211n709K636r98k022K454j298
39203F505L391l984L541K860k556j670L428j163D431L271J002k622P257j696k092
39188I551K644j9k267D912k193k85K339J434L746q58P52K466l325K167K89k273
39172I171M04N34l55N01J908j378l61k642k473J925L739l263J797M325l738J116
39156A1210N965m623j275J333m685J527K879J305j420j959L726J939n886M96K617
39141A3149l273p90K207J427k579L111K505G545J293M447J722l295k204N61K369
39126A2438L985k385o71l749j726M066K833L536j522k691m983K654N515Q2J558
39111A8940k230m37P63j426J822m817N172k4m534M216j261k571J671N231j625
39096A8890j874K011M6n782j861L914M54n088K946k9M614p829j156O702J659j287
39080A6330j394N71K197J4o331K910M950j738j263K207l268L42l215M330N295
39065B1937r86o010K119M199q39J290j792m439L278K659j448l107p30L265j949
39050A7447k274J510L178m474j30J928L388L657l296j171l265J95j040M67L284
39035A9404M58J801J427l423p69K953n59j301J714J310N8L27j446K778J55k964
39019B1923m918K835p07K77L619l399K045q2L019l69j505r71l596L954J987m31
39003B3681l493k294N21Q565j647k264l402m770L590r10J724J86J071P94K327
38988B3679k062k351P72J628L071J78l129o59K072j485L778m468l871K114J747
38973B1014J301j188K105R97k196k90R88j700K497n53L89o89m03l302J104L557
38957B3631R59L94J143m249K309L009l524k351Q68m512J512M736Q4n98j424J439
38941B3426l636j32m422K913L330L042j425n88l153Q48o18k444N622l881j506
38926A7376j239O08L801r85J969j388L460p43J921l874m245j430K871L313o206
38911A5209K440p84L525J324m284k19M962k703M317j13p496p20m73L297P49m662
38895A4369J458K920L070n15k755J378l029J581L88O06o87K254l10l982r27k809
38879A3010M557n72L362J860J831j0192j492K860k4N26N07M705o28k341J565M117
38863B3651n855k48k477q34K507P504p566l730K456q8n67k678J213L750K577m435
38847A5180k131M60l039K504J898l70K439p41l317K187k257m265K284O548K473
38832A9853l307k111l989j325J57J806J323L179J922o623K8M961m336J00j833
38817I805M799j131P59J049O46m732K185L08l019L634m048J051K792q27j198K587
38801A4660j008k272k868L756N55J393n001L979k439P54K473E536N100J685N56
38786A2877K7n993r03L719k038J544k045J167n00J003K62L619J384m391M521j629
38770A2624P29l102M72K413k509Q39K333k579k326j2k46J687N82l403N5K427L517
38753A3501K234n360O66n56k251j502L939N45k563j214B756M883p34j556K241
38738G590j070M89K121J214J058J261n905L473M997o310K197J190l802r02n4q53
38722F694q36j3j413L155l638L04N516K166L5k177k850J274j29k405K519j826
38706F376j601K333K514J597O32m833p91L091M304k638D453J718J260O23q70k129
38690E055O64B125K505K195k759j687I60L529Q21J842J448Q69j852K61J710B269
38673H48J658J500K117b508j973d23D253L926C154j536K094N28K648C373m51r9
38657B823I18J259m26L221L131k020O14k402l37P217A084R84K390m98p11O36M686
38640H571K650E549a120D91L570J468l64K296j413A782c06A769J222L798q05j734
38624D250a76C009e04G952K129j603j313j296j436I12P446q71Q88k984A004L33
38608A337B82c054B607K581M47B770J090M639m032j005K430k226D60L153L116
38593F729j903O63k64j605J678k254J929Q25B684M368k387A864J395I67J95N429
38577F591q73k70j017k07k15L259k345k257A194L31n74B5K725M42n14G04ra733
38558A712P14K38J048J195p73o91j112J621M143M169m658j959c05j08A486D60
38541B814L031k777b35A141R80a131k154F35N081B555a807K63j896J574k035f03
38524C816A718n32J206c32j284O87A532a969R38F09L307k29i89C200M010k451
38508D759K238Q9C090a19E291A627d2D089A673e7k123j808A946J619B83b213F98
38490C802d29F62K771A273J436J587a362C282F11J897k00K486j836j077O46A16
38473B192L1H49K30K693J640J829l039A470Q56J937L028A604l80K743O33N03j918
38456C185e10j356Q04j010A12a074L08j26k187J325b68C052J46L96D58a901e67
38438a330B053M219p92A745K397j987p3r26K509p32J664a646a06n39A437a477
38421b256j995J233B072O6N99d31C079A423k93L887q41J078K871B439J783A713
38404B244a660A340d96A651d77p64r2D741K589B029r32O791C521a619D01Q96O267
38387G564l266f03C69N795R61F18b776a250D351K801h01A711q20J52k10A06c566
38369C322j538b245C927J433j20j079G78K181q26c23k432f01C036L602j138J642
38353G142k732D51d19D727J155D57J977G17K563I0K581G5b48F86M653B032k70
38336A762m25A77R02b089p02k118C72M232k121H95b316k514N22E032i46l302h83
38318d31F414A108a162m39G96d44A551J031j01K167J298A465e67A469a46j716
38302a862o56k329A140J743b022D311p37a431A196J502C98m8K378B25a82j237
38286a419C64M097J824B771b358g9p26D333j015I8P02J989O65n46N34a249j548
38269b797C626e85A528M040n2A367c765j872e67F218G82h04L60k422D26L738e0
38251A167A12N35b085f24A472p14e197J959j051J187E17a183a90B612n14q75b418
38233d206C51J366L698E74b765e70D964B8c054k198E47d42k886J114O13F66b4
38215A326L702H11b298J049l790J667B56R13c138H53J661c92q3k548a40k002k784
38198d926J017A053b552E88N362g79A005h8B482J83c826j306f4E23a849j42A226
38180b736P59f76m04m964b130A921J231K392O90j731J561P77k690j013a603j309
38164b912F204B603c869A390F24M288A250B16a240A456E35J312O94i93M19B451
38147A378j28l66J810O39p41H93K621c85B480j224a709M13n159J430a541d72n472
38130e944a991A167c30l565J598k063a8C431M29a970q55B50N221B543j41j13c603
38112c990a978D137j788H1J758a71l054a166j005j849j39j044J984J072Q91B375
38095A100c062a92C359m19d608D31L049H71J389c852g5k491H34K100J520Q37R58
38078F249B248j96p11E74M779j07E83e51n10j180L37F04a65j601B773a735q9A839
38059g7k022c65j788R30p69a97C345K428f6j544j211A826K96b01l314j542D98
38041H93O00P4L271I30b978a280E69K03N122A900F26k90e662l95J158K358m261
38024f802l63A85J534E84b023k023P22a243B145K264F04B40M272G97K530A494
38007IL799A721J107m45F50K524J298b820N09n18a093m007a088C597f77A76N811
37990E987J396A821Q10b530F63J98a618l266a250A154j14K872j021A353b131j440
37974c571O50M22E40P65m11P06b92m569l93a527A82k2i08j806g22j605R05E96
37955C721R67E31J66L97D0c769B584j126A38b99n05d9H246B491b033d91A407L7
37937A444h98C488A178J813J806j886A253l68O88P35b734f41A918J063L59A316
37920c014A099L220a292A989J177A361J914d787J768a331l00j191l97J259F253
37904A121b572C894A821Q56A295a16l943G23K13k67l22R49A60a602R1B595K327
37887D922j537J552A874r33h88j419A524e3j54k585A748c3B668E4K28K706G86
37869A342g2j765p27C619G78K046a555C048K87a924Q11C260f91A18K883E8g87
37851e62B607C87a287J49B328j016J49M019i57L98A522k16K524L05j690f816c207
37833d711c38C923A864H53b918I80b696n87H57L868A013e405J237F07J865J790
37817D262A963a660A120L861K831l428j277G37d267b125E10a045n334j747b211
37801b285b41C922p09b130k370K064M83H40L293A977L693B24e569k694d035B037
37784F14L169k62R10A420A96K117q81b850b42k991h81j222p69K17J300k16k081
37767c652c81l174k265K264a687l790K167f77j89K16b67k386e89m109E85a958
37750d214F214a248j92E65a413N45C14R75f63q85I74c387A986J209A350D39b366
37732B954C99c938e06A506a914C335a528G68A15b260B16a766B065a775j058J19
37716b714i28A006d663j2a917H82c527K19a362l309k04N26b000D42K315j021L72
37699B108B28L247K381j33a687p65d8A251a114j370r84r6H40C58c047j095B407
37681A453o10J562J104g6n254Q47a536N93P2k662a661l72j112l05B658a742A48
37663A944a92E07f185b588n66h63r39j012J391j336m266Q92Q70C39a00n816K174
37646c742A908A27c371J313B163r70a021E17k11Q82a37j031n69j558C640j224
37630B416a030I35a183b09k043B077b621B240M205F38b587D86b314r59J17a373
37613A880J01d65D28K216I78c890J671B471J296j113b278A230c299j61K3B19J934
37596B153J148E48K046A051E7c84C45R26J700A282a480B846A306a16A516O65J749
37579C930n81b085G27M55e70K47j313i6A945b184n27k07j21R31B087P80A379Q21
37561B200L07b577A562J881G49c0r3A772E15c646j761J560a209k625k400b030
37544b74A1J772J172B61b22n991j845K576a566k032o96J624K93j503m37a497l68
37527a865i0j476B918M910L945B147e061a083A02O387j376A587b849h46K93C348
37510D196A81N03J251e5p02A799c113n60d58j376k919j645a853h04m60A247e678
37492f165J146l24j996N5K859j030a06j955j579a112l842A533b68k794j365h4
37475g35j571B146n35K719j274A512b430b17L6C96J365J454M09a390c83F06b106
37457i95C767j131a029l794a786n5n879J427K188A933c037m94l07a697B065B66
37440a1A654g6A1i44l047A584M26m31K029J068c622D74d373k60B72K107L385j672
37422D092A699n14h2o77I86B97L440C33i92a09B716Q99B53d594R95J778c35o92
37404a027Q0j566B691j199d293a240H54b740k6R73q94a25k152A498e07l934a750
37386B083K98b93k036A9L628a509p21A859a06j47k375A255a838n186b540J36a99
37368a656j185O65k030J839l8A748G24a079j74b34E41N38j12K85J695B34L0a866
37349h58B884A22b817p31k258b205A239C58J140c22D3J941E57K952c088k05J86
37332c107i28l092a260J77L1B991a936j097o83B705K047d61C17J570a609l276
37316d885J600F1J829J034b051e97j629A037K705j661c229N72a140j360l130a426
37299a688A52K244g96j305k596E55e054K359C06K574R62C05J071e305n035L485
37283f855b865B737J949k42h0k494A380m72b036k532h98D774k226b387D019l06
37267C713j386j136B03J814J71q87c793a596j18G96b424f17j911h92B273J236
37251C509D8g09B002K382P18b25D738j020o80j06K613J339j252h05j730A384J318
37234B702B21J037K92J455j384b113A779J742A588a736Q27C30a696K61k260e99
37217H45M43N51a280A374bB850J119G66J222L117j094A241c808n07j373j218p17
37200g623L482c78n20F52J122q50b076c2H64K986k86K236B035a978m645c285q85
37183d170q15b326J092E90L915K941A348J399j066p22c516O64k397J370k486Q45
37167e520l31J493J704j058l341J846A632b883n968L870K101r6k341K161A027
37151b751e55H42k13a723k944K209A571b507B56g46D442A154O25K230J559c56
37134a276a54q05K18G75b30l481A815k75J102a915j178n0A113a195a73B40g128
37116g692b021i1B434R74k36f45m977b754b80B549H17g530L736R15j064k293L069
37099c167M9l381a963I20A22c177J441k212M02J262A93J70A19c484F98M91f45
37081C435m40K497G47c928j645a700A274m23R73a571q89J94M58j985a256B267
37064c59A889K427B147c27j54h3k148b33k88m140O45a549m15k768o01A291m01
37047H90a408j006j504J360q13c87E425J018B189l06a70j454k432j951B058J923
37031C981b145K99i03A88b327h06j160l090k17J65c89k765C23M54d18j460l61
37014b239C27b196i18k410p63P68A776J92a391j304J083A909K749K369a396m506
36998e902a154l470J767A174a568j885k181b308m462b947B541d024P32n01C69
36982b475k514d78j382e76C543P0j360P46B53a903n136J957J629a105F39a487
36965f80A659M177j379A321b789K10D35b167n85P99n65L56b89k458L64l5l968
36948f386K431B809n76a042m5C34h64j837A044a72B203p98o79L537L181L390N41
36931A1375J574k551B791j335J52F96bl369P2L90j227J240A533M150j961L285
36915G007k301J982B668j6M273B075m70a105A71J329c296l119q77n85b137j144
36899c281b8j226A394a367l511b334e11E586K259l15l375H38a905F22M312j840
36883C094n27G61b081e7B541B94K37J27O73J69d976h97D98c534L51P46O55k29
36865b011M22D119N39j184A520a329r79a10F72a519a57l768p01B7b39B5d49D50
36846I15a991g64p68j900K17O23k005j048J604J523A068J68f31C297O53d780a54
36828A959g58b82A121a427E64L146A362F24k94N503B053O14D19e818K583A294
36811A40a249q80m173K402F85j74b143o06C142A76e654b826r69k168G62L68J739
36794B869G50O79O2g515j848L585R11g41K64n480b389QB82P24A09J934J367A00
36775e78o29A637J431A335d46j122a20A663a357A142A85d262j728b756g17q58
36759a575a74A620L125p11j265F12N135J176C110q94M57P8J248c520L68D125J72
36742D297K045k960H4P10d455K059f12A940g4j754A714a579a73m087g74l893J190
36725c477B488bC449M81A293a836J48L64C340a480C63F7d72B577f200m984M283
36708f901K913n54j786c110e37e2j06H09C32a641F63d443B81h02k263r48N17B366
36689e22C3L892c451m46o29J44a964A684D34c722J447k165O24a085j11p9b46k228
36671b474k401k549L550O1p19a756IK28c727J862m82k613J460J10L5J556A551
36653a105A701G67K13G1K59b486f68B247f38n173B009L804A743p11g262c539J654
36636a885K83j482B0d368J09J074l675M72R48J943g77j517j537G25O88b280m12
36619b692f33J1B046a478o46j643Q59B371q90J723A495J918q31A288a031J97n06
36602a340L05C245c845j644J841Q06C61K669F49K053K08b091G58a223k033e50
36585B043M789A336a636q44l047o51D023L75a177B010H83q2B52M476D8c208B640
36567C631E34a228n63Q43m73I07J837a034C150L14L41R88i30k454a173A488a039
36549g41j115k236o19J412o29R42d33E78a570N9H778K210C619F30J031R05A41
36531B469O646C630L60F24a260j613M24B097A008O64B63J777B3J674N326j758
36515E265A852J067j232l34N25h81p07r82M25R87n48c92A633p67J338M895C337
36497H78A14e224N03J015d76A901e97F7a607A131c566A938K236r38m84a850K86
36480a564j635A004a590r6k784g50j664B678K173k85I43b086B709k57m12g19E68
36462A956m50e133J130d60F76L424A662c289J280B41K568c110J349M57j187C397
36445G52j02a31l507J626B203P33L165j617A535L262G82a325f2p3A983P94I23
36427D511a67j642B658i19l200k714a428j936a652D8g29k79j350kk471J773Q68
36410b190g55B370J527A520a239l126A27K466G39K450j241L708B487b442K14j212
36394c440B11e437b079a8k503j579B18J854A031O07J996J131a634J70f88B376
36377A131a810k045g44p102J721b085e50l992k73C05E6R04a371H53d02D103f9
36359a681B002e636k18n05K465e89k768O37H48l38b588J162k352A141M611B609
36342a018p94k284a023j246k80B128j04c267d50B641A109C95L059L67a642k14
36326a856k362D22g09j262A347J260m53l92g96k535A739c589k834c142d2j613
36310a655m424i81k920f29o90o66r37M3j170j456a932l144J815e78o0A295a597
36292a829N49B24K24K829j77e11B192b509J096m406g43A080a454B93J140b115
36275a327C542e83A044K037L939j817a23o377a510E14b444B136e31B674D67a879
36258c70B844H45f0B866K304M189b885j296Q45r30F27c326g62j574o74j577j995
36241f582A366D7b915j079a22A460K20l09i72G84J690J311f69G42A79c122R33
36224b189l115b328c96n424k7i71l530J475C481j127i76c06r49N20A197K351A058
36206c435B059I80M95e53H24J569a529B881b200k218J956j200a791G94K522J448
36190D764a4k837l96j030a055b18A448c054k264a604A241K83b855J417A558d27
36173c4j656A84J286N78k61b63B165L787A725m92J011L866k196j820M8g40k818
36156c558j279I80N39K962b236m988j205c749J253k44j56R31N36G76O70a055l172
36139d227J784l166l266L515h75c67B132N91c941g92I9J350a255l8j7l465K292
36122b483a008m19B171b828i19A057a693A107A75a151A905d40A232p3A06K076
36106B182n09d798a58m697l922A362b982m343L649h06m455c09j552k54j352a71
36089C164L12j366m00h32j9H12b899M29L08m0k295a421k477a584A361k52k91n9
36071G59L451A525K613A634A3a745K26G69a636a20l610P92D39A14b288l362K640
36054c010i77J02D051C04M2a762o33f61k366N4M03E38a967Q05B825I85l52M332
36036D965N96a358K36K02k916H1k7a937j624m713k373M855j917K73c302p96m02
36019d500n23K329i84k696k138J07b289H8J996b478n283a047J72m98h5k165J082
36002a168n10a43k459j794h40A66a143p42k131l996J634b570e07j802j975J729
35986b555q29K44J509j650j362J60A040b09k945G75h3k094q66a363A130a786G16
35968A515Q10j81Q74c53m768K537K46c3C044j042o37B63c394A448J535K023A078
35950A716R14c67r17l253A698M92A05C5P003q18b732L19F02J097a04n48k346f81
35931B15J379b014o5p38a405J81k482p68b204k578j548a812j281l19a618E474
35914b726B43a97j151J91B536K050I15c197m24g53A396K419A211a85j006C97c122
35896d256J947J036c72j41o78D48J287Q44E88J921m41a165R0B051L004L082B289
35878c60A017j88f58j636M40g61j07j563m305b169a000Q6l291l35A427b946k96
35861c242k50J175j569A701a825m87A048b441m534a12H63l00J468D35J166k56
35845A345K814A503b030l264A042h50j609J175B00L421m55q35l25J24i54j187
35829b141k490J874k74j819h68m642O65g57o15C003n59n68b329Q80D65O2k4K662
35811C165K155G52K243C53g30F10L548A047a208e21m956a989e69j746n234d4B639
35793e19B221d921a589n76C20e490i98q79k145A474a595a54l423l469j147c542
35776c790a304J18D589A411J218j03g03j709N1R02j962e02A859K95E09b332q32
35759c164A268b615H86M290A926J146k80E24B05e12C3a319A55c17C718A524d528
35741b875g42B49a646l495a176F74J134e5m302c45j303B017b951M60j471k283
35725f245c023a034B102h29j016E89G3d609j493N30J822e47J52B25J977c141A824
35707A728B71c0o294j124F4M122A404A55g057J039h53A228J40K916Q66j971i79
35689c174f43j778n15k613Q34Q20O99J051l457K425i03k882A546G8c278d09j934
35672b343L75A728N159l200b42J17A888C35K115M709j666A012h66F27c49k758
35656c107O33J23A189n52c87A883a403H24N4d872j798b055m163b211e60K25E68
35638g01j322r73C008j221J239e334M2a366l549j288b455j033k08J147n71J450
35622a670m42R80B891L36K347K604H45g92J75l47A54N06e551G39J563A058O72
35605A730L4A92c645k436a456j683a31l78o510R81J239a862E17K693a533k06J37
35588a602B633A255K81b962e14F75a090D167j914J63J017j291p26i64a69k009
35572b178O67p43A913p70b285J69j396k013l214O66L468D743q29i62J09k560k5
35555c438a69q33B034G1b980J050h76E88c45l988b92p71C2a051j507k007J768
35538b797p14a548A317a631H98c300k594K155C45M549B35L006J125G81J529F3
35521e57p36B182K73m27J799j415f44B56J899o28a492D027N2J163o47J587A006
35503A486M00c025C938I25a604l005K96B379I25a012j808A693J41Ii09h4A250
35485a262C900R20f93c04C581o14A391b934M96j584P34j328B395J995A99i76C28
35467b317e31A446a249j75F13L142r53j180J720Q46j409A14c431A30N64l0J151
35450A815J543D95a290d88B951j400C87L320m31J927k585L3j055a541D610j823
35434B787d560j68J611I73J914f56k091i22j625l943a611l398a043B384K231R84
35418E599k129c44k814d17G07a022B066M490k552K823O00k164B331b85E8L117
35402C175l19J830a708k480a359RH85J773K30a80C746k37A4J393c68D987A921
35384A4b67k154J208B531F00b168j323a167C88d599j745b81A746d353B25g69D20
35366B065o77a184l89c54r62k182a467k35B143O69j136a319J31d24k039I4g5A458
35347a227A297d594j049a828B418I46e098K540j604j964L61b343j218l920a712
35331G88a652B443n68g7k890m21c05A546a784p422K435b759q05f85k383g93D40
35313c55j594j353a580k307D6A7J658L95q39a60j99E88g24l773fC578C13d36j21
35294e57B739M140m25m72F69J22a314o339d01A15J26c171p12J917O63A253a234
35276C85J058E79i36c58B185K576H23a821B106N25q92a734h53C202f86K31E721
35258B496L230j830b617j083J362A087L301A757b464A400A14d18m14O2A16c128
35241a189j854r61d99j50j320C093G74e64C180A257L189M1a388A338J155d344
35224e046K432f33m270J119Q73k64M63o48J545M61I79a324k277G22b563k413J444
35207c532c13m62A222R89k07E38h25l867J451J14a458A439J535P38d000d47k441
35190b888a034C216A450N12J292G72a55l436a516B194R51c927J208j252J415J130
35174a426G42K941c977i39G96a510p26H35d020k93A421K516A816b019I26L170
35158D096P80F20c147j30k167b138L89Q46m98D965K319B367n11b501j262j403
35142e166K184g30D485A803e271b426a14E970G95c05C585G25N58O72d589F28d97
35124A691K668a58o17l179F4Q14L276b315O49F36B69O73O83L520B106D95L129
35107C624d224j609b119M48g87k034E47b561l796J733J741i84C011C47c349f67
35090b290k460A835o53d712A909b14B921A063b534i60H48O249C434j651N3b290
35073h97c74k999J662j281O94F3K837R68b498m328i78n849J945a072I27a117p357
35056h474P32c813A55R65c67l647N76B20a750k108B070n69a900k570K05B437N22
35039B959c690F81b21k000k664h40L67l908J711O82d82k733i58A00b188k239h25
35021a835k068a656D03b856a259C338C19b880C672n19A49Q61c68A413d709P31
35005c978a961A060K464a005k259J062k859A170N128f73j260j546k167J564J235
34990b847A042J182D83d003L88J266R95a66B45J270d327a055A81d38G17K331n17
34973B531d183a344A581f43k819A115f16j845A761n72d91a63C294K53m57e628
34956d571j180A035N00d091J728q91j544j450c083l58k616k59J668J13J158h2
34939I71b71A115c963K36A058L38b000A480F83d471o08b61m996J518q93k457J089
34922f000b909f51m780a69J9j457O03k220J355A205K772G00a405A64f287K224
34906d063J363j140a866c49j846e15G9c162j452K001j685q4G65b7j737d84I27
34888A131K48d607J914P29l627J779r9o04l524K66c013I50M26a317l242b252q16
34871c068A570c082a416C8c090C276A93K148I06c488k024a103D56g51A83B8h88
34853a509F9c983a097A579N24a777k054L31p647b749R8j302J08J762B904L070
34837E974B156a235r7j280f32j158n066c357i87L96B244A022C4Q74K522A490L8
34820A528K114a201ek843q26b92B22b811l509C842E09J446d041A209c537J354
34804b183l21j267A600J32J381c289k63J691o91r54J98k283K061J262I05N14J491
34787B910c676a805k839Q22a680b01B94b601O50k279N80J210C865f60l816Q44
34771c632l465gr69j745k53a243l61k5A369E46a542m35E60b348j206i32p42p87
34753b461GJ005K374J234j285a650K06l656M27D210a967j164J119j675B564P93
34737C357I38O38M023k266o93b123j477B167N0J8L882d59A95a494k087a344f39
34719b3m157b011h64K70I62K090P65j466b115r40a210B005A65c090j994j365L110
34702c339A165b467l96K32J136j657a481b01j06m06A162c037j282b94k404F78
34685A63f13k626C339N04a588q47k267P61a48D87B33a703l9Q61j215a001D8a310
34666b617L98l927k145c137l17a595A142J399K544H05J423a89A495a144l547j186
34650e877b428J013k051b85j22A293b011i46A3a89A322Q95h38l685j380b254k530
34633d784N12A54O75a2m298a965A341F66p6c463j062b080j590R72K21j99e60k41
34615h01K51p85B269G61g29H47K209F56b174n41g83j055k311J703k314K290k991
34598e461B041J088I09b823B507j045O32G55a452a70o36A41K231K020f27A171
34581D752k330l06D47j82N404D79K484j118m2C80b47l443J667k400a124B298a917
34563A409B22d071a871j413Q70m67a395b19I18k42a602b39m083q54J023J212J387
34546a554B242g8B195I94e3A626b094A599K000R72R04e50B073D26M348j837H28
34528A623E20h32I25L806A708A78J350J377h35j713o2l91J275k037M44c47B156
34510B9a334A457m62c507j650B41d441j636L029M34n46I7d560H10a211m195J836
34493c570J494c95a02D204c89l39l76b04C54b998J307c65C784a382j305Q98D5
34475B394e271h75m619b17C689c66n36j861F83K515b73n42j352m73C079a993C57
34457B757j090p16d546K085k335k169L433l97gC560b64l096a212C379A256a928
34440a914A509J194J414L16B075K443k084a76F4K162J754j747p87b825j097J119
34424b803i84A356a107b14j872KC79L536C1b91n9r63D390d78j74C229f6B077a130
34404d013J346D65J963c721H11M98a78j92H10L536f99j019k116N69J298i14k020
34387b934a262A73b210R18Hd18m020h75C09J511c032H08M06J764N64G4f45k900
34369c545A60a36l904E46K138b893J065q26J77A441b0A249M912k396j610d35B386
34351A914O7m39f06k913d94l623l299a82I30a168G73A60J892C48d513a265k625
34334c890a838B394A156B10K737A78b039A262K652q18n39H52h35C68L034R28k140
34317B190e35C301R67A821b343d2E891B434b761p22n66J561A841K466J005k7B287
34299B268o33l48m18a918F29c79G22b577k037a993B970M1A157L40a594m98l13
34282b405P13A415J849L236B390p83b743n51B853l63r28d659D81O085L12j869
34266E009a306J14L3A980O978k742j598N580E023B193I75a428j302m95R13k985
34250e297f85A400J574M72J827A726D60K157M00B15a027j47I01Q08a110A089a779
34232b062A311d67GN62f78j867j218A496l55g015c403h21L63A224L436B245a653
34214d45B46P16f0C511j358J528c771A068b97B045K747N95B598c341I53c04B609
34196a007j314f06j523R41j72n20A85b892O79A509b759n28a339C835j421k73J909
34179D050i50Q7j460H1b665J279K12B097L33K865j248j112o61Q15O65K456j172
34162E038R86J742C104j355l32L68g15B591A111J50d463K059G0c231lm30g38c52
34143c985J904k75P94C255c74m104Q63k792b040k472b199j889j07Q68j779G4L321
34126C395k52n57k25c493A70K350K775o4I67N11b962n388c694P97j704b281f55
34108c973A830l84f67k44m407Q70K38J336G1a144j107j503A647F0d082B467b010
34090g31B528i14m70q88B741j26f41N6A797c69j837B24c343l986C84M173b168
34072a172I55b329M90O67n585L035n65A278i33k270K99E25b657R4D02a982H29
34054b229j6j241A182L4Fc190J570B987b86l410a660B277b984k074B369F84R0
34037G74C47A39a634m135i77B919I89j6J476a90B812A255b739J269j179k843L38
34020e154A898C0b660h50E692J110B059r72a877B718K747B149q37M40H22J012
34004A834q03c207N01I39e640b037B8LK447e06j363g75jj643F08K53B35a293E94
33984A895h83m74C456p77b97j208A053J811j053K715M584C926g1A442l47i30A147
33966H688A363b205D080k84a045q97d04C438k86g22F53b19A152n40L807A490B20
33948B041a764A800L233r11c73A848c617a807A700B35c658g67k649n35B689c547
33931b094A065J682O500l140B710L220A898e79m67A067i37I06J108r8J822C5a326
33913B147c3D312L74a935A484J612A225O45g85j389B372R66b39C22a076A65P75
33896I40J496C62L447J309B8e2j722b46B876H09b080L98k150D14N67b437m146
33879f583E4K78M804k564i70A017a714o01R96k150c49C188j016N8K02a557aC768
33860c96F682o7A251L519L538B14d408N09e65q81D209F45A83b079J58D200k026
33843B174C22b222q7c25R4p141R84b181a60M3B570N15d42C028M353C172A584J860
33825C444B58J46J031a369A868q38d691l37j473C38N519A496i6m00a6o56k323
33808b995J457A688e5B030A31L62O537a552l032K066k724k831O06c562j973b232
33791e7C095a22k493J215A380c426P83R40l6F29J301L949A850b304m016K374A128
33773C271b203n55O84Q74k995l170a801A200O94K769A233a386C052K230B404J411
33757C815A563l84B12K328j189M66h72l784a959l076k922K552b187A431Q67D57
33740g81G42E2c347d44k127j204J3A24c080G0M145K332k243b311n16a340m488
33723e828a278l173L22J307l645b158j432O57r39h29H93b890A680K934l64A413
33706c999B48M42L17A16L35J076M82A67c037k024b88j968j416c44k43j952j352
33689c891k556K682J436P31A392R51C55c416N23j322b91r58A430D31J802M93B54
33671C183J412O17j373j65e507a629B659J905L021C404g01j631K25j279R14a201
33654c579j963a684j114H62K555j070g72K59J30j881L75j587i43q6j424C14L190
33637C504D39K663k53c983B175J29c470J091a036j653a07l89l399K8i33B042J147
33620C189f18j85j560A111L284k054J208a876A609M638k748A417D08N13K123J200
33604D244j109j403L04o22Q51c305h9k402A758B57J994M022A160Q15C68b611a018
33586d21k141B683D79M65m55J061L021J908A625l27J404k59h48j209A242J445
33570B687h76B999B45b960k271b537j47m16B076b248A142J157c05k357h91I06
33553A428a233L81j021B379i6c5C070A072h61n618K432l00j40f3A212j69a901
33535A069m32a194E628j18B406J74Q02i3j746B892g58A246J832B22J126C67K753
33518C120L92l77Q26J560J30k12A451A95b252l2I47K269A454N49K022J408k635
33501B798A325L829A86a159C344M172k648J441J647j626L887M931o59J230n44
33486A5175J771l48l144J063J415J173L632p96k764O49J637M076J073N703m58
33471B9857J957J661k988l486l481j321J170l353j549K140J680j570J135Q479
33457C0331O509K869l440M699o25K109k463r414L34j101l373j192K119M416O670
33442C8448N135m76N954R914P138O60l977q263q751n82k590n487p370k357k31
33427B7165M508j807J686L765N109J104l27L292q487l100M09j476k769o538k800
33412A9734j568K926J187L997L505n417M323J184L942k014J352l285k941m740
33398B2185q873J620l042j922j114N462J797l265k55l76K331j974K762k554D713
33382C500o56I16A69K733j176a911e85D967B172M21J797L885D084D53L439J104
33366D996A470R36j9A026K52h10q46C674A623e250K108A263L082G76J901a060
33349B22J437R71n66J68K28a22A835F01A13J846J412K021j139e35A69N056j84
33332E041j112q71i2E249k93B440H95B71l2N04R48j66K369J476J380N218L273
33315A5241n618k944C023L443j312M592M444o588p51N38J175K079D712I77N53
33300A530L616J207o45j508J986J508k48J750l843K159a73j34H69M346M72K127
33284G814K349o82J818j601L10j513j39L940D423G62M260j081m71L081J52j369
33268E334j56j476m60K90b027A832R549m306L158k414R47J02l450B527J206H65
33251A021J486J541p75A316J144K142k174b52B105J351Q49K529B815J88J862j867
33235B998q45o02M050J726J35C612O03Q17O87j349K305j864e90B644J443n16j437
33218B134m20O41a711C234J866b455J167F711k330e46a60A782j55Q71a941k916
33202d857k47B740Lj304a869e6j520c61C283d008j300b654J096K12C424b194r89
33185c183B21H4b629I24i50A97b27j298k856J180n54a533k272J016K29B649e465
33167f885C5b043F4b209A844L624j007a831I7J174e95l140l347J092b568D04K41
33150F45f439J039R86J707l577d66k62B298K811d372l845M69o45c549e16p68B306
33132a051o25L90k97A048Q07R57k73L4D86J746a408p24I84m64e99k001J030j915
33114c485a538k559A821e58k875K98f65A937K734F26i25m175N49F434L69B259
33097A31L818J677A450b044N60A014M394J635j821j373K268A586K233A55c37F497
33080G882j389k504g19k93A630l64K26e61o86m08J17f54B073I0O106j364B299
33062E034j924I04K217l45I97K125N377J067C305Q73Q68K117j023P86O15L486
33046A1027m877k240j630K355R69m55K36j239N73L070J595j537k361J668C323
33030E192K537k163M074l876K967m070j106j119P57c77B784A054M162K640C473
33014G747j920Q14j160M15M384D929p26J518O58k908Q64O066E068O63J288J59
32998G178J131A311L211M910k983J879K151j61O17N053p522Q48J86J468j287j181
32982H500Q82m045J422j118J046j797J880J106M39M9j491J451j084j572j914L169
32966F923K015j727l239A459J844r9K342J0199n828C950l09j069n22b042B194
32950G113n73O89j897J107M085k47j568j982K602D300K382L370l630O41Q208n169
32934A0102m789L39N222L030l800m62O78L078K36J166J464j650J35l019J658n89
32918A2799k739O669Q09m135j829N075M75L266Q17J508n42n757k240J633P829
32903B3638N95k724J153K284L961p43N541M0Q68j16P906L163j869K09l866J134
32887D1174p93M627j96j205K762K265n878O194M921j552J401L734N351J348j414
32872F2739j518M385L32L66l889j026o79m7K498K473K996J803J0640P530O089
32857I4692N158M566N195M411j263O393k198P24Q087j168O932M876L869J2506
32843A52780R130J1456J4984J0004R309J1053J4757O870J2055J0277P724J2416
32831B82815J5983K0294L5047L7019M0355N2068O2991P4239P8556R1885J13617
32820I04869J34039J62161J98330K31384K75501L06993L27583K92266J96979M5288
32810C075393j06731j82449j76239j02293j4182Q6601J81597K75569L79589M77271
32800C894126N72828O09611N48038L41018j9962m16540o43793o34248m83733k88923
32790C478422j13742L7726J55507K69029L87265M95304N84801O52834O62021N98464
32780G207631M51819K51906k2764l75079o85364p50210o01544l59505j06419J26180
32770E136651L37079N41366P76475J019093J222082J319694J170469N91676l74040
32761A1740545j359318j747778j575256j134944o90767l46038r2264J09131K82124
32752E185435M38021N73838O47886O15268M05796M5489l70785o30236p33643p41959
32742E435110o85061n79340m34231k77385j34012m46J02702K17584L27699M34151
32732D406771N13359N20981M01850J00200l14422o60774p90001p10465n31375
32723B936124l42636k00341r6063p052O7951J19968J62414J68555J02254j7595
32713B893579j90228l43063m05468l78207l11127k33941j78138j28222r5292p4514
32703E55379o3812n4005m2263m2212l4184l4932l3188k2616k0334k0241j5358
32692A72234o120q006j1235j0526m546j0370o770q954j1458q465n225n821r496
32679F5242n550p535N13J01q378l221N45l652m810m415j279M658q05n108M234
32664C0540J083L40n54m650l555L639l622j245m748j82J082n456K263L967k464
32649A6438k894ko83J957O77j775l094j239K652p70O76m86j569k329j335M755
32633A0979l196C661J32J3572R46q636k168Q848j930k222L309k993l07K153J680
32618A6045k654k562J986K927J862j5J05j055j411J955J070O266r78L993l585
32603B3949r899n251j024k416m45L069J461k716L130K23J640M679k527J799L007
32588A8679m89o041k205m04K823l664q58L111K575q48m54J3J538Q21j341L617
32572A6873j447k595l936j122k98L85m29M057k439k154J347B961L097k666N671
32557I063j40J694O97m324J629p2l946a109B045L199k489j90k61g34B79b332g42
32539a570j110A959L531m03B378k53K053A519Fc974J834r09O97l366J711J499
32523b508J90A920d71B07J49K755I11M72a597n27R31o43m6k694h32I39D60Q05
32505A265m71L743j25J031q9e92j22m056l394d09k940r26J328q59j7J215j53i02
32486I91Q42J173N293C254a497j108A418F15j07a864n474a951l585C459j475D8
32469C472K046L00A794g6B442A081N364B791a985r09K62j501A827K029Q2Q45b429
32451B828m06A108a849n782J403J817Q89n38Q4a918K94hA211a286k549j025b376
32433a21m170g37B85Q09B08P30h77B639F50K392J159j660b38l830A530Q326C748
32415b97A954a142p29D74e32j96D295a054n78H15J417o74L065J2G31O52L667q76
32397D174L612J71r5j451p77c280A24J175J466K251j583K118J744l261a139j68
32381a307A027Q394A791L724L864k934o67K256l589r68A131c535C411c30A5L472
32365C487J79M850q58l776K0j373D21J82M00D92K3M906j225G31fB969l87K490
32347E072A085o5e367J694A480n0M869l056P35p10M50m74L87A84J484i40k321
32330c261B56L40Q90O75b304c16j971i54A617a52C460J103k98A355a930q98k363
32313e191J821D45d179g8I9b198l521J40C5a567E14B47M817A381M96M29b385a055
32294H69j67c629j945K355j019R34Q19n522c074D48J315d333R60A100b561p6A398
32276g53k511o04m880L458D37K468E32i195P28P5K204k417n21L924j479K890j747
32259e538O61J134l266J239J824k807K12j930P42j946J511L260a41j979l566k92
32243e978q98m143q45K677J685L579j218N53K66F87d447n13k266m332J143K074
32227h341K771l770K077M50J908k799N4k228K207K886j35J413K75R61o639K634
32211f276J254j871J240a945L33l017Jn83l223L325J135J920k558j776j677c262
32194g94k444i34k704I0c296l87k247J032a685B307A55a686H70b146j991h87A252
32176A763H08a925n152b782J263n95C471jr70Q2L358j569j199F65c52l977C070
32158C274j629O131J072B575K24J525j66G29R71N27j006N492J257B728O07J032
32142D367a606A045N25L419A455J652M232j307l008J035j134J292K118B615J51
32127B766M206K961M017m086N328J665J205M818m452K17j635p230K142O285l620
32112A4587M94O980k570j357P449J531M478K425J576p637n050j657J631j389P58
32097B2249J711K493L47M403N66L763P168k545K724k471j698J90n54k807q13j308
32081C3418Q25k037P33O800J207P349P068J433M475L197q141m858k215q446m759
32066C6049l882o83k566K616N646K580l663j418J274M645M31L59l361o591k151
32051B9285m165k826J579L954m584o674J211M152J325K841J081J770K441j109
32037C0281m807k089l1J9q052k482j327J515K470o824M66L615K777Q23m29K70
32021A6195m989j357k088j187J163B002b72j871B884o34K928J55k558J102r50
32006B927m28a984k000A455m88J458K12e93F21e39F016l04N27A035L60J952j13
31989C234A474a070B665M854B539f43r69o39a010B97K535e76k797B262J279A116
31972B862a431A188K538j690a547M43A14K995J811r0A057b023n268i24E51K622
31956C173M477C606K233r94b22G10e718b203B82K077R44B65g48k663E1f98E021
31938i78l855o18a295l372a856C57R2a030l293b40D109b488J00A114E38c544j522
31921e066G0e18k176O15F98c426a189a7r85j500r9i02m97r4C343j615e96k33C893
31901C047a443k890J21R60g99J4l823a369D080K13a050j192G41a087l906L30m18
31884e081a202C72d013o60J161g87j886j584K043j195C124j099c950d93n26d62
31867i59j968F87J237H19L252K007C00P10K486j20j238I02a874j561a406p82n32
31850b720e82A267d24k409k328C52a361q798d979D14b136j235J169p01b02lj696
31833a901A31a588A141O7b636k348J748a375m416b677q40j249h38K42I30a043
31816d00H52f20E205k305a027M98A423c363J652A196b064O7o60A865I28J143i75
31798a625B85d36B914M64P9K740k713b903J308C95h19G10i58j76j751f5C605a493
31779c544A097c720a749A07c564K92C645M406A789L60J099j620M1L100k115b48
31762A260e16A594b361n074F84a387j790o45a604n617k40K689f03A504d06k711
31746c117J555o92E06A16d444j160J304J649j826J036O2f89C39K487d048a898
31729b91D001M5f185j143L014j653q94j049a645l68j245k84Q14j773I38K547a775
31711C867O46H30b545i62k969A753M908h67n866D92L613C57c49l835a128r41r42
31694c011g92G47q6J099a279j256C834a239j202J124d33m049l740L667A665K67
31678A932J531c26k166o23h16A147b806P93L32k894A70i01H14M266G91d644l835
31661h479c237l725b617j821J823B959j364M325C34a724i9l166J206k519f77C009
31644d089c50D94a127m66B30A3c229B459j073K763A917r27K281L59J680j201B037
31626A187b912o05P88P03k99l567b837a190a21C650q26G92e100J863a570J3e16
31608a030A388c672J276j758f27A388n23b045B855c459J376A083a084E779B280
31592D218J879j252j586k34A344J762L39f47m58A372R33P34a780j864p67k705
31576g116L65K424b020k984R47J590g53m656n54J232j700a443O32j796a99n488
31560e687j344b973k997i29k881J104k998B668Kb319F87f68j523l513l87J193
31544d898J856k407A113A81b668N40N22n40q46a070J82l20B81K400H25b984a137
31526A797b408Q24c54l195E9i08G55M88R54J00b08A82e124k111a824eA997l45
31508A652h77j823A635J259F66e62a79k386K11D784j882j183A69g32A702J471
31492C173g19A609M68p20C0b390l132a446B615a163l610r43b519B1M720k221G69
31474c6j405n158K910J350O00n079m07r30J474a781k397H1e793M24J7C5K59N2
31456C46P99K631b39j260j292j097a629B752M41j211m63b863I4a125n21j494H32
31438E392j273j67o95d797j269L010C816a046D31g89k565R75A60M296o65C24J646
31421A970o37g66A666h2m450J845o54k147D620B173A04L136J533E75K382J247
31405D204d792M91a18j807D08Q62N94c47o089f42i4B343a215p088b527j009l20
31388c856E279M805C814J552K294K21b165l27D27d377J140J134j646a128m579
31373e707b301A517a45l696J685B127b971j750J163A11b424A291O77b24B132P73
31357B905l45K987j343J962I47J86i50F68J984a225k507E50M159m75D83p3a409
31339C54g14B12J473Q54k93d844j310K795C217b552a004C60d145J213C5P17M67
31322A219b872G72B29b130k171A336j14E27a222A630g95B22g17j717k806j171
31306f411b707J02a73n054J548j245q31A26L800c642A078b565e54n82b77j259
31290a536r58A099E29o0c302i07a37j854l264q83K879h13m554J091a404N36k626
31273c494k754b688E74k68J026K515j471d9C246q38Q08j182b609b88m142k725
31257g155a871A169c207j020j261k73J547J448K92m122L239M49J244b91k414m718
31241g423j536c537J005J183j64k83L47A587d131K040k496j517G45c453J489R29
31225a035A751C93a027E62A71N008L563B645R4h49A521a601B48P12b407k663P84
31208d286I12L679j913a192E11a066K15k788J59j885l22a759j8o571L998Ma065
31190C247M610C058c73r68p4k650k289c82C20c063J06a61k10l526e34A606N93
31173B199K984j895A446a444B201c290k224M71K109a154m411J125h16j350h69
31157b036C88A82a63A260C27d639a217j373o40c71B34M372b6q34c45a47k509G63
31138b930j126K016n37b74m329J298i00m41j221j861K38p8D56N13N77a983e37
31120B595A51b004k749q6k335b92C449E95a560A534d32A064ka624H60C32L456
31103C788i66L23B736q19b55k391qE05J98R83R24O58m96e51a97k154k714O98B322
31083C085C08a631k957K034O9P17O33j160a82C114J189c466a513A566n26j48R3
31066I85L73b622M43A077J18b357l201c24j490j465J196n021a260k453H26f8m411
31049d479a413k35k09G31a063n028K921J078K7i42Ok133l69f26C829F08J035h30
31030a714N61J57k835J898h32k977j115b400q2O7j518j634J248J075P14l900g91
31012b614a116C49J88a93I37C53J009d912b77A775i39b82l00k99o52b74j386j5
30994a675H7P84c771a311k260O59i80O6O6k470N63C492A1c650l888a682A585F98
30975c400k318a274l61m42L23J44D7L522j221c287p11f59A252i01l398B515H99
30957a265r82n20j091M88a210b25I76b545H09b147k247a754G2L689A720L31r85
30940A066M45p7D11f034a530B294J4J386E10M421j477A713K69J898k64j65n12
30923B939b257J90m7M79j18E95N282B590D86a699A000K821A749P85b512q24O21
30906b715k47P78j313A633a783l224k853j527a770a33C322D17c652a395l707P46
30890d356E2J120a608m271j26B122N87d556J16n23P52e26q23D90M81b222H33K248
30872C081B30J499J96K38K067c49r32l231l506J113K338J094j349b362P94e59
30855H60e83j441A19R93O87e679k845c058P77p97l24a091q04D37h07k853K64J137
30837b259C089%a404B09c815K68Q95j946j494J5J001c86j139O81l280j29A295
30819c908j000b448B476a322k449a819o67j312J375k182k259K551g79k61B271
30803B284G20d769b286J72B68L503p92A165c41n006m181b755A18c01k945k54A93
30785A210a896g38l291E88f17O4C761J296j364a454r42j142a427A893e197i34
30768B349Q28J650i68k09j633A768J13c143a202L44j400A187J408L271E10e477
30751b918B785N09j229P43d572l30L01d74j840j116J49q73b46i6A196C54b88k397
30733b685F91K815K497A63c131H61J411A035b658O11C301j164i46l364k025b361
30716a9A371J631O3b061J001c31D48d638m309d254G6a109l317k555K298a123b95
30698B128q31O62a107F9P05J482M59L63j00I40f001N64K128j074A588b760B276
30680B297I41J66c043R48k930k224K621J823h42o79p56d13B543J075J976B774
30663A395M2C34J115R68H20h35B313A38f07J36m11A30b429P01k014m564c772D45
30644b069l05N99j834J356m63D310k116c386k850b380B555J312J706J13j126B21
30627C404j338b168Q65b21C06J223K970C87a590j651a567j528K97b53A903K902
30611D805G16A72c381e26k257j153p76b345j929J633r33N62c47l053k163o22a419
30593B423b45r16A503d68l016k045b034A092K637A393a541k59D594R52B040f24
30576c896e27F176b32r91j565J054j222k461a330j603l371k130c716a701g9n111
30560e190a047C639A134J14a835j47B088f24A315E28e506K51a885D60j14K77J259
30543A882K704k052A48K485a412j294l553K272H12J41j7e013A914k42E25c611
30526a257p5C559f08j584c51B320K534o44J352c68F83d433h90L61B204B98d60
30508b67j147A309L109e88j37E25L66b297j633J604n48l89O9m619L580K40r13
30491d906K031j30O78j51A933K826J800l010q77D74R25L027j838b901R63k473
30475d411A383m48K936A077A07a262A275n25c92p31j217F7h27k170l006G27a327
30457b485k07B855K046a11k779j739j44M08k69k139L51c106M57e64k676a551n316
30440f867L229b92l22I24a651Q0j658A988O781A218b319C55J2a393H29J843F71
30422a573l03A303g00k654k543b184B3L278i06k755a400K70C079I04c89B649a447
30404c941q19K60J140j738J603J64l559j509J449b466L11J57j8C151q01c309l12
30387c621a807m584b608d12j452I93J66K12N41a266n186J109l201B39c60k224
30371b584B679E9i24I70h7j344k293J527C166L619k434j706D51a795j380E48J896
30354B444b273j94C62L461p05G00J498q71l93O46c643l722b256I54e62A456a209
30336c075D6d393N6B773B75a337d38A331d147I40j17J416M066k283j001l10H87
30318A005h53m637J252j180A137g3l937J098i48d17j377j852B09g63l010p93b01
30300A39K178a270n102N82J588A280b235P54j993K00l747M61B582H8b659B397
30283a28k026j756J825c65j330E305p57b144k126j361a37A252e83O5A166P33J365
30266C264J03a893E15f36A425J180ML95C06d187e73l431R55J375l608a544f92
30248c322l799K964k76J752j721O71A44K742K160A461b881P80o63r08M52k230
30232e450k15k154c565a431B67K663b979k066J55e92p27m040K107J490k159l220
30216g141a357D32h065K179J976m49C643A314d280C536E10A74N82J111c079J97
30200b882a087l300D75b016a88k211e98A014g71j906c8n231K004a366K86M35b65
30182A290J04J080A124a195l43A134P81J874b39G66i69A390K118J829c155q35
30166c990a953k915A434M09H90a311j003M8G03L51J11k48Q28hl670g95A164d22
30147b678k776J478C89a898K34B367r94c08k588LP79q56e61C103L502k064B9b143
30128A100i53l973m0b023B192F34a711l587J955B701J540A461j92d024l357J862
30112e519k46d56G765A487a489A034e97B38a517B551K807A5c366D109a386l399
30096d785Q81j464K57d05C773F22N54A61O363k469b894J421k2f46l899b022C789
30078B952b780j026a452j782B449a128q91L65g39j083q7j804m50G2b38j173A16
30060E12b132A687K801H97M90b727p200M576j909J122R81J254J424P11q12j137
30044c717r66K060k344Q2K143j955J030C242J107A413a355e34l704p95L18k763
30028g478J944l340L749l225L786l05J342c39l075oK77l762j413i92k92l668B070
30010H46a175j921N88B906B47b440l187a26B43a273c55k704k892b488a62l034
29994c196j070K49J967K97e12l138R60r16l784c040J420P66j648b66p09l627b21
29976F10a822g19J63j173C909R37N30k241b212P86j656B038l27b41j302l305J273
29959c575J232d50k181j393m146L031I5d408a973q17J317A916N5c86k461R97N00
29942a350O47F61d030O09J301q00l13k3H48c611h72k607k054a138A617E08a046
29924b808k25P33D91a973j873A272b726l53B656m66b670G05N011j060A814e531
29907c122F45a020A753e390R03b008k814k535K066a79B813j81q57H34e979K769
29891c210f30A122C92Q92b056q55B846H63J12M357L93A251K537a687j897B88L012
29874C300A534a258l653J501G53c195J022G03R91c055K0B279D82A80c061J231
29858a830B060a763B55b044R14C327K357C39A48J750q41L177p26r23a582p28k864
29841e174d08j28p31A531b140j38j827N7k21A620a554j107N95l87E12a451d97
29823d965l21b492J07M21m035l03b585e59q15f72G65a788k213a761n358a297E67
29805e698b7B110b42j182D598G42C51a363j470D42K304a08j556P27K70k991A517
29787D692j290J216a012k330a011C36a651B321r93B39O22J811l42a589A520F36
29770b285B409i17k001L2B254P42b051L84k286M53j77J200k013Q92J166J009d83
29752b960D64d968j26B27R56J717J192j605b059j407M53N23C65J371p48k29k02
29735E57d06l011M83J057l725b620a065d81e2p3B729a861N97l25M46j65p77j920
29717d005j590a321r23j180E06J900P37J399K815B675b297b02F97A57a907j008
29701b915o46a392j827q51C470c8B08L944K87l56k011g8m186O99J599b5j013c96
29682g54k790A168J061D05i12m178i34j185e61B006b677k780J354b40p28L06A054
29664C53R34C98K923K529k503j097M92l28j53L96j222a060j935a037E54k56j13
29647A85J165j91e54k522M63C020P23a377j902j29J03q50J300d52l756j247b106
29629C37N98M129r42j982d16C58L214A267K507A330a26l067A683a98A817g85m734
29612e519N96a869A882b33l188L01i20j092G6b258m886Q26b847r99a589m078l75
29595f042b258A029c487i07n76G5c86o25j494H44l87d940a941l128o01j050F40
29577B064e50l639k515j231K261b075k11Q37j35d9k860J0B564K636a182m207a152
29559c363J098B674j02A5h38b58j498p88O69Q14j817A071M614B066J440n95J169
29542D080O61b191j172C464J778c42l207Q57a136l13N84C998M42B037K31n59c636
29524a13A851K124j293m59P28A127d698j138b388l242a17A149d578K248A867a913
29507I95a210l649I35J227c929A84c138A10M970F93f15B075r74L42D38J346h66
29489a982E14b263j103j344a956A703a013l723J979h55G75e87j353j795a06D8
29472e254a73I73a675B193c178M15b7j321l084f21k006B429E84a792a04A388J056
29455B444k34e53k886O33B28K225A48N767A903k37f89k420p79J315a138n346a996
29437c585j50a099j093e86C063L335o19q89d59B500i92j212a27k849l61Q58l678
29420f157a853k794k058K098g90j760P67e89j705R88N21A882b44n448J159J102
29404c431l703K545b106R59k116a606g06A144i43M29I77K441e86m261O42K046
29388b159K88M53p41k729K173g89j203C570c27A743c659h70A25L31J720e1A100
29370a285A733J427j356b057A035b584E83a093L22A805K4J036Q6A212b562j572
29354d134P49a181A452i35A307b303j064O79J294j724B322q25a363G24J572n38
29338A758e13m70k44K61k543e86C7J702a779E86N402o08c17k793Q07C942A115
29320a346m566Q10K286k368J177B694G47a608C916b73A015b323k979O73a721l999
29304e720K005i52n489j830d048K59q36B572d250G54R39k24J266q37a372m141
29288e513A014c81l775L34O47d59B668f06j112H01P22c318n56m565J73b388A464
29270B649D91a040m288p61b01C090q60O99b8A463J190D47R47e588K719D49e90
29252hp26l770Q88a375C019I57c11D270l35M672l486E21K288A381c190A564a287
29234d43D920a27D277J820b47j012j030p88J077g54B794d98n146b440l469b606
29217d156i63A632L30M160A045P42a880j13j110H54J454b522h91d06A266c951
29200d235J548C294N58j51J375k054Cb490A982G83K075J056j860A013e046p61
29184e807K082j380A527N061C093j09J085a397f19K92l373p26m337J053a362j344
29168b706a294m21A620b277c17A781e204b244C040b631k96j909j726M70F71J192
29152A863K16K295c74j210l872b466A61a876l652Q31k733a211K0B625a176l032
29136d208b78m33l009f97n413j77b005h75d09D501j27m65K040B086Q65a641a57
29118C787j478k83J051J935n31A204c681l317l666J203c505Q79L41j317M24n507
29102h685G90k20N957a580K7B367D48c992F40i89j688B561h48D838A745L33b542
29084F14J898K096O19j634j027b940j064a703p16O87l016l373b681B509a508C62
29067a629o96j759A05M629K268j110k021a014j715m36m79J812l41r11A968J17
29051B085F07M412L96j472a78k435l880M76b02A646a820A165b250B962A417j20
29035A297O23A4b379K75G94F2J550a534I60B1O5N91B26K885j535a383m593m006
29017i982L619b646k553a758N87A564h01k57jk86l36l033a399A112L078A879e19
28999f255K090KJ867L00h47p09j778j718b168j337k351h37l338J817j75B980m7
28982B933h57k382o94k01a809C078d50m074J981H33L9f26j36A171a947G53a080
28964b050A037J242c074j224a362j455A162P20b607k030m49n2a25D495A808A06
28947b629l592a807A240Q86k64b11A64M69b213a028k52A231L159a746p75I27Q72
28930A799L77r19m74c623B538E0a304C73d114a224e0j105c91F23b036q44J403
28913a477B096J796D49A05c136E00b015k94D715J311k194a098C172d370O45J803
28897a922j061l092b912A29J773E36f53C160P78g28l164J377A878K713e73n48
28881a121a93G46i76m47m53l237b253B496b739j3R9h30c95j781l11B372K17a372
28862e52k68j098I82m52m7J335a143m3j074n225J40a419k793a246A432R89a630
28844A417L101c383i88D249L7A588N98K50d61k642A836b10F18J565G97b403A091
28826b1m612Q64J92j463o570N442b015Q42q46l73l821K792p79k439j755K886K078
28809c430k170K140n96B150N53f03l168J30A516R72b209M73C883F82b197C94a311
28791B777m39b449j047j487a405j167b16A034i47a89C269C11J746J136b23C345
28774e3k502I07K211I92N33K740J777j559K93A94K094J400A41L81N9d171b075
28756h18n624b393A067L84g8D239J897B532J098p05c657J009B427E86L43J586
28740B515G78b655J27N94k29k897r79B290j037C67a05B02K261A011K121a269B627
28722D965B299a472b03B97b252a19l813n2q55B71R8Mb822R59j782P33B441J090
28704C531A048J084P240C185c37k488a380L1k5e98A356N48e21k428a361N68r11
28687a704m57N39A301d65F88a726P32I2a799D045f19o96J38n395j229J897a128
28669e777a832C589e160o308d956l841b993C418F69M171j02b5k286G93b772B4
28652a28C762d53B585j141a760B313n13R16c467a354A254a69C847O23B023d908
28635d639h74G02J285b23L3m480b42m342j388e17m49r09A671P50J410H01D4b97
28616B465A135a06j366A416J92a181b45A208L403j605I45K159p57K347I44h077
28599d052l810h88k105J368D220b286L38F584b209r69K32k787b754j10j35B205
28582H42a259L49A278M96G24J47c19Q0k355k226D68L550a409j841j303a087A66
28564A815a045D412R76k447H18p6J241c25l194A933A03b569Q84A074N282H61a084
28546a425a54B422j20b142a045H35d986m17N48c55m774L28J565f21B183J356A438
28528a297G0g96D863D25a836j028k437J53a920j683I41l34d70B21M259q06c049
28510d498H80M43k44a369p77D01g29C88f227o19D73c700J841D01O86i57m67C38
28491a147C339k43a020k281L02J249A029a703j219j790A49a384a54j33j480j192
28475b959J451b65C27c67A008O62K760a386l827a062o60l313J42a709l797a758
28458E029F78a428N73k486J325k755a982n14K79J42j047l58G15e2l692j253J534
28441c463P27d20q87k050m956J305K994a94A685g147jR52P82J58l948L955c44
28423e12B240f73L30G17a029l304j083b505G21a927r60A344G6h92j277j17M41
28406a845A455O97a887L43j554J238A13b566f27r55e99k219k117F68J999J3G84
28388a069j049B001E99R01M38K329A180gC80a667m87j926L95e04k724J601B843
28370a287A61g067K010J682B5J239a498P0c68B21N16L031C02M570f26k84A208
28352A48K472H79k55K11B8a32j50E99J484a067n77j622C72a89m307R03f21l969
28334d590F50M33M377B271b578c27j778n74G64M400k216a221m773h99j534a209
28317f62k073J073I05d95A461M26d39n542b36D010J541j380k050C34J453N20b616
28299A223B92R07a79G88l10J261J592H65a070j342O06n84F61Fa301A192J665l01
28281B556B04J217B92b745J241A666F55c91A549c652j509A49J460f43k676o85
28265d004J008C48b580b42A448K246j585a244o9A031j67E8b062l332J904g31j49
28248h80E47b16C016M090c00B744l96L227a469n021b369j805K21a519P0K69K40
28231i40l09J90j342K96k640B972j278g49K12A431L330j98A628B00L088O79L493
28214G460C394L13I85b072d22r99e23H03J145c210g7B290A023K151f89q42l034
28197d565j412J277a102F31a871l369b015Rk456J907a86l911O12j624j01B59R96
28180A255E90a341n719l821K974F81L244f25l20m098a090A68a115m427J415g2
28163C113A67h10n550a742D835J00c915a768D770a601l952b237E65K558K44a629
28146A299b482k562a806A667L479o11g87B359j175J338j45m78D94J813A134a984
28129b411i05m845c18k810J085h33C71f10j796I32Cc832k478K098a370B585a155
28111a026B703k49m86m45J710J303a555A143j87J685h04B408J813c34j603g24
28094c126A6g663J127b375e22j52k329p17A242K20a363B076b319K63J71j786a210
28076C541q93b697j47e06F063l4A026O12L040j126b770a077k279a46m84b18j247
28059a465C719a037A661K364c4o586J718J778k68J060p91c58A374D16M38i36l047
28042c983a402A617O8a571m139j67B723H77a55k721n39M97j28k693b056l367b691
28024a846n854e51j228D5R77d76A596a640e51B85L05c734l42J910d60k352j223
28007d035R14a437j193N58i19B751E15L261f49o63j025m713b201p09C63a790j102
27990b892p37A93b173j939O35A388a99J9D75e72k233g64m796o72K061o04l089
27973g864a355j83j972a031B780p79b642c10H50J532b559k857b98B795d940j943
27957f883i24D046m86C73b719A293b506m42a325j830m85j041P18A919a837j113
27941b950l140a015A26d106b4C392o02b89G60d183j477K017J524o72n3g94m29
27924a223r59R56O09k407a258e56I97J193q69c2C719A235e170g59l087J349N25
27907a972m81B388r74p03C34c413J325K47A151a665B470K57A234h60HJ80e23o5
27889e88A118J558f56B082k80g42a04C657C91K163J911A229i08j76l44B210F60
27871b442H45K062L639B748j174J058c056o7A21N351D87Q19J949i96n624F53e93
27853e467c35j424j537l955L211J117e71j672j780a645j981A121K998A441Q83
27838B324a189N49B415a039L76D256J067A707c91A409A9f936j511L115b611R50
27822a661j333A050a203j114A592a899K85m93C58J504d264a047k155q50J542l097
27806e607A80c07j517k69j701J234k29M06G44P07l53m72J508J044a203M77B485
27788c05o952c063f26k09m071L24l748K684D55b807b71n1A64c480k394f41k308
27771b949n987c229r21l406c263I56d667r2M17l686b963A601a041D5a723J98A298
27753a804e03o13k297D039j683a143C17J706J418J649a200j435B883N12A051d993
27736b493J70M60C890q77D06J006c697n53k471H21R54d694a637A799K867r81r98
27719B687E94a154j653k743P15K271A445a782p26a202C546J296A913K05J196j521
27703A793d25A905i71C66K409n21k02a342d84E312J997i23l409A621k90K552A699
27685A042O75B68c56J24m62C088A000a893a63j400A641Q98b98C254c411a162a12
27667a249C98a44A749D22J638a883D16J523h8B861L227k215n76r26h89l171J084
27650b976D149F62b071A051l69a096k168n82n69J828o65L34k556c64A048K506
27634C554J11H89a465B795a912p40q80n291b377j793B848R34a581e81C700A347
27617B09J724A45b30k797P02C823A798c59j321cA230d133a093J76L30j802o10
27600b999A368g19k568J024n48m99A846p75J469c751G49M119q94j872b03k417
27584b620A951G77b428j626j876R43J351a165A280Q31p85J514c982M56K54k59
27568c531j966G84l05L401j912g41G34J600a471k543m66k19g79c83O4F91b389
27550A560K202O1J042a844B54P27J040D0P00M282M96B098K111A939i52k688J807
27533a833D579B033B13a323B091D35c044A17a845l63B621L36K109k220b417d19
27516A073a125L38D138j475J187F98i57m55c94m205P72n52J321Q19p78D683A790
27498b109O74a74o099N6a247j358L16k877J82a344k096J708l21r61M88r9M83d2
27479b239n38A467a907k639n54k925b237C410r74a696J98j67B89a947Q29A30O009
27462F139B137P42M46b666F81l09J542o14j90a983g85J9A127J405A038a799k021
27445c820J25f57C881K84j702a370A136K01a861C7b352M08c75E27d955J333J690
27428a932F81a500j429h47C57K071J872a9B490f31j714k761k000G08b313A862
27411A204M72i58r73Q16j595A187J937a68L5A238b208K22M37l473C673q07A349
27393A452K290q48J493J451k751I16l10K25C1J542g09A271l76J501L880k305J30
27376D101j054a684f99m309L01d72j017o48I00a623k628J023a72H47J070N613
27360G530j632k222b311N14H18a859g51m059d37B851J793j587F77c811p0J267
27344b614P5A033L079a72l542L62N9a48K8j497O59I33d85j121G27K34b888a420
27325g18j77A668j45f41A826H45K64a464a47j735k375a879B020O32E53a76p44
27308i20kl06j281k343a061r82J002A38f098a808j752k965j700J481g39A700K025
27291C725A784K288j059A425f67k280K91A445b96o028N75K516m39m74o64J69J590
27274c051A355d069l271c444J498H0h90B157B81a695c0k871l25A356C6a913B579
27256A101a611j465k132K336i10L59qj612B395L26c994k262C79a34l720K96J444
27239b114j275m477K107B053L442C90j45a763N78j822K40C459J270A286i74o83
27223a657M67a07A439C07J38K500L33b76r91k75k615A689K237M98J136m60B350
27205b182Q40A756K27d194a765m3C622K321c58k238h28B939c70B681d52a68D935
27187B065J208o98a520j633J569A178K78h0k702a148j180R82A754G61g27j451
27171b178k50f78b14r88j822C622a98m103L2A929p42a513F67a072J40r28e89J00
27153d89B360K33D77c841J693h7C330A329b970j522d40n90j549j382a777k478
27137d255mA049m42J369L849O38l194G16b081B995Q31E07b294k21k873K120g2
27119b004f6q88B053a294l826a156F6P3a499k733C278K602j338b704k014Q10k26
27102d134a034A85a79m418D07c398p02b96B077d52A241m08N80J306l91a097j437
27085b534j41l732N7J634k084b399e97l676q00a319m2k399A198L547q72j202a278
27067c781C25R4L503n50K650j369b291j185B20P28J381r42g370K362d57G60O13
27050A373b820o62j149a807j281H53B02K413J470J354G85L132m19b804p12a420
27033a483n371b421C93a323C51K031c73A118b208j121l14j284j508b203j196c06
27016F83h38k907i67B449O02c20D63b444C14d573O84B329K840k42p39k087J441
26999C542M449F08c909k023d81A148a064L25C464D29J220D99J601G47g68a15q22
26982i37m880k004J564b639J41D87g63k673k92J761M45k083k79H51d688k55A421
26964D09a391m433R58b005D93a066B722A165C79K171i040J592a738L18j872r49
26948d241A155J598K18d207C07R75J871J728R2k026A010J605O215D412n20K136
26932F028B119e025D68L025b965J180j564H40a082j95M86Jm38k33J11L7e48l133
26914c681J295h93j765a031A33K436p54L60f9q90r94j86m697b100A943c091O82
26897b409i50A771K362A971e123K3a697C577I34a828O38m526d02k483O4p28j487
26880e036a14r00H61L04J320a124j70H79J74L241D99g30E54i91j634n95k636J684
26862d172g90j333R15B30g83D5a540A126M31G75a862l924A800a851l318J010A699
26844b298J46F36a804E39c594f65B437d183b078i92C936g74N6D9b19A675E5c882
26825b469B39b011A188c213C61e73A493L873j614c04D370e65l60k073J133D38
26808a09C151E19a839I83K76L219J7j457J052j5M081l571j300e73m79D655A106
26790b864D710j583c031l92p79B16g69k403F88K138I61a940e34l159E036k477
26774B559a452A563a334k599a73A467E28K871d85k813F45O55c358a321k681J777
26758b225A096a936O22a16A316j59N08P65m64b557n67l507L017B29a398B329a028
26740c269pM09l048b810a017D14b134d38D563a577A054O43J20b37A938K436a9
26722C544m21c928l58A34J086F05K024p04d275M27A562K077c325a592n46b05j647
26705a852A481n49a388A01b903J096b10j569r07a165B924l58a85A05K268N222
26689G595C076N489D186e48k26D97a963l251i68o51m435A0b596k428j888b727
26672c39k214b66D278j515a164I44a117k743O87A236Q82a956m088R37P56b18A011
26654a570P71j904k069K201j031a049n784j232b45B133a284d22m55J56j441C243
26637A781O65a724N57N12o92a16j544o98A745G20c191D251D54c48i4A163a596
26619b013H56J097Q95n79B72M8a58E34A49a60k790P25k437c10k001j315j264f98
26600A392J346A242d801C275L583l392E99J438k40a603A756H07c159D624B065
26584b884a072B637d32B561A272i99G38J404R42G70K72b269k86a49B891p80b707
26566e435K611E15g57B606J861o24a797j169h87C607o4b991a266B991j288B12
26549e76B823a432k038g29k269Q2l264b570h48G72N3a616D5J460L216M274j156
26532G839l262K451k056H8b938j82D398J34j328r00a990E96K70C99M439m87r03
26515C448n91B59L05j52c594A968a033j577k159a198N7k528e95A766L935q23o44
26498D234a151c59B415j054b229a18j380B409O75c639j435A097J103h79k022k246
26482e147B023I88K46J997K49A23d954H97K656P65B35i94k468e59j380k230L65
26465c804G76M483b80k284A486o86L431K477A738n75d639K27i12r83K00j809J494
26448b010A172b306A699a697B731K548b171M9A769o91a038F21j28D9b849M20d51
26430a921d21r46o91n18j367k888k692q50d377J943M19B349c147k272J219J658
26414b542F46a479j451J437B395q25N341k541a511B569A125K248j196K156A270
26398b362j562j32j316f64E02b576j280J84q58n58J707r69K012D332K251k007
26382D576A087A69L048E18P39j28b067H86qa842K18K91j017Q99A549j25O71A014
26363A306J42j13F61a450J23e3k495j24D098j066A500J505r90B34a517B284c434
26345c325q0J261a67A762K2a657g90D8a892j57k634J575j64m18J789m399K671
26328c629A526a614j856mo05B519e35j125C821J718A603L59k93L371D26g16j481
26311b197Q56n99k599J524C64J752j62c82p8n23A799o13g0D279m69J564B530L180
26293E710J906k10D07b345O28h14G51L783a370D24i8A241R62A005L424j030l03
26276C096e50C29b48B255I82K904J14A248M024J063j831a813o03C71g15k111k673
26259e499a793A878K86d00j90A262K347K058A578J38a20m231K154j589D48L936
26243D384B056C51a280j021C15K641C66A40a057m66m371l6b591g47A687F85b627
26225a577B33c395O86j395a729C512q32b472B608K671a414k51A390L737j025j861
26209B241L99J714j957J387A778b998N04a126B809K561j863d22D78b553I48h56
26192c063f9q0RG49a307B278J637c164k247a382D443p76k51g7q3D473K438i75
26173f16C576K55a61k390B52b20k277m248J887B396a685k695A598p09c419Q64
26157b555J083A166c35A085J453j191L148L70A695E69L709j621A027K586K087
26142E700A373a835B475D81a877E97d158j371C81L033a407B136R31k30e52m75
26126a027E534J06A93P7c788a489H65a677F92M361R51j864p22J334B042R80J76
26109C198I70M196n15k302a672M95k680a82j144e33B67M236L87A780M12j072a413
26091c555Q01o03k51A57J906k01b461B763p21k67a953j106F7R03J059h25j736
26074b561k959b028k756P71a587A666e59D491A811f21l147J496A910D13R60M33
26058A806a122B157j14a713D39a326j736l850b409A808i67B253D21e449Q77J842
26042b730a199c83e7k809M79J45B004q66a103B390L016A822c181B020o17b158
26025c778J570m325K224a791I60M495A827J080A365m56c279Q52b24A176M362c59
26008c019e68m52k858J115q28k159q04J871A715c143h72j492D021o51A653c690
25991a550A244J001K398k212m75a890h31l247A571m27a775n127b355J111K84n799
25975f759j905c833j38j32B3a94n97A469c069n350c172M74j747O03j146a933B020
25957B559o17N54K736P48C22k6j25h63C097L865B475N84G43N55L850A8b556P54
25939a802j619O32D40R20a07j589b09j080E01Oc162k7L52O2m239a884A543L350
25921D893L67m55j778J293A490L820A902a025A962D77O28a99B441A214h94B431
25904C216c075B023k39c635q99B42K470N40A40Q2g72j317g49B704a0m59m71l185
25886d125i08K13o277L44k11K901B377o1a19I94C7h84F25a398k723J150A107J861
25868B968O06n98a061J31b02n369K008E22K066M24M576B661b599l051f74hq66
25851h74H20K813H78a536B552d32o8l711n665j138L668L254f77A716a43q57B119
25833D576b132n13E42Q93o2J055K422G11a480j450a133D389k24A716F26e03B252
25815D746q52M62p93J97r48A195O87r31K379b63m29I4O146k353g31E221A181c3
25796i8m37A256n70a929A348J727C65J417c327J253j68A945a971b45r32l568J963
25779b782k457J983jE5h740r59M754K215J159j54o80Q39C112N17D76b472I5M170
25761D265A649p38P94L670j236M435C378f15D119r89e70B251j103R72K331c276
25744a082H02e729N69B354a577C69j66a866K46m449G9b992O67a025K02D88a24
25726bn47l45n457g97B737J89B24a642l94k412Q36A999a440C058i69B595n53E89
25707c05n80I69K857A12c293E124k61q5J83q00A504N65I03J034l47Q81q27n45
25689A099l99L6e18B077q88J186r68K21c53P9o10j399R78A269a079A788L080B198
25670A80N410k746g73C170HK555K819N53q19j007j599K394Q072n758l63p96k989
25653C070a700k237E88b451A854P17M666F57M057J375j060j653F34L802j714I92
25636a32F1L809a33l74A562f88k122J240k473d9B90b872L86L57A613a271j484
25619b755a037j02l8J18E274O080l815l234J003L583j029j622K048j12j420L116
25603I872l872k464g23B531j169J509j328L723A989m03J871K999A185c039C99
25587D253f37m45D445g87E184K553C110a025D529J521k095A301L438A727J797
25572C524A407m84R02c829R17G32a138A046N53K039A752J098L58b19r57D215K72
25555D487A377L428J55j404A629A71M28a97H88e57l147k76p32b019l207J726J229
25538b271m250A25K369e6A787C75Q65J307g70k152E8e372J902j930K265k867J755
25521d247J437j948b261j623a618C750J985j563j360E98a654j205P07k433B095
25505C10d007J594I69in401e79C195m80J865A72R14Q81P5J764j533J442F98L495
25487D193N86g38j849j395D85a156A278L021j639a674l781J370l304m41L266e31
25470A351K916r83c44q70N39l443j788K534j017b149l242k400L668J323l319J416
25454d703n61a229F41c115k312a307j971r65L46g34D618f91B172b513E36J470
25438B006o14m27K649A340b113C388J150k065j62M62F83K24J250K592A843J352
25422C195J200k165d9k376O26g19j697J38R17r64A111L12J704l38K141i58J3A392
25403b195i27C545J45c3F040j097a639j77f68A481J304K66M93P88A659q13J015
25386A861f9A002M21L154A192O200j198A888L39O52l67D47K114P526D892c29B972
25368F58J779K001j141a58m534J610F11J1Q81k36a30B354C10a558O31A315J115
25351B430b054A092K037k42b986k729J460J322R93M21n014j82k121K101b778d64
25334c223d06l85K94A709J266r99A97K51J643H08a967A868J357r90a486A346L4
25317A380c189G150r32A897L185b055D234o68K861A341R69L55a109n771a371A865
25300d790J114k972c191f26l274J560A085a924f7B412c275J290A967b9k320g76
25283f23k02D760q53I55P86K30M75q07J566j101a877C91b352k74M20A059a105
25265d982L34J103J202A200L090L893B700j292J219a413P3I31L100A293Q49j00
25249B042c7A446L672M65q45R55B171L388A020M760K477m29K383k027P82k748
25233F218K705C549N533n61k962p71a252D5L931o25b95B077L221M065P89m479
25217E673j913M38M268R66D187c45D081K28D72A85J66CK717r98K739I09a164B032
25198F487l151p76q60N9M50a187j69d25a55A25f26j74G319Q59j534B644E66c650
25179b593J096d38r42A470a570r87j584i00A799g35j529Q45l905J459q80n97K111
25162c231a007l797k220r88J135K716A313M011g28E070n37J844k066m5K119j354
25146E031A835p74J242a203o301c449a506C524J559q62a010l250A116d776l376
25131h152L271a875B999i0A60c497h16b51k8m098j861b745l76P59g22B7L944L6
25113D007R97B342a261A140a431N55q038J761R35b317l226m038d140A876b621
25097e973K286l817n342M441J966Q55l98b95A635J980m77H68b361k357J643F10
25080a947B23Q78a080A633b49A463M654C053c502N01j640a977A564n58c557k0
25064c577e23j323n242L146j772J555m57A809a311M88j315d64B627L145l12k640
25048B820P15A424p8J126l66k67J760A716J584J058N07D62a041H13c243J130C655
25030a398H01j65a829q60j544b000k533p13b031J44A111P00r05g038J521M98j046
25013f065K602j499D52K226G02L00d446O25M81h04k863J546J3a76D346A309b465
24995a241j354h21C333a713n1C19N786k912r72L629L407A424M20N57K176p8j245
24978C254o21B03N356R1c86q049K972K615l764k455J890q28o58c147O35l170o45
24961f327F1b379j98j483m50j375K752e6A091e89r97r46k95R16j001j83l572K303
24943d364k825j128M114J29a705C212M746r69C038L217j181J71A230F02g260J846
24927e414J549o03a455D6J632B34f8B928I93J514J213p59j209c628H0L184k63
24910C001A494B19P96J735J344a401q60j792l340n13c443Q16m57P12a025A152
24893i11D03c893a598k806L27j266a157l733j692a247D86b888G18M99J847a076
24876h566b611k063m441J762b960j999K42J521a416l24l252A636J806J896J420
24861F758j887A176J662k55n11J134m58q28H51N330J574K629k392l333E57L084
24845C641K060j110G4a185k495B033c032A006J811P19A174J462J733D70b032n63
24829b595j50g07A067L210A457i52b67r77j945k735K766j950j412j333K267m219
24813i805L211k69B418A55K522a93o23l526A002J694B06g65A091K436A025M88
24797A513J564J520J371j250j525L082E07e895b303j050N69C646H11L706H52N327
24781F179J951j515J346l926A843K276J57M443j305C305o03O423j501j316R35
24766G243j909B197K313k163A15N625H42N213o97B433K804j920K130j176N21K817
24750G609O84B225a044n21j167j46A1M63K094j19K754k455b26A820k34R59a559
24732f482l982M003K582q95n469M062a270k470J613A109c126A908M82B57J515
24717A772L159K61A878J298K769J807k423c9D76f164j135a771k379n745L219P21
24701e955a882Q12M3D28A10b827n90C411j379J985N91L111L733n275nO86q66l81
24683E611j124M552q87j052B572O469J1j740l217j688g90E014L226k523r3M682
24667A0306l388r76j729O66j61M63J159K06F83b084A172J5L752l42J210o9j373
24650D365Q99J170e4B645J805O03b97B020r18L083M70j68J796K847K58K027C582
24632B021L190o63k98K755l40j849K684k392a149D139N21c68A102A28K94a54I47
24614D431j760i8o569c126m464J25A159d027k265k910c067j298J778n008m76J097
24598f974I30a99p03A046c14j809j690k847K947n82I2h986J749K872O82A006J13
24581A119b874j710j98j253I21c029a436j318O04k075j712o53k312p0M311m812
24565i473J76M422k23J671A835i72k648j512G98J375j0A41J799a606B098a308
24548A075K475a226E2K062K8c717J743D614J084A301l08J560a058J24A887N656
24532G543l434j527O211D201H49k9O870j065J239l485A436d919P69j985q39K273
24516d701J145D70J608c905J77O40e56k138M32A636K558o4r99c630J068G730C651
24498D00R14a688A425J570O38Q4P31J724j7p44A083K984N92P57k359J392j525
24481B924E11b158m00c82F90J277C01K939M19o74N00r3K479k459L097B126K642
24464D768pM52A926J044I9L260j321H53P81p79K650M349m38A797j57J56l84J930
24446C342p68K435j539a483A595L135j498H48N092j629R187K180j089l609P530
24431A8510j775o612E030J812p87J322k319K420j524K003l834J176b52A960L4
24416A994K61K457M415N693G347l87q81J104B184K352l83j171O32M757C482L320
24400F802n32q14k544J484N175L024n510K615l497J917L65j466A663J505L809
24385F977J376K566l68K271j237n101M169k61k183L166l669J688M72L042O011
24370A8919o471m138N701o402j481N60M44J498j9O51C489K729j166A67c63m471
24354d834b358a000B494A55K74h701L893R53K54k196j51K373a36A068E17J305
24338A822K082J059p97G01M303L360K274K504k169m193k906J220K565J716l106
24323F269j722j896M978k669b265j681O10J335A462J709K147A65P223C329P54
24308D083K450j578J930n67J096K032k826J992k341A283a266D404Q81o02L460
24293H143K872j527L584j7k244R03o22J838J951n474j236N255N274J079L27N17
24277B0623q2j853m905L50F187L830n86l94l586L997r05l775p87m06b967B354
24260b77B088O086C132b49A878b968b24A767J439K221K315k406A316J319K198
24245D833l24A647L806B417a053j577l353m084K815k872m240j264K201Q39l62
24230a2950m87J889M251a234n70E93b555A639o60P313M38L299E150I18L688j110
24214C496O00P36k86K72B251M979l531J481j658A376A04g425j202J675L443j968
24198e477j09l730K880k06e25k19l439P83D301M51J764B431J069F31K314b634
24181c367m098J098J786k335K290a815j744a041p51l09C404m46A222J928K340
24166E490L114N94L129K395K754k22p51N536m289K18o18Q0m679o337C194P09B60
24148B414c627C93b542l766M06C122l22d692j096a971A644M14i17j652j078D841
24131A875a282o80g2E352K355N248j595l227b58j78A947J801A690J830J216J522
24115F258h49l427a004A74L279Q598J623m093K004m345k726e01A083O42a774A623
24098a24B842f62B873A2J887c112j598O41J201J021A58d74n52k2C050P69a611
24080c243a257k993a278H087J46B225K048P522E748K57k368A228M210J985j637
24065E786M648C378b99j322b00C904M199K5R27P9J306K118J753p57K565K922K880
24048B1921j126M96j44m022o175J772D726B155a213o519k021j295k091c349b38
24032e862Q89a282C5a187m008k500K767m687K743J120D44Q39L572m32j166L048
24016F305L125l364j164B136M650k820J363I53f94j016D65d456j4J229A295b346
23999A666N787C254D62K814n82A67K458H64c438j40B170a104l0j353B989q48p33
23982A408J743j223d323E26e267b480A923R36M67L852k179O960M151O17l246j114
23966A2367j503k232j911J059k902L616J274q77k252j621a376E64J292e13A173
23950f86B011M875J085C050Q74F07M54b910A444d03F61J210M740C234M683J090
23934I007k107L330K837p34M001k586l068K952M015j429J413l745L395l376P60
23919A4665L355M57k893K646L295q596l406L979n612k51O551E469A196M035K873
23904H104R88O397J301r69l979P71J187k624m621J883C867A481d121E503M409
23889I912L164k335R01k590o13o49l417c99D015K375J05B806H77J846L224k526
23873C421j577O53L273j445A829Q18G44d277o407r00m579k022j422k106L786M124
23857a3803m22K774N10e022n573K606l888e882J559A946O320l099A546L762j390
23842C918r45K217N949l408J094K574k155k733J881j712K168l672K369B709A205
23826e013b041j721k235j513n806J00l702J736k516L265p521K668k257R693L106
23811h744K557p721J653l402N237o87a485F50N179K920N929R45L137J723l347
23796A7136l468j379J700o299k290K687N43K117K87M639j850N4J078k405L667
23781A6217j706l864R35L147m730J706o7M278L316M639r201M916j767K319n384
23766A4754l16p057L583C003g79r156l36K15l171j765J703O626G30N649M449n159
23750E669j965j388J024j575M38P092J376o40M328N120n128J950k108L537o071
23735A1659K578j204m82m777L967r34n35r27K744n231L382k581O550j005N348
23720A8552k485j618n179l157k18L10a361B838a792m771j17L37K910A217K966
23705D183J674j172e566j349o371M586o888K420O076I9C4R50h06C132a361B237
23688A969M669k083R142K443L356j919J292K665R53m271Q69j750K285K99k982
23673A6937l657j2m751k911j419H29K499F95L348K901A458a204j548k385c88m875
23657e263O90J790k55k466j573l044b730p94C562e37n102j313J706J735I617K02
23641I819M081L672N016p722L550k110j730J127j44K561m642J870L570K73q60
23626A8331K09P5J984J217k138L706N993j467k103m631n596l168l054l568P67
23611F557K578l39K282M922o262K442k019P157l476N723l197n38l002K630G156
23595A2464K294J684R65L525K421n80J745J172J683K788n268N079K459M204L284
23580C9919o453m1q374l2k052j992l700M805j52j174r42L164J306L642n124m286
23564A8514o837k114C791b769r783k49n353j50J563L385K119L767m043L92n015
23549a6136L318l50j352J64O659K234J23k96r80k3B143h78c32m43h3n07j919D810
23530E125K349l477J659c561a303k878C49J80L319b349D371j577J634j213O438
23515I653l126J909k017J145E64a704p41a081C37M93c025k948k593L091B271N982
23499H253N787L506m558B584b085j278q671r688K685m525M112P25P631n024k48
23484a6366L895L139K141E287L34L611A648E7Ec580r628M661a304I29J724M727
23468G380j495K905N36L480l728K539E135P14A55J281J229e673J405J168A13J204
23452A317J61M025K05A61O011K88P104q07R876N876M275N500N656M219R893o97
23436E7355J156p727O13k503O790k83Q878j067K085J38O446R91L565l387k552
23421G0498k064k808m982L471J939n15L664n639r638J113L313k812j135k987P633
23406E9051J991J694k558o974p982m191j1344N046m957P610m910J692J899N841
23392D1908o410p66m035k588o949L339M294R263Q238n9k240L949J836L188q91
23377E2077O996K87N400Q036N515l95n834p426r772j1628j1237o188q646M969
23363B2154k142L694J491N351M721K876l426k774l526o586p385L853l711N314
23349A9904k225M118j0065O091o98J2058j482K229p092k525n123k245D885b520
23334b627B220b150F80a862n218K162A834O113Q350P069N051P58j523Q55q378
23319B0129P668r862O211j0528L021C964q91K570J1539p69N666A0430C702g155
23304a0001n271K50k333k119o678L315L69K862q17L592M327Q5j098f685j746b839
23287d808n739p965j4768J484n149k365k519J4296Q031O576J700i3I134J5246
23273B4380K180O150j631J258j3832N924n650O432m647R643o179O434q181o991
23259A5290m566N924N407J0885N515K638n124k369m175j0963j706o024B176c168
23244b0197j2634J590k50J1967Q380H781J0671J7204j34J143r796J030j0429J183
23230A9653m315M281l344M636o634k734C690L156d736k665j3101M4r480j783m4
23215c1765M541J3260B751P250L30A079b088q156m987N77M478d08A1238K4700
23201C5938J5910J5011o491j847L992Q66N106J5787P695J1600l947J168j7507
23188H3281q181k2986o334j0244O299j4887l067p460R277O42O499o983J721p470
23174B0107K046m310K979L565M595P400J2315K6063K7668J9834P049k363j4720
23161A12228k2398k1179j5710j9780o672p346N810A1788k302I64e723r126d173
23147b477B673L856J1603K647K0929R364Q312j5050o127I439c785j0275J037j1429
23133b4452k916m11J2763N096E844L144O857j620Q225m1J5012J5634J5141J7187
23119H5383J2192K3868J7481K2155M088M013j7766q126j2173k604r047Q601m639
23106A23426K332j1183J4685n862J3302o478M024j0410J2697j738P650j1084j1576
23093A19785j6799N546q347o718j9759n017j9571j6964j1923p754d37l076h80
23079B569j233a1509j2861k6904j2143r914L885P226J6391k48M970j2221o146
23066e9474j7659J7278L958b3209c149C2660R369L1903J1401K9196N537J8077
23054A38143p393L009j0908K623j3768n795j8893J882o265k495r055k108R31K1092
23040I1000J9757Q955o473n322p594j5066m382k2437m182m058N212k4241M62A1035
23025A3832m880K0565k140J5202j4555M788q665L0088Q691L3955p38K8581R937
23012A34661L0892K8112N4666L1814L3622j609P507j5254j1568j7642r292j2684
23000B53225J4256K4279L3427P141q740J30J432K221k1154j3575k8690p235j8328
22987B38389R176n987J4454l1200p065l1414n311l0908J8480r585L1694k0879
22975A69844J4212m236N1890L6715R7971O7454Q4549K1181K0866k5867K494j4951
22963E22122J5273M598K2813J4494J9409K1310J6837J3755J9064J4387j5898j6553
22951F51611l1822K642k2544J687l4730m622l7469J2191r472N5080K1626O8580
22939F72758K0790N5434k3824L7333k3900M5158L38O9309M7383J20641N4832Q3592
22927A159844N132N2859j2035L6314J6553P0314M5268R4082O8732J06447R0489
22916A733999J05999R7549R0932R6102R8697J43340J16018J58423J39702J99862
22906B980623J59476K57395J96959K98784K49754M29179L75385N92965N83751
22897F124271Q91257R06226J137852J095750J489932J559571K097680K382252
22889A7684791L249616L923079N332138O582120Q714212J0221918J2287540J4431176
22881H2426590J7843754K2237751L0214010L7665105M1070657L5283784J7154436
22874B83896087k0883058o4566829n9409367l8413607k5273712j6728068j2165409
22867D6456037q542382o810367n093537m322560l343513k896934k054808j822972
22859A1568964j319620j386124j017914j013036o71075p42342m65634n41147l04609
22850D107463l94114k12068l39714k07340l09950j70727k28738j14957j82454
22841A947401j03001j50028p4124j18900p5398j00854p3064p8043l9320m3643
22831A091026m5402l5914n2120m2618o3828m6629q6291m3049o5072N01k1885L7777
22819F26496q23M4229l9700j0426q1935j5683o1105O264m0181L5659j2716L1038
22807D81117l8342K068o9160l7757p1966k6037n4273j5299m5644j9052E0430j7875
22795C2555j2918J2303J609J0749l688n891P309q588k014p089J721G990L916J994
22781A3900M6158N0558Q7498M4283M6120j4708K065l6092j1860l1732J6602k6745
22769A86047l505m4238j3630l9001o866k6764J6035j5554o126F772a1080k2107
22757c3187p581k3217R444l92P282l106J7172a3059b038j4743k0415j7892j5745
22744g0833J387N952K1654a7670B4572L4080M4583R150J5729p654J8661KJ6802
22731A55925n269J6737k3875k024j8506J9091k245J0339k2665q136k5910L152
22719I6614j5960J133j5834k247k1274k906j2196K485j740J1186R180Q707M650
22706F1798j359j9005j2851r59o140l217d855p162p574h226p89f10D852K4167
22692B9019J5351L5215R886K6299Q447L0264O176K1762j3560L34l0407j545j1115
22679A26126J5496kR202m968j0008k6414j2529k0139n795q524Q78L264m111j2830
22665D9646j6852A3115C525g929j7288j1005r989k253j0925L905q771o745l701
22652g4701J4435p799J0721j0800K47l963J8260p145L951j2503R450j1395O665
22639f4577j6697l438j0407K754K33J8567J7498b2207e209E650O340J8427R869
22626D0286J3087J210q55J918m686O661J0714J3932k062j822k0886m584j4814
22613C8099j0172q762n786i8B843J18J2516Q487K4386m186J1789o67Q57m723J181
22598E2601j5421q287A0875J595A828R63a7437r710k7379j1126r471o474O80K2030
22584e8887K5344a0111E893J8584J0028q028O37r153L422q264l092k805P979o575
22570H626K190m546J528d839o960j2521n805j1379l656j7822m021k391O262O738
22556e6394K5448M189a1668P96N357q411f805G24J6456J6138J9053J017L296p624
22542D9060j2425r114j803k48n27J1037J9282J6161k341p561j1433p294j5551
22529B7243k35p090m334G434Q864m704L686E619Q871E857O180A617L085B205e715
22513g724A0287N260J6467J6850J3982j628k941j2258j2152j3862E158f645J45
22500f500o97P40j837l008d889Pd29F48R182l561a330l223K128d49q54k398E940
22482B598J662b613k770l899C86h51A2023J0122J6933L113Q963o45O617j015L012
22467E9123j2237k607q958m148q586m998N023M064Q991K748j610N065l633R95
22453C9232Q536o021j996k065p278o791m994l659N021p275l117b121J78b42D335
22437C935Q924j702l961b807m378j5303R266O388K177l096K348l488I45P656J4378
22422B2979j97N046o949o198k330K010m99F398B492L514A880e063P6l983l052
22407a2022k259M846J559f57l626L68j970A025d488l666n227M569q710j38n847
22392b3507K394N544g564j174b538o811j733m706p315r538n762j2132p902m371
22378f2808M096J506O741L232R408J570J257M020J705l249M816N633n58L45L880
22363a8406h798j843R75o136k073n234J86k284N444k168M344o975P89l21l244
22348b7338j2167l609j0104R879l227M344k334K903o797nm075l16L58M166m401
22333e2723k690k749p92k810k84o29n730L508M75L916P292L72l3J0922N17P919
22317c3519n711k476p497P041m957R364P674a4625J237f615l373b985D446J251
22303E697L367O300o596j82P91O379l524K278k130L190m33l262m932C186L85M95
22287D066A056l96L860J735M902D335N881J946K412j19M453K486p23o513K136
22272A6294G431K14K110J703p48R155M718N637p966P069m314O340m198J762m067
22257B4846m570A0015C174a16m576J304B704c35E343P220M102k601n353M660m336
22242I035n65O48M700l841l179F8J398a027B955j424N994J692M523m211K483n185
22226F827l041R2N041j930J474g91k461C704P239p63P716n270j676m653M687J494
22210A2478O232j057k50R06j899N666j711j514K68M773m008O78R37J265L015L220
22194B8999L526l84o260K447A3391n511C280F38a0986n372n051i135m876M552
22180i459l226K641J267J29L698j14l860J29o416r41n661l339J096O437L517j591
22164a5693J559N572J526L227A653J062O616oK078l367L240j081j665j498O60
22149G692k065J527l072L756k515K462j602P471n557N865r44Q661m645o643a65
22133a601j353k47r688k406P629c368j951L58l612l669K951l102M05K606L349
22118f033l242J365k489M695l635L883m331K946M72B05L261M036J79K454M494
22103A4629M602o761n630o31K672N38J0035m289m648D609M35j107L540L633R20
22088A2030B783d387o79j405J962a188k696m267m690j451J034K230m62r64l474
22073a5928l871M854j829M89l795N485K551M151j180E75K639Q239l075k466G33
22057G322k715J085N08O629L675N284K16p718l344j105l000j253j570K791L067
22042I872lL77K771j141l058j542l434j595a278r55q336L285r16b615J027D70
22025D11N3c566j117m960a887r51k150k253l986k271N26N79K98j160K691l024
22009a3588N192A63J680d91C987K411k982N011o96k208K937j183N722K605K684
21994A8288K216j495k054o889j402A932p31O92e157o424j51J26K837m427N28k155
21978a4823k122M277d617k650o85k62L542l549L684i38j211o803J67m396l062
21963a6243O162d219a755A781HP64a576m293m334L29j424j570J459N074L096D332
21946A1212L120P43j212P560j857m753l400Q534m002J756O67O354j024k213O66
21931B2151l098n652L264n522m608rN036m966J035B074e49n160l640j899d312
21915f687L34K260n437J471j683a920A709a64l417a106j746g41b4D099O442M607
21899A5148m713J779K824j198q91N080l537K398J960K839n238J975m830j520o007
21884F069a83m552l964d057a91n457l808J196R11m090K009a891D037A837N18d403
21867h055j678r02b957l331k358N03L878a896K83k463j828K905j897j0288N576
21852i608n451L892L684K55j799c004j166a733n82j340o810Q58J785L259k801
21837g364r80n594N39J453K4J403l785j522L352K05r71N634k228k188Q05n555
21821a6772K061d883j706J886J868f16k441b89p10B311a97B529a190E35a058A651
21804B65L439a645Oj197q38D8J970K603J158B77a838j926J790m972J788J383o94
21787d469l06J484l217q189l744k3h658j362a235A159J77c09H520j687p24J883
21771G992o95l509j552h41C72c004A879K260M414R44j079J705L573m413k44m012
21755E027J591c014J402B465I54N122m97J466j395J367j955A699a249I42J998
21740B940p79a242m515j589b078i69C743a441E00a155A230b51C687P2J575K794
21724H128M59k959J596k660J720P03J878k17B158o03K007R07N64c47k425l407
21708f179m674o050j904q29k143k661J447N266J79l755J794N562K304b269B339
21692A655b192C908j669K476j362h15o11f02l922p74k948K599O53q9m3f30m056
21675d686a983r20N60g72B947L204k646a780L83k242j1a645E579A964A71M262
21659D433j182K43j488L245r40P19B259L320B29M031k05A893c577C929A950c772
21642f390j80p27b797A4L332p58j128M87L418j393j459q32R14d880a811A827c742
21624H67c82A778J898e3D132J137m77M590j819j117j066B564a739a80l143f0D96
21606b910P20E39a432A815l58E0j1J771d306J201p55o886o639L465K315o73O65
21589a1613K096n085f552j027k266J302L866N68A429M092j14M17J594j282k51
21574E885M401k700K512m857K186e60j61n15D354j53j234G26a95k819a264K79
21558i85C191b22H124L848n54K347n707l345A663F80R76C84J136b815k540j768
21542g123J953m72l616M319j162O43n115K689L189j254K429l225L142m767R40
21527g430b887K00D078M201N374m198O92D482M403L642L232m532K110l505k461
21512G371A737a354r79o05j006H88c211Q85g30k46o07A128g34n580e43A230O455
21495G685q04k298A544a740j438B967q28o14R08I78d054P21f83m25m217K532n170
21478g963j760l183K181m296j17k180J374K77m88L07J446J506N774j646l71L922
21462e217Q03k191l425L367L00K27K104e14p622O87c093i73l917b443l08k655
21446e406l32K031l912J216B8K897K84J093g66A589M794B27O380K14k277O010
21430A0554J680J0089l174q16K58N772j246L663J909o527J481O075J416M2j068
21415C0108L380O430K195L052l33O664P419O185M520O921J51O925O64r48p58m660
21399G7915r219n720m152k205k234k786l386K294O855j388j65P840K604L907q82
21384F9278j613m410q99o788p084k171o541o104J218l238m230o994l098K173p25
21369A8774L190m984j254K234k646k617J729j720N65l379l081k968A266J983K172
21354E421b457e3m768r34K614l76L48j273q80n9K403a54k2k037k337n618J627
21337h541c358l17Q38a402k35K75N34n750L265k452J243r51j972K876j457J81
21321e845j529j722J947j669J012L741p400J201j503L396K057K968k367K689k816
21306e840r0J182K367a157E65c260J477f45A231O80n74h30l920a973k199l45M96
21289d021o54k00j319j437K165n40m265K731J669b816B155h60D647p76a009K45
21273g64A700a857G19b226A0K792j052c174m554N52K853N81Q15k701a652e28G57
21255d703J318D1K19K204a422C799j18j75L226J666j926N25n4L622M693K196J776
21238A9230L5N756M499j44P308P355O798j405J648l04m015j451l418o493q62l654
21222C0883j0503m996k715j093q11j227J74D390P66j730L690o72P7N998l97l697
21206H425M590O260l511j012Q31l041L117k848Q39L19m127j102K886M392L71Q500
21190B4889L912P570O600J3267M032J3676K579R725J3156N12N530m254o112p526
21176H7556q995r489q334o023o574q345q279n818J80n198J608K975q344J223j212
21161A6931j75l681l204j071K809Q51M59K947l031m349n10k9o61o18N1J144K161
21144A0024O427j485K048n24M429k255N194J99p96P715J123M682L722j5K387N4
21128D2929r02p002l347k588l263q349j463E497B446O543k463k042O51j582b905
21112a753P6j760o47Q47j460a739N57j807k665a626l184j579j856J87K268J479
21096d311J910A05n2P28i98E35H2b481Q99D1g096J375J012k512c204l926J604
21079e526A105b033l987k689L037k81n50k65m26J665b024n026k539a842n39l226
21063e607J357P32l75C309a936%l226b395E631k80B95M706A934JJ05J460n53L067
21045F014J35J583C121e123f39A748L779J914l334L60r34b069j582G72a044l151
21029d195C668M057o10j402M409k632n26J502q86r38Q68G67J858K447A129e212
21012c703A409a432m98C13M43K859j782j86M294j685c153j106m089c168l047a377
20995C20a174B80a602C006h33n098K306q8J579B9a488D733b486o309Q15c863M40
20978c423k816k718K343m430P06L844n14O49J184n5N89m143M003j649b169K92
20962a877A923l44J747a250j556R83k659b044k757h3k055k385a611j888j063j215
20946e777J896A324f06j233l059J486h14E115j084J728j042l03A781O20c520o09
20930d129j98k071P93N3l992L28d387J399j923J860j713D8h63J26B3e526L56k225
20912g395b505B340r64J602C84a883j39k616j539m95K242l435K501J259a878C02
20895b30j183A09a459d51Q5A762a432l54j644B44b832E66L451d28A711Q60K285
20878D856M748C184a355A176Q79M33K607b56j408B080P65P34M806K325A093h53
20861B017j50N723J309B779K559k276M27G44J455H39J992a552A144K211J712j410
20845C657C65d130j096a282n33k070I47B12a756G074J172B997A368a673G17a132
20828E49L211a939n45D121p44R00j193C78J444b066B66M65L057B52a769k817C369
20810C370L968K753L781q9j423l675j300K184q84l65K464j282J488k537J177N64
20794A0194D918M278k315k870H72j40N434m29K554K65m065J469k52J836j841A281
20777a042B825K797k44k061J967A922i70l030j574b717H38d97B312a621D881R7
20761D978l03j592p39K011O85m50n26K176K064m138j115J049j785L384J497J451
20745H647A492J103l75J704J060R7p48J432j8O64K493k63C710g24l40D064F55
20727a196E889J250C455F24a321b60j439n730J40a550k757a18k339O03j799a467
20710D230i60l117m187c307n22a810d02n949b881a303j662C776A085i93A122J18
20694A240b090C381L261A987K462l66j733J203j82H38N427K045p54K761m099C096
20677A968j05j87J838b969C341a678B373P939l220k795m67J325k328A010b966
20661B756A038C83O844j341J081j03l80O63J755N127B926a262B578K024K943q73
20645F672E26K561a89A836C43M149A907a901A057b770A525r0N978L402m672K157
20629H300k663H73L103j515L24a944j572g48m011A349m49m03J045a767j454E77
20612A792f59j676a043k089b90J10l449J233k147F51b834r83p76j597m12a737
20595a905G66R68L223M41p46b326k295b005q4B870k33k27d558n01A720e278b531
20577A017b603e34j645A125N939A124e035g81k02k488j125k320K970J215q99a778
20560c348L96l478j29L025B607A092d090l236j94j09b532j924n72a479j597M34
20544b642a6n409a472j978N64l26j925J257j597a084k363k191nh63B23b676C93
20526b781m93O16j762A71d747j087j547J548l194K633j117K995k921J879K729
20511b829j00q66l86Q93a476k153n319c138j105k55a047p07o18i42k93H27K782
20494C609A183a702ma60j696G96J817A009J064b0A112m55C00m4J646O04n68J146
20476C084K491j311j124i78C048j413Q22N54q83c18C501E09b520J202G93L845
20460D638a223l579A664D0c452J495k199M65J002a97A152K357A021a691l069K029
20444b731j097K99J256O59k68A169f77B504A057K668J77a339A586K80J845L205
20428F916B599a053A306J392J568G24b517N25K33B404J799A233L442Q644K773
20413A6092m986l903k600B217Q21A362a180jD741j002A532E06c302A056K443R48
20397D447Q93A369e217b150A916G71c066i89A538J648I74J8g16J86m64B854h53
20379F07b444o805K670l407L009K182j624a44m77l626i31k045j336k113K588a886
20362b312m083j23m49o93o83K649j646O89a770C71L059J678A111b063d80j219
20346a699m05h3p53j532l964j416A832N94K7L491j696g50F70a673C86L734IK598
20328B607O09G56f297K207J12C405j299K021H26d146J397d72B979J829j607i45
20311I03a32q77j525C896j308k64K822J296A946K302m41K122J711P06j093J674
20295H927p06Q92J234N05l223m26K704p74C748K533J199r64j751k83K729P21P97
20278H729C420Q63a314D000N90a305E69b94A751A05c250e07i6k15j058C667A793
20260B900rM199o03C078L45L700k732j679J49L864j896P59J404A768p09d911m922
20243i833b018A006d551A115D36b732o67B785h0l901A418m43N675N56b10D281
20226A800B07e018J653c08q09k895r53m803M479b588j668J753A341L026d67r08
20210a375f87o29j522k278K139J332m39j854j333Q15l589J950k06j341M03b475
20193d063k558a495o83k942J450C223j191b778a2n88j021j287P18j293G32dE242
20175A847d888K325n69a207l640l132L451J464J282B645M007d11j996a030D344
20159C976A884K097j911e313K331B231o26D75d722e85j685j555m5J803k387d27
20142c13A370j92c135K33B233f0n057m14K750J000A695p85L92f62q20F84J993
20125B677K369n82P2n14J568j161A75K450L794D30a499G83a805b8C304A535f62
20107d7B135h29L21l113l65k985J507K52A878b729L24A267d6l5k696n89n67O61
20089c272n00J438j249a706L74C04N90K87b031f45k361j628a305A107K504a772
20072c11H4J747a600g28p67M49c95j328A994q04J839N314C229A187J179a072A806
20054H48M857A55J168b335k273m107L030d2B325a25B646A289R8L332A834A99N6
20037B55L535K80c783a032B862m66M957A373O6e78C778M226k518a26C286O20A562
20019C68a985I59L863b444D525j871a299A801j59M37K631A996a661g46C627A356
20002c466E009M60a13H20f39B093J256OI08a068B328a291j215c30D486r1J477
19985E872B230l71r13M621o90k08K798B447p83L889J686B023J56J802J688O21
19969F290D70O27b932C666J267j806l74J207G99J685N757l156j775J999j752P02
19953D259J001k322L38q6O140k447m14k166m60j873J842Q06k074b98k013N48b06
19935a428B878c281a73C445j278a739j043B685P50j86A430a017j943b05B22J450
19919A672a18o75B479r94L55R67a358j565l043b712h45G95L204H79J92J815l62
19902B524j064K23K176A288P00I27M083Q68B629n54H44M181K493K236M11J389
19886A1554k223m138N771q24P550N23Q50O615m47k574K000k59K909O919J654K342
19870C8222L086J0917L467j251M815p5m19O50M764N122k144J321L00J0131L998
19855H2904M345K635P349R086R238R72K270L346k131j179k328k451q10o709p473
19840I9064k12j898L339M30K399O889P658O208K609J075p564m293q62j261m981
19825A08600j0211j340p964n996m624j076l982m190n778k495J093k87K143K879
19811F6772l514l07k660r373P22q77j030m209o442k954l395Q43L31o080l171J562
19795B6218O95l763o389L753N551J001o67L3K429M31l501p37p85R46J786j183
19779B5818n17m542K763L346l569o120M202l298J624J103o010L772p55o40J460
19764A8637m188l944L427M159J458K196M42K9q57k459J06j409l786K713l85k906
19748A3233k471p13M747M95o09k852L724q21m582J160n99N77p13j932M16J584
19732A0644l037J855K428J952J779k867j648K192K205l526o9j230K299j784P04
19717A1897l250k802L76L847J429n058l199K253J759J345K922k964N322m712m360
19702D805Q76J206j83j331l23L423C998o36A646g33J70D047L050l138L467l194
19686D232O294k625J209P37N341q35j645K158j863J571n224J572l403k013k442
19671C064M42n39j120j5b557B047K590f81o34M65A203b88B296K366p95e25B061
19653a491k403B678J94f18A535B7c27E546d8F75K554C37a409j64B338O706n0D430
19634E126P933r6M453L564L574L771L105r45l254l072j1040k432J252m808l83
19619F748o24J782k91C429J289P96N32K388j933o69B083K051A590k36b842F65
19602C829b849C104M91L550o05J505q32K110C524p91q64K795J853N542l587C771
19585A1741J221L366j035j606k327J363P719o43q18K340M568L73m026m589p041
19570A0606L147Q13J584l885k61n52L799L113l511j596K59k78L663O58j974O93
19554A6278m134N815J092k714J177O50l964R88n59j190J855p94j534O97O07n404
19538H866L824j205j594l39N702M13m38q92K630L429m05L43J8k881l101j431L675
19521A6614j28n480L56J764K946J237j927m168N195n827J802k033O976K275K053
19506B1655q10r91N762k229r19k814N112j864m971r13N54j452O941J194j071r39
19490B2245j502N766J221%k224J315O38m98J202N829J127k037m945r57M767j817
19474C0130J596L013J68o651k600r77o04O75J966l726m315r12J164O56l403K649
19458A8829M020o311j930l55j650L193K700n20l860m276K714L104M64P11L26l221
19442A3938K10K508Q24m576k154K330L957n207j033K876Q21L56k151M819M00j693
19426A6225R6O932k226j018L768M801k058K138L28K639k32j930L07K753K219n787
19410B8955rN557k27L108L37M057j388j479M647j722N171O72j637L86K032R382
19394E7842j612k093L908M667O33n733N169N077L567O57K20k106M355n56R39j648
19378G3286N260R01P227M157L514L064J871j354J378L313K310J01k737L226J627
19363A07144M592Q87l53P58L891M858K156L723R293m77K730K751Q313K446M240
19348A56952J751K635o4j036P647K293L199P844J1031N011L571R169K464K595
19334B15062L904J2766P995P818K581O123M418K532J3244J3284J0974Q239J3966
19321C22906J3969J1282J6698J5040J7075K0235J4663K2048K4981K6260K3826
19310E28983L1151L6656L4179M4378M6001M3781N2021N3631O3411O7226Q4825
19299A086243Q3953R8622J07883J25628J43653J60875J85480K05898K42384K77673
19289B718292L07628L56210M05464M64570N22189N75038O31528O97938P43768
19280G422625P54199P34276O76143N65423M01742K48268J16173N3921P0010J60238
19270A1203018K95934M72822O55054Q46977J013980J173116J282059J336832J318345
19261A9598137J234575J086374Q68650O05429K87852q4225m76350q07276j005346
19252B1307820j025446q83199o26935l07274K4566L41127O21171Q33293R57734
19243B1242857R48449P95631M92788Q5415l65335p69574j057112j243317j349424
19234A8780378j394585j384919j305240j173189r82477p82715n85810m02806k47005
19225A0521632j24366n1689l5302q4551j97199l67860n49343o98761p99977q24319
19215F788265p95949p23957o45133n62645m83526m14285l55682l08758k69191
19206B229139k31071k01308j79298j53416j35662j23303j07851r1705q4395p3514
19196H47616o0779n8163n4406m2370m3453m3113l5030l4891l1837l0285l0241
19185C83048k1811k3925k3491k1636j2902k0754j4194j6145r478j3189p487j1607
19173A86429p919j1707j1501k716j0100o251j0245l703q506m723o007n673k056
19160I5322k034p553m599R13k28K4n520o990l814j480l59j1704j747q26k273k823
19144D4309M246K350l202m469k075J407K82m092j370j735R5M40K519k721j582
19129C4402l432p057M398q31L18r14J003j242k122L229J95o8M193m041L102j26
19113C1007L601q90j445J869m045k963j374J817J818j766L722k504k857M509m938
19098B5561J95m14K515N84l395K774J21k99K255J669j627k880l83K332k197j02
19082B6709L13p87J474k961L771K15m330K293O08M551k816K62M478J643K01q494
19066B7130R63j408L151q54p36k698K007k192J982L541q302M082R99J81o231K993
19050B4608L116k866n445l338L955k678P95j322n489r69K74l252k215K049M122
19035A1345j304l620k597K507K159B404p65L36J332l53k96j89e225e18j504n463
19019g485K821m685K968M95k186j450R84N64L34c597M59d68A14c87l67k256J458
19002a552B911a28B136b254J14C944j142d80n383K075e30E507n28k228j19J138
18986C770j174L064n67Q88K672J677m533o03A992p80J699A199J167K189E44K684
18970C228M710N3o60C665N494B484L919k117K138B150A069J352a30B052j71K011
18954C892j856d748l123b245j433l479g48I2J213f93k505M07E21b387K0B216M58
18937B674L762a735j340B588n15B44J277c521b04Hb057j163C020o81c203G57J075
18920A832N60M525A745K367M10J758M238J891J561m822j241k27j53C288J996M405
18904I689k923j950R26L274O78p88J354J803j452p57M757k102l175J385m320M038
18888A0437L399E282L262p24K973j412l22l277L163j553N30C535J19P232K318
18873A3204o71j428m47o63j040o64O778l542k633p61L096k319k40L170k15l015
18857H610B497N536M990o144J306M00k5k635J817J151M615k446m754P07L714K299
18841A3028n475j299M123R34K049p30l301J534P195N38j679k789l774L371j694
18826A2031k1l087l271M941j785q52J869k770C433L40M427l036J677k013P7K064
18810F969k667n03l40M220L220E240k164J443J253m80P13k283q19I60M06b318
18793a40G33a45C67M745j104j437L128B148K411j690g21q83j90l659J287f42D99
18775d640B94d71r51j970J251G94a513j863m365j683K504c28m309j757j705j655
18759i754m1k247M96K171N1m308M186J531m11K516b500m968J035N1j389L323k276
18742f724L13m056m054L881k799M23M153J671j69n795M43L944j937j262J021l192
18726a4139L031r29K653P58l384r44j854J375N048k777o811J36M203k679o7j990
18710a8370O747L051P10K079l791k633L82j298K397d261n053k760n58J590L442
18695g600c785j63a799j095l397b123A620k53a150N71F141R60q4j216J545M362
18679A1708M737K345K297O19O399J938M769P763K215j005M188M581M320N362p026
18664E5210K636j340M356L538N919N483j044R760N166N449M196O047L665J2090
18650A21131O686r52k490q87m183j85k666l247k475p719K276l698N541m503N351
18635A07980J0938J108J233J392J003J440p200o683o932n879r802p474l2m251
18621G6841j1098j469K937o773K89R1j796k03J693k050p243J942n069p595j327
18606C9170l560L803p281j1753J566o87n597K524k334K442k111k700m258j20J549
18591A0653P98n503j380K011M202k650Q84l094D28L573L11K114B287L479J972
18576G738n45n66k261L594l632j207p25c118F014j323p7n95R44J846o70C74K112
18559B486O989j623j069l154k62l82k65j28q89K205A742o0c215h50b70l4C033
18541a367k675C04J81e476J804J599J44n474L53B37N361j760A569e38m66e3k81
18524c34k014e09j119E452K245A801L358A519a451d27j532Q76B231N28K077I47
18507a655C992L608R9k927K7L963J920C883L841j422k078k65C04O538j577r25
18491D340L526l480J665p57B479j026J83K357O094j732l658b12j332D406A223
18475D669K11J207J910k803c652k393b244C645Q27j669A019K125L90M009C504
18459F136M088m920J208C080d58C404A481J66N957B503m63J223J019j3A187a004
18442f3B192K610I9a22A904a247l929a176G83D9c10m200k20b079o88A040i26A604
18423C963J670N79k422L6b142B028J802b009h81I14j6L36L578J01j704Q4b65A429
18404B572d7B591J419O37j739a465k750B860L600l021k52b239Q76K25B832K041
18388D873K687K43B052a179p58l639J392L2A193Q00d089K3j605k805b465j26j94
18371b785r54a762c11k929H57J803A228a580D764j974a875k970C89a070J7H10
18354F34K017a839l933k317K759c10n600J791b053N05C98a048e21C22a93j780
18338a973B079a140b96B773A293j92C62P52k36a110k033C35a265j525e15E67i7
18320B163D06J776L60a600B947N382A826h03D72i07E761k292A616m1Q97b916B510
18302C572n59c430k787d62o13C34b98q88B368L343j578M36L6j373j08J12j267
18285A969J209M32n5a949d03C769K74J412p07N23Q14j255j50L069A960a03E10
18267D436A275e240D960B124p56Q19Q49n55K440O64D4J572L49b949c82j786J03
18250b065j535J102B633l27a41j329D222l36A881b154l87i15p50o25B136B53a760
18232a020A944n78i11a91k567P74A882L08q24L04c165D543A589g611K140M90b474
18214a805d27m906p05m75b28k379k097j217k966J010L639f14l532L82j530n71
18198e865J355m96m22K488R9J5n27P89g76k524J546B014l08R38I84J852k41h49
18179D71K862K887k162J24A734b503E562L25d51m63E162c84B268Ma33C29g29B80
18160H8g39A9K742R28H32a489l30j983f50n12m500q9A2M919K757C163m29r15k01
18141A618g4H16f4l741l84g0C75a173n93e07F45c027d54C986a116E34J218R93
18123B745G04J672K192P67K37j784J173k64p17J43A960M79J839e22A732B6a363
18105B19c16r36E361O59N23l145h3l590B483K54M50j369b385A653b565m17q14
18088c796J469B26M521J564j865J499O77B116J223K236F69L618G15R22l2O25a056
18070a968B232o53J203b066k15k584J956o85J104j546B66M672j448D60b737R8
18054b639i39n504b145j921a849D028A022K693a678h00A799G46N803C083A026
18038I50c610A720J829j741J366q50j044J578f00l169j241b242l8B002K34m55
18022A781J769N68j51d6j296D704k256J549K935A199J639k89C94K743Q99g41j665
18005b406k681K373N03B526M06H8M618f29B19J404l79c85E103B127a32F78k15
17988D63J729b870J183k851k280b634L95k077c84j03o46n781J112K23k670Q38
17972g411K388c79b7m87m028j443J743a766g43B554L175A514f78l766a122C133
17955c34l107D88R4h75A660N006k368J325J16G02b730m81A982f13B688j9a894
17937a138A700j38b017k296K37O11k141K51K562l888J528m43K151k964J039q24
17921f194j896J352b512J209f39D353e95l506D6f61r60B179K438j255K137j937
17905C562A333N523k459A742J596K292B314f72A40N513j919p32K932p15A483J722
17889C205O80k13j29J923o51q55a32k772M81m70b11B816d86i6j313C51K065G45
17870b096l747q74J921G3b736J209d35r0C25f2m62B97c521b1l445j372K165J066
17852a607B523L487B701I31A98e96B162L156K25A670C3a805O47l016m8a478l022
17835d500O69h55j17m439k286K759j576L051a392k663Q25o651L903K635G7f45
17818h751c348j66J396j042G93Q2a227E82c098A702J118b607B931L039o60A586
17801A794J999l00N020l00l793J953K57K075K64L216k586k325B350C33M177j108
17785C402A304m37A55b86m446k397A206J543I09c64C447b943j356J395J155k724
17769d473l796K395K130q04D8K427b050j510j609J531a183l518a832p56a062l05
17753a367k003a604P02H04K997K129a811N14A120J435K319r92j600r47K475J344
17737E154o52j081j181L296A354K761k38J593k469a518l738o53b927l057j86a154
17720A790d498j633L019h48l935J775O85l862b297l09n739b369k038J533B629
17704B089K561F98c011d69C462a981P65B525a4A215M009j799j68n64K492j244
17688C941M2o88J045L60O38K756B863J162r07j181a033f3k227L40j842B328J800
17671D128D56b380O39e30A397M077A017i99D9P22c03A614K511p04N15j885A021
17653E857j267N403J255L30K813m802L065N089K528L405L6k66J979O299K6O552
17637C8302N541P392L697K943N096K57Q33O18j264l468j323k430n475q409N14
17622D2824j1639p474K120J691l565l139K119k756k835K900J656q378M432n812
17608A2144r9N538p25J517J458N104O75k639N984L247l24J075n06J845J93R419
17592D3906M253O997O819J0212R148R166N037R081J1167J3436P063M280K857L422
17578A46844l991p466n727j2917j0285j4442q327j1369o953q361m699j875q039
17565D2393q798k609k16O47K448k120k152J43n677K844L133K342p410o93N987
17550C0262K468r68m558O324K453k748l781L739J724J582Q035L855M777M028K519
17535E9711N062M357O375N247J857L00l242L91L238l975j659j0385n088n553q340
17520D8296M078j1292m398j061n270l92m639m263K621j997r15N143m752j129k11
17505A9819p34P86O77o006J38L586J057j614k136p425K114K387O404P9k133pj947
17488A5045L881j149k144j058L652K43N77n190j446j987M051k265j174M596l11
17473A5321m547l117j158K855k602j40k35j772i0E198J760J49J259l964L494k627
17457E269K94k573M366j25k991J542l23A772M437l100J569M737D466L916j582
17442F800M058l748B716P851l28j594M35k040k311Q276k98l044P96l468l216H53
17425a710D274J106j099L906C958j167A012K216P79A428J733L462p69B498M787
17410G285A784m04J239H67N15K298j062a503f15j256O80k04e38Ib622k801h83
17392B286a71l13F510M085j206k927l010J234R4k155J039A485L55m97O837J546
17376I726K83r62p65l389N55M729j063Q12m059j998j552R70A045e56D992O87j333
17359D346J907l72O136l839j24L464l419C762A530J807j318L881K167B932H56
17343b249B541O244K738m977G82L653K664J441k274K619M735m170K404l0l72r40
17327A0512L789p51F648J399l189L37B341L464J652j900P313l469K289J188j905
17312A0973M451J485l643j151L897m239O743n92j147q89k218J147R94n827M30
17297A0414J335m02k802O11P304K077L76K55l649k756O929L421n470q71P068o731
17281A7109O712P782m089k898k180K317j598k919L400K41k005m88q78k630K426
17266B0302K969n90j814L69K771k268k351P834j23q247l023M152J3k333J977q290
17250A1348j290M484j092l940k410L609l799L598M879k385j517J279J205k027
17236A1942L575O389J95n56L060R87Q72N166M125k069M113j95O70q78k833K803
17220C7366K588J974R98m77n602r697Q372M826l293m898K002k639n074K127J222
17205B9795m559j87K84l96J201n040m94o507L622q68J658m391n378j893K477K560
17189A1884k075K012J03L428l907k66P816N976M20L161L868O226Q89K012P001
17174D8548p9P615K61J535J508L985J75P6J844l14m984L010N299m084k981m616
17158E6798K884J023k251R74K184l785J965J202o471m980M57p98k090j285l02
17143D5525L4M642k106m17L217L654O106N459p3N192L201M075M954R73J1118P501
17127A03055J92J486O737O242M101Q242L168L739Q84R63L638k691M53M223L083
17112A47515L880K141k343N525k322K349L344k233K249P063O472K969J502O104
17098A84215R44Q806J1437M270L582R804P086J0585J3958R451J7016J8113K0365
17085C19632K0422K2034J6789K3787K6408K6047K9065K8492K9429L2625L5997
17074F10727M6094M4932M4947N5902N4716O4601P6909Q0889R3805J07576J23649
17063A404747J42137J64354J84505K11017K45909K77891L22735L66818M23858
17054C743971M91465N55451O37948P23143Q20841R14506R90307J047269J064573
17045A0989474J010573Q53829N91285K37792j75074n75475q88361j090419j167283
17036I786341j136804j049179r16954p80700o61207n49736m53735l74490l09018
17027C554518k50353k03705j62811j29869j00034p4418m4077k6957N549M1637
17017B609480O3028R8572J29786J63996K06980K50610K93908L48388M09170M66750
17007E040668N45300O35670P40737Q55570R98706J169766J335069J532540J737656
16998A4591682J937751K127690K260400K309148K194938J872545J289128M65731
16990B9049013m81658j423077k174624k623732k745487k620926k355581k037534
16982A2586394j721652j425533j186509r85223q13275o80738n72401m82441m16854
16973D301768l60798l11813k69629k24814j93351j51478j18314q6540m8859j5718
16963B520454J0126M0686P4665J01169J34384J73005K12888K50540L02455L58298
16953D178670M16767M98297N83611O70606P65975Q65420R64311J049199J095813
16944A1088669J098612J016929Q22674N08055J00070l55404p85537j107257j291227
16935A1095584j339465j272228j144805j004874q53084p23571o05000n06279m30558
16926C215720l66478l13612k70466k41639k11220j87513j77658j49425j31792
16917A165917j11998j04410r2137p9290p1302o0614n1369m6219m1147l2293l2515
16906D42623l4317k6910k3566k3317k2059j7386j1009j8405q212j0206j0387m359
16894B32490n330j1353j0057p612o752j3464p495l491p661j3105l868o926n768
16881A29608l539p014n044o845o407q483o400k787j689n251o278n582j363m347
16867E8579k793k643m920l821l438k880L78k091j413N542K11L362J686k193M802
16852D8368P450K329J287J757l961n75l503Q046P36P91k631M446N29k523l079
16837E9467o18j808o364l265m826l322l628n472k121K678n172j131k916n397j735
16822A4370Q18k912J444n904l38n69M794m818k91l55k742J827M968K308P0M915
16806A7585J680L507O740J672J032P0M274M371j326M932k349m642n43J436l99
16791C8040r29j876N92o42M464r602j611j108j274k424k897R5k616o710j81k332
16775H989k280R8B42Q16a203I74J44K722j27o2a414l42A369P66c430q29E57d582
16756c429f83j105J39j4J01E791R01J243J490L39L223N373j297m565M692J50J342
16739A8682N33K422j501M78R10k527n941l577M204m006k786j097G01P84N290k018
16723D757C4J441K944A827g08k0B81g10D60K940d73l35A829J361A53b851c88k032
16705b420j979p63J462J477k52j414B105J201C38M300k142K786Q19J357L282k040
16689H700K007j129j200k23l426l04L395k43B278e55q0j558r83d90n41r73o1a86
16670B015K05k31P40J174E27c483a218E448J851L053m001A43M506K189R60k329
16654E469L946N229o063J342k985K813o98K101m3D721K983K99J149j161Q07K637
16638A1435r13D288C12J38N678J136J403l357I86K595K329o94A774J650O165K866
16622A2455M00O21n404l144N87k217J104B015L152L238j430q79B845J919K9J525
16606F318p82j566j212J239P751n342C101N48N99K857A943L078O27F75K763N65
16590D003O74m06K388K75k1J320l466M148P40j387J87j629B806P18K698B925L123
16573F048L188p47N30l620K524k832L713L369J509o335K711k969D4J962B12O70
16557H82E0b4D45M729B080K5F44d854J506a402k67k070o590L250k419K339c206
16539E838b00l75j115E842J947C032k08P96M487B219A045M41a819Q67D84h41c73
16521a196C65b593B032K446L212A755C4a231A946d495a349l263j442J45j554j769
16505i232Q13J002j57J877j678k27n044l73J496l58o18J79M5K122j514n71o19
16488a2857N965o89Q49J433Q37l512c677k757n767N408G5d922a442r22m296J885
16472d775k70b031j378l165j950K585a837j281m623Q82c82m207q35E38a057p18
16456a775C59a44n796a422E760J506k135j873M34O117L050M307K958L589P59M649
16440B9121L921O763L515O646L963L596j267l741k197o994k09k613l748o619j216
16425B8921j019o241k079j219k871K83K222N70k178l048F222L168J15J711O1O417
16409A7694J855m434L359J230j734L65K328m63K786j052P009P110K582P159P054
16394E2848N192O548J1252M737P836J3099R499J2625P631L555O011K510n487j1089
16380A26767j4755p353q247j3796q415n119m362p250j2160j872l037n448m221
16367C0732l212j698L8K828n614k683J264K726m366j330J629k18n518J171O041
16352B1790o524k089P564L567N6K021N444j257K715O212L617O594O41J656L481
16337E5488N360K758P381J581R68N03m835m779o962l736m501q748k671l845p35
16322C3227q941l536J135n015k332j140k046k342L676o41K382l87m923Q43K911
16307A2871m030O005m176D141K833p5i66l644a089A303K963h22H39J515b027B434
16290B353d152J816C544d62k876j44c70k544r42J655j316C32a370N65l758I02
16273C597K38N420m345H44k59M157N922D166A687M741A22i44D505I10C14M376
16257D690L10M60j975j463L00I91b535j820J167a252j203g6j0n605P06L7p35K48
16239e435a343j896R07I1b97l798O76g73j402N60A390e58k066k03i45B111H82
16221E845j814A125J639q33b85D734q99P30P37B384C60L129K048c97k852G52L76
16204A128M760i98l357B072b418k661a067E06b204j441m92j746j105K105N37J895
16188b451j081J527k985j844k350J170c329A501c487j655J900a063K09B029J244
16173C273c787d72B019M251k212j870j087j92K069m21K177A967m58J10K353m0
16157C932P49A699B96L29J821r75h74c88l481J593a031n62K38M21k085j721R68
16140c772r05j489P12J933k056m141e08j244n823J619R05h03q85m282D55Q44J987
16123C286b983P33L32o16l27F14A44L971R73a008E006A280B72b463B168a285j733
16106c018H5b758A377P36c044C987a921j77l50f58F33e86e7o050m16j570K935
16089e158L29O65R67l667O84Q42l20p0K527l490J320l129K777J676J227g25o409
16072g134b161J071a21k23B328a692A128J36J126q18k0L111I83C90J768E23J130
16055A653K051M045C844D16L621J754f19j285A81M325J615A024Q66c687J790n82
16039b479i18A373c069j005a400j46j128k655j127a767j944j758b644m830K445
16024e029J53Q85R72n70l95f98C159n35A239a443j122c01G34L585j832J060J042
16007D589A309k05m18J563a436E177A949H74c230J477G47c352C334j498b868k279
15991e147q80A504J133K45P32c147C202K667r80b100j710J248R23g40o09j523
15975b872j798b176p7L62l242K480A067L873h02b70j636l632B287b678L13B71
15958c09B686A077l84P53K380m71o7j391Q60P92j481g09o258J481a77j338q75
15941b390k760J449B053J075j194g22r12o173P08c386Q48O00H35g64A380O14K38
15924B232K425k106a100l32N54B915J827d02j041d27C493a338A55L598A449J254
15908B703e35B227b412R11p15j14b48l879k45J317k392J233B991P57L90E79a756
15890e218a005q72F668j543H44J328J322j64A230l86j1k07a588P46j892M18N4
15873b262j901m81a459B485r40c190D00d228K76h48G41d61k881a394o98l828K020
15856c900C57a913k150G13J14a823A30O63e663K048C819A570D13b05k424j237
15840c866A931b418j804J813L85C308L10j062E89a570j786k268O47c27B70b919
15823a318B503A093J9b887a173A42b125B689g02r66k325l928c512l751p23a072
15806a274A809K857a526C43M749a140A454a020l58b6k782C332b280k57a117A616
15789A56f611a453e56B774A041k0c81k446J56L91L44J60k312a41C385q31n56n4
15771A944O4b357L17I63a497m99g06A041L346F20J220a415A254J312J29I08J820
15754B728P92am05k538j801L69J401M44k813A5J366J652J523J872B956d77r29
15737a406l822R79J118m340k318B497h2j005n085K665k39a149k96J23A675D98
15720F93c040R74k51C790c4G5K953g39l006K35l55j813c14B71h32j579i27A142
15701a380j579d1m73%F52a813k957a745F58A13J892M303k275j348J49K837P49
15684F420C157J689A117m06J707J722A11L418G51K407j150h75M28l16l863a315
15667a440l321k661a535E32b194B692r67a317l135P43j005J149J150a6k928j917
15651d861j736b168l330a604j224n51o73a994Q46m195a149C086o73b157Q53d8
15634B42O16J733I2a750A074b125a038p02a72A697K331F16J561A057g27E525c31
15616a42j09A277a420A086g4A806a857A225c858J404A985M38m73g668K644K251
15600b773E532B277c861J875j049a431l97J63N90c60g4m341J99p71j262j02L164
15583c187m13j219K109B426K476J109j786A232J572l90A101J92L577J805C261
15567A66N032J662j941j572j003M19A072K488r91l13J082q35k88c707p59a940
15550b484A169D32j7N70J745K498a428l039a78j117k709j35A195B74a636j000
15534b636O56k081o04J134b03E542k488G31b339j683k664L331A71b302J013C636
15517H81C51g7D788A376n15J292n37C22M226F06f95j012n044K697J858D413d69
15499A714c94l304l847R69a860l401k422J960j358L190p74F00K573i25j592d16
15482C268a536j17j607h16I7O50K239A0b938A319a42n700k5a495C824I62f12A505
15463B442K184J895H25O36a839j50B208n38b491j02A043c73j173n83N1k258h36
15445c809f93A833F75a443C77J093F07a819j002j212J542h37k530B234c193b45
15428e00D428N78a877C44a887k156a513E601B753K92a87A769D28c266I90a106
15411a731J13M88M0F96J296K86Q22a541O71K76l853i44j513j489l94P90F7h2q75
15392i57A148O34c043e84A544I7a185j199C00L62K880k12j370f15B144C63r4Q82
15374A151n61L428A97c015k416P22Q01n70g02l251k794K370N57k398q23b261A47
15356H59i67A627K606j535C3J457J066hl06B241N42L410k093IQ56a90B38J379
15338A617o76K460c799J569C214b316a000a50O0G41J889i86l479a395I2J030a056
15320A261K663R65A678O72K55a020m67j683A838d045f79l576o66A662n59J147
15304B250Q29n33n6A130f11F50P75E73a751B142K240H68d026a066e11H84Q969
15287I853j858k778r64A636a309n79n178b475B401b537J58a055E38a064k258l14
15271c636A070L89J544J841L690r59j108B39J792K242j458b999A678c93A905L739
15255E644a34A538J071A01d194M51o26D97b633C172E12b442a176M89E86a241C176
15237F281A256b369o133b466A296K504g21j363j421j155B420a772l719a293D541
15221b909Q81Q20k058P2a364A01d48A33L070q01D53K809A422a249L80L18n48B41
15202C328d579j661K534R89N72G82e18j008j877i11A811c881a569F61R0c106J04
15185c002j849a613j315j964D00d87D27a360n44k44B125J684b494L33j27l280
15169e568K161a694m213K695A25P32d612a627B81b25k094l19g8j121F04a586A228
15151H1K074K676p33j158C05e45L8g4G68N77L039j482H24J040H51J637K496H53
15132D283M3A154K585E12f84m05l60C850O25b167a50g3k320j143A591J873B98
15114b707A530a728k261B601A117J299q73J204G26K254J191f2l2K2q52D210j10
15097D100H45m21c094B006a415q16D68a577M48q36A065J829a083n52E79J164m63
15080A280K153P9j126K446I82J687I82a750m65k153J284J504A08M474q35j413
15064B334G09a622e75D909k442Q73O59l70J035A655p64h40A226a296C420J36j147
15047B409b262j340B168a543j391A528J182r02i21B028p19C52O08J137m00a925
15030b344a096C193J201O04B440G27a023k716a333r97i51C389A167g57A290k89
15014A001Q14G58b954C177L010j736j129j555E00L442d69D71a34q88A422a606
14997b366j27B346J099d40p00B698C90o8M696a776j360h69A521G27J166j11h12
14979D271r41a125q0j180J061B651b20p34D520J163c07E524j557a085A670o67
14963A003b387J148A181J748d115N10c04B408l2a425J00B879A339P1M143b35l758
14946c993b75E458A388g27A721h41k106a351C605n1f22G637B386J121A351b458
14929A297L838j875j57M555j211B728l30A170e77c8q12B162m7K50G50i68B753
14911D722K293J869C174A37J710L131B338N71J491J20J121A855f68B545D8K694
14895B742L330i22k58B248d579K200B234J643A528m60K324A14d007b1C236g17
14878i73A398b43o78C034a190D34f37B40J120n86a440K35F39g11A7K101D19J941
14860B360F2a033G346l116o0j520J403L751l431b912a190L68D7e44J50C463N10
14843C973R0A120L917j189j658a415c38B78J111a489A075J07b41B121o6L948E2
14825d087A286B27a924e69l220e09j791l274i60l743a12C007b187A985c28C664
14808D125m24N57I42c864A793L239r07l12Q5l59K066J424k495m55f89G66K46L410
14790D422B23J437l44c35I98a781P09A379M388a157j610G0K050c174r14J629n5
14773b514D62L550Q32D41a89q89D191j513J763A564p47K567a892P22B018k23c99
14755A130M14a891D633a44k120l41j109j64J34C257K343O17a106A274a153k690
14739c843d69H32L096R82E75J605M315k012a463R6D845j323H54M521A923b79C200
14721E994a426q26H66R91H83b27B998J144A866r29J516a012B595J268A711c119
14704A598K453j620L61r82M158j488b834C013P44a384E59a406c9F309A993o61
14688A332k77n25L117A809c447Q40C254j043L94l8P28E82K358J23b898Q29r60
14671c029l171a630B33J378J901O05r09C38J463F00P69J325G61J33P22N558j621
14654E553A090K329J349L428K36k779J015O725j155k147N076K23k159L218j378
14639A5071N63J444l241P94J137L108o204R96M332j747l076K459O011K386L496
14624B7529j662L238J672J770N66K399j208k747p1r045M24M496N44p3N296p17
14608C2411m624J976L240P54l576O099M67l218N809r79j249J547K068M114K510
14593D7349Q60L731O732J204N176J849k353k902J286m781p453l664n104J786K32
14578D3948M62J455M092K896M301J548P660R206L566P435n237m308l019o551k27
14563F7227J491l607m065j429J71L882k956m24L542K502k935l08J420J841j125
14548F5227n963J630J978l032j020N264J295P61O699J736O126J768p798P445j636
14533H0480q694m664j1123l849k124j995j713m286J089j000K771L021M245P434
14519E9592J790q45K253J467p246O84m049n76m281r754L473Q63k048m941j077
14504C5305o3q48N90M218l013k676O18j638o761L051L865l706K923M36l130k25
14488B8946L173l577n65O08L668k377o715j036j098r9j661J472M601m551k155
14473A8634K263l202o20k396J698K242K43M0K682L028p331N61n675J60O75l381
14457I621L06L249J418F159M228K159k288C968M863J547l867j076A711M482k318
14442C875A222D59K915L110p48j587J694j173p54K73a60C832O050l057j55L348
14426A0018B312B80O031J380A994O999K006m273L486k87k481o58k605p06h01B787
14409F983j561j586d32C159J50R61j30J514k551K034r14M80J42J19j827H93L339
14392D232L071j700J697L380l726j335P00N67j492n51j69L247p36J363j385K503
14376I666J418K736k35k338j349k269N78n13K682j270l001M096K974n212K993
14361A0956N09o97J009L41K375m46n2q57k014J742j667q90K768L845L649m680
14345A5891n66P84K836j639j971N832l969j753M15O30L174k061L880N70M998L174
14329C0225m881k378K220N803k369L399L756l453o034M247j632n210m187j370
14315A8136M681j468K564l74K65j9k047O764J790j465O656r68l259q8K768L132
14299C7068L856l908O04r99J04N401P40K715q18q28J2P1K69L090J309m357l608
14282D0721L73j876J626m183O660K849L313J842K211O527j197L01o4j302n956
14267E1845m42l355n327m371L876q53j143J209J853k54K867K686L475K120l20
14252E3866K13j94J985n045k042L26N60k209K864J155P59J769L140k698M320P698
14236F6467l216q45N950m533r071m622o29p38l804L138l10O950n079L482P875
14221F1015K307J904j498m453o80M693k316n331K186m293n692L96k52K148M92
14206E0626P617J147J750j543l140K477N169o783k93N419M96m646R09M657L519
14191F7381n28K931K903J401K336m03M211o432K465J167k570j975j378J22J37
14176G1768L319J696M484P00O381L655o798P142L880O49O248j639q71L978K958
14161A07550k841M84L051q11O28p43P451M435J0404J978L584R459J860N276R519
14146A61284P44P56Q412R487J2430J0762M822P868J1840Q163J4971R262R484J6979
14132B87264J5252J7889K1933K0503K9401K5569L6714M1273M7194N1093P6877
14121F70962Q5948R1161J07770J27279J45957J62938J88394K15437K43624K55408
14111B294878K45157J89671J03124l1640j41128k03654k08209j59679r5754l8115
14101A954651K0246O8771J16015J63185K17177K69653L23729L88550M57927N09843
14091D489747N22405M69261L06311N0966k47885m37932m77622m04192k68538j36808
14081C865713j5029Q5328J71758K24756K51707K40086J88204J16647O3135O5703
14071E258008J07808J57205J83929J68332J30440J07053J43769K49432L86418
14062F892394N49487O71591P29462O90551M98997K11156q8618l47688n74529p41095
14052H491708p73040o75293m88622k81051p3655J03446K67624M35994O09056P94664
14042H410831R74772J124980J189218J075049O85772N4562o05372j005938j090761
14033A0813113r80231p85568n52531k98865o3308J49954L00603L70589L33657
14024I287413J84828j4219j42422j25334l4743O1084O8732m3374k08273l06615
14014H727077k66986j18617R8265L20685N39548P19350Q36324Q79295P88772N31565
14004A3055278N2044n87055j177808j434132j341506j074145p61239m89242k71948
13995E970247q1920P6460K26211L67960M85560N96418O57819O45655N24506K96428
13985I765344J4291k59976n20935p26988q15210p58965o11079m30805k49148j24527
13975E282002m5363k7775n6013j05615j48888j45407j21678r0677q4897j15917
13965D339772j65372k00081j93457j30519m5448M1836J26663K13412K88539L37212
13955D612557L19218K32702M2398k14902m44380n83409n83364n05409l92407k84265
13945B198739k07313j45447q4113m4692n177L2363O2546R0936J24020J40941J41276
13934B304079J08123M1033n8234j69739k55501k87416k67072k30416j84479j45818
13924H54560j15438r1598p6753o1871m9848m3747m0758l2993k7066l2211k9628
13913B52649j8242j2563j1817j3417j4481o319n262j1292j1557o471q846n826
13901A26556r001m595j203k683m608q586l530r711l643J397m710k030j284n34
13887G1835k330l808j918j149k500k246l033p594J047Q46j841k261J214l92m598
13872D1272k921k932J307O495P67k628P65n076L05n171J741K780K941J42j03j314
13856C8370m205k11l157j511J997N283j916m57p021j527J901n547K572Q291n000
13841B7862l77J813l985j652J466M4K023l177k336L96L69K621j820J040n757j491
13825A7039P36q9k853j825N389K780m614j089P044K460l566n775J553J216j172
13810A7234J887k068j296M00j085l548m083J753J22n38L522k682L453p29j803
13795A0539J408j73k879j281L280K832k422m91q67k108P505m774K715J737k184
13780A2837n92k233M78E213o28r48D08Q26J203G39a879R07I00J665M187j048P91
13763F495j602J848K910k54k278C074L579K75L94R1k237J117L62l289n75J812
13747D603B067J423K057L72J452l646K737B044g16D84d753J802B357K624K00k313
13731B868J099K117j176L1J125A954K077o06Kr95A9N48b555f58j182j016D36M543
13713D979L995J320m763n61O2J285K635N95l968k753R08n02a34B358a519A979
13696E351q54C82A27K242m04J471L613L32l012L600k637B613J024L159j138L19
13680E977J35j391J120B564d31G023j032r61M22L180j622N34B477K86K818B523
13663D753N760l699l14j636D34L060M515k030b30B864K038M678m50l817l23O74
13647E664K222J395l226N408n376k067p08K416M43J312j106k255O621K459J073
13632A4275k958j213l343B268K95A036K282m16C17A6O218M44A999K99I6J845O354
13615H295m132J241K889l446k72M83Q30a055E80K541K226L15L062j239J781j703
13599G563j628A832K706K111H93J372M360C19L78L936A42M844J877p6m94B419
13582A634K509A410M995J679p83C274r70J925j178J88p97R16M027O88M832J990
13566A4895k320p30l325N180Q7k581l208k043j322M539P741G323k54L52m90M445
13550A1376L984K394J188m585k030O356k563K846N080j140k896N42j238k264j766
13535A5284l920J382M653N323p18l9L601k658Q85l726p98L650k203L679J240m05
13519B5230M03K691P47J446j90M279P369Q86M456L224p963o081l338m118N461
13504C4502q823M3l013Q18M860K121k57Q512L013K376P084J748J0755o80l178
13489E9881n440j460k810k904j1176J736K748l935L668K460J680J16k558J414
13475D3420L2J867m327k98L452j193l770j634L142n710L973J608m94O468M410
13460E0946N983O0N227k957k412J15j1498q442q019j514L744J320m850l597K277
13445B6383R833J954R08J551M228j127N280k515n963n26n877Q15l34k871j671
13430C0068n036j139J443K43J667k469L479n222j921K384l433J448k291m393M878
13415A9706j95j702M352j944j31L933J270J787K746o55n817l99m346j790n927
13400A0888K185J862o867K814QO71K467j800Q43P586L497j693Q0j517m157M52
13384A7319k721j87l628l596L01R77P27l026j358N036k448k50J150k743J280O21
13368G454K628j591C492L004m25r93L925R52J323k638B600i91A511N86M355J97
13352F649K418j238l430f10l175A059K606K706o96k043j152M170P80O72k088J517
13336G531N674k768m562j338L83j97j817M5p06I79L048J715p67N128k56D687L177
13319G864k054K190M421j577l916j448A538L66J538B14K832J761M299j291M92
13304H307o71p58J473j324L41k415a64D803n79J862L543C938J477o1L476m52J653
13287A0031K364E743n83o03J955J527l872A588e09k809d62A651e813K385J670
13272a758d27A911L835k193R29j391J819a35o75D213M24M906j914j927A590F31
13255a87C524K636R36C082n74L992K949B597M19K108J162j56k609m78m98a409
13238d50B976a679r76D718J576E62L185l32a312m412o25b116l455A352b537l782
13222f319f7C013K545d1q05j598F47a617r80A72J392c692B46J110K426c41p90
13205a131k795j861c42A206a563m660j812K506E56a108F15a036j931E71K276c314
13188f645k04K276j953a056J33j666l82h39j533l28j52h55C314A491c320J451
13172a869D897a885j147r90k396b352G60d955k508K134a351j151l581j315J455
13157e943K452j922b249A176k10k71J956c450p60H14a661j025J57J035n31j193
13141c218J076l207N34J291l60r72M31J04m769K116a403O32k882R95p49j08M42
13124c073J044j230B247M17J581j116b021O85L09a56o54B9a444j259J337k326
13108c692c84B277a542j301j483k219c043B361H33Q27b070k115r36J081n53b254
13091b043F32O400g5k387M60l975J094J136a826k065e06C552j642b68B48h41c44
13073d429a99D450j331j029l40J272G98J04c689J158i56B883P93m29A72J159e821
13055c221c49k841g68l624J529b35L0A964j19b871a195A375a437L91E251B205
13038b42A629f78F64h87q01A403J90h38A225b456K79J050j68D948a603f77A40
13020b630j172e85A403o40G0c180C91f69G99K795j631j22h9j106J92j14l259K15
13002d161J589B141b432j880B312m31J058A84d680a557k742j522K051j18O43a338
12985g12q11r82L9i02E540e3l622E10d55j449l942K692j924b003l948J509P39
12968c703J547j152J594k530m85P92k202a455k125l53m63j830K965q15m08A69
12951A476c417m200a393n54j129B312J670c167b22B435J562P4A100K267A505a046
12934f42n34m03k116A458J74n65N03l95a666n622Q89J566f86A672f061J072O44
12917d345k539b619I88k5c818J35j43j276a989m65k969a830k387l589K547g94
12900e234m72K805m81i56G93L91c096j425C006n30J644b210j105A166b253k003
12884d256J593C79a824j678J254G1a269j437a208N56m82l295p6A62b574j007l510
12867g091N47L034EP615A724d493A01a21l37m068J262J158o45j37h92D032J434
12850E466F05c570A311J329a134k996r37a739l071a684L11A210J881j019P00d587
12833d563a739P37o363K832k448K483j35L66K19J57q59a890e73k510F49a240m062
12816e302K04h90K38G98A18d25j545H28L26f91p001J230H99e125l79J830a548
12798F453B927J726j310I26a10B432H69P34L540e10B29L50a896n91J96j709a113
12780a082l329a88A112a543C326d185a822B037a324k633L96f64B617L15J134c111
12763f698b190R69D91K639J093a153l888Q49L95E73h45k452B818c667p47j838
12747f252J998n25R08j686O99L13b19k026N18p09j026j34l193K893a012B575r65
12730A610b750l508b648o26a51H46J363d281k248K115C053K382J420l373a853
12714b828k614a999n2m975J114b545r58l965J989O97f54G42b604f64p13N52A127
12696b866O14B654j239B07c555a058j719k312J778a120A90a823j155c06k173p83
12680c262j79f23l057i65F85a862G24e76l62j448Ge196j830b830j714b169A223
12662C382I25l33b722m14J417j128q2k818K124C58c08k117k987i13F150b503j087
12645c590J098r2j837M61i28r37l837a925k242k645K590J475j311a949C239c3
12628A916c477k312Q23j714K15K582D268B40b858i17k19p24k517b121j073R2J14
12611b988o769l86L20L095c036j283j393J535a243j563K92L71r83m127P26L54
12595f173K819p52J649m7o28a414H32F3J202D54b386j489a430A422a023k456n409
12578h888M011k145b884J120J18J36l762j305R03b748l844J456a103D41b040m34
12562b474k141a853G08e175J243j812L96J67j19Q60j346b848j957j233b978J99
12546b779d56l673p11J887J355f5A139K52K670k67a873k813J665a426j02p9j527
12529c134j765b433C090K3G24a391p40p11C568F60b677k97j995j225b600M44J42
12512b014j76m2k577J836N89j734f16j996k34k989K783c37m595l15J995J083B014
12494I22a711l403j498K846q92j75a869l633O56K116b77j726k293J729l86k97
12478c250j526k735K256a920o098K478k317k034c683a602p27j052k196l915c620
12462b636k461J131e01m893m90b408P78P99e5B597a21D83J87c383M40m59j664
12445e066J998l691P22b842D49a907j518M8k177j205b928k083R66p92l154A342
12428A552d323P33Q91a227O08r64f15j534A797a803l272a509k095k734N89l27
12412f076a587o72j504j151J986J013j972J080B753D55i419L817J424f74j093
12397a767B445b839N59B69K246K09b409B72a044m70A831J88a75B505a038b91m66
12380g57r11m202b295C21J993c073j545k842l99b537L87c41k491m667a619c37
12363a764m84K25F15J127O914D074E25a183c77l431R54r88J037J161P26l446M43
12346c921a810K40a40l7j005l94B79b238k661G84L112j601p05O86a154j307A334
12328b628m32J509A972a690f04A645m08b392k484a963M84C000a948j540I48a917
12311A05e38k942j891a640G45c513g6C589b185j101q69P16l038J601H82L883H84
12293f39G43N06J561b579L80E72a37k258i05j073B991J110C14K5b79k182l832
12276f293K683O89b79B231d465P30J205a60l033b2m976Q92a408j42D647E07a418
12258a757m111K803k2N72A093h56l836m856L097K093J533j586a969l78k251Q60
12242c738L58a220B127d79B55e195h91G00e314K296a086k762j615q56R9b390N43
12225a847o84j956n74J595d95j749j555k477a606f77A24K709D09K479H83K89a772
12207g2B814a793B008p86a514k812m74k564a639k235R73D14b601m38j563Q0j588
12190f110K553A074M587b540k408b345A094d81k103b0C64c226j472a139j678c55
12173g63q78q6A357l33a333A066a996M9O97p65D84c424o486L658K598k644b884
12155i08l964j001b189D558d07j569j793L57J009P26B441a730g70k167C14L287
12139C601H40K127O5H73a996j368P07a213D81c302o40B035J337I65k38c361R27
12122b434e72j157e4k154B330J77b530c90p22j196a074m913J016b291m15n27l200
12105f433K626j020P15j35O32A713e66i4A241f30O5o42j252j311a618l720I11
12087E35b868F520O31C161b169k434J01C37J341P21Q5A225a819C38N208h45B267
12069C558a520e28j219l088P52A330a741g65j885A017a195p52n95N20F93n3K715
12052C355h71c16m78k833l392a009J05K79m04k85j53k250e86D384A347b602p85
12035c387J588j594a11D26h10j762k915j32J931J653i50J88H71J57g693c141a398
12017b636j145a515l327b084G77a03G12l29d092j236a312M58k253d94n12j903
12001b909A368L33b325m02N60R27B918P56j145A29L355n48A284a156j222j341
11985c719C247b432F96k4d585j033k412L687K85p61J059J294j415a643m074b803
11968A917a213j434C904o42L093B535b228B834J248k06b716m57a486k956D047
11952B987b011B57i72j654J141e44k907p05a499j928a280n28B180G08c267e24
11935a409C238d685A359J098c779O4j861b096H95c969Q35J011g61B415Q30b75
11918B67K907H00K42b790N72N54j434J256C84a599H81A7a828l35j060a134A651
11900g92j284A85C0b882n27l94a075A642a410q70A972J964A963M09C26a824O92
11883a132m12l019A125L130p07g7j247M56j704r9n38J58a273j113o358K650g64
11865A218C21j38K608A265h33k112L30k941j315b888j634k75J146J576a025k049
11849c074j912B473b988l955a0p91n44B297D31b93C761c131l57D12J655b052j599
11832c651J380I47a018j819l21k068j85K124B763k44e211m907L615J26c69A748
11815D05a68p72M04B559K54f5F55C06DP28a240L16A746a391M9l462q9L58A364
11795F787a3r80nA602M798J772l45B212J925M924k364M260k874C670O480N828
11779A5978J2974P889m399j1241o429l81l544k284l023j927A028N40a876a01D208
11763C415O77j552j017d592J044A796g64m07A588J017E4L195m92m03J652d835
11746d361b021k429J4J881j673m43b07k944a110j452r45i23F07K539R55b058k070
11729d128B003o16J512J00J697j687a355m180b703j328J286m253J525a896j601
11714c497E92J690J108c251n169M177J406A241B88b569a97G68C07a0030M039J221
11698d770K079q152k64a992K10k957K318m273J831G88Q16M62A3a217o707a895
11681B602a409p341M352B334M34I23d067j593b565G59c658k859i5j94n021a669
11664D606b19m33A25K39c913n80M94q04a627A065c263P86H00h79k372B652d760
11646h058L069a170D793a078A219c55r54j444A109a880J84p56I05h25k344j935
11630e104n74m490M646d72r49D335E82a488e16A170c075k001K28J861p99J637
11614b149G72g236P09a899m483K715L46d11q95j860a074b72l466j530i46n425
11598f371b859q74a091C862h05A968e34D71c3j971p26l749L218B623b988j796
11582d784m62a891q28a301k971M16J468m128b843o70J121o25d34l34n22A948a952
11564a352D262C42a999l606a92k947g09j900j209A576c326j7d79k262J080j457
11548c118m634L391j173E30O01a992B620J804o7J071a34j275G26J47LJ512r79
11531A409g59j156j349j79P99D37K903G37B40K54f43B121e15C272J682j831I54
11513b994j777j890M99R72J363j978j708K402J751J117B863f94m127i00A562N57
11497B119b2o812K682r26j542b61I79c196k85a47A639J412j462E37K359A04c107
11479B131c58B400o80b291N57O87k833A498i59L65k409L39C454M19L130d54E27
11461a1l338B198J631b565k295k9d73m548b164C478r02c859k71f67B073f84n80
11444a264O20n86k391o719L144j848b701p19a681G13c548l25j139J2K494o36m569
11427g711K336J959l593b151P37k391j197b299l134p94g95C44h55j358F50R24
11411A574M34E37a543m435i02I01J358J683j733L24H22d251a05A510e205K539
11395b666F84b982J483k612J606A730a07j795j825M36n199L115M86J412J675j961
11379c763a104G94b404j155d12j620M08f35k109j346J480R41p12j851L9j576a633
11361A599a56k046l190C875c293j58c06m98j000k812A917L28F21K286J713e24
11344d680C70J374f34B238Q90J175a925k973j708A571c094o001d289d89F2c474
11327b018oB561j147a030j191g05F57O27e465j239c351l890J315R66a009k910
11311c919a549p68k013h23l669j196K718J61j607b137k476J297j386K54N45N85
11295c318a256k671J682k13l43l592L087a210l147n85k132K919J227lM89C103
11278a064k162c36l198m152c209D98a851h09k311Q46n12p09A094b860l107N91
11262e376e11D271j658D43a141B400I71a745j2F54N06J028e96l726J273B93J928
11245B221b47l147B669g63l735a713j300A387n23J378a567n90A473c916A428K623
11229D051j408a233k64j761B056o88b514n72j623A916G91A90Q4a57n635b590m84
11212c074k39J097G67K020A245a826j237N41B398c81o281L82j789K577K516j689
11196d665K66a186k451Q21a304D17h58j901J190j595o18a135c65r67B12J005J886
11179C103j543K820d62k723g06j261C826j417r50a30j398j614A882L546p45A483
11162b650j554g09m737B56R13b263j329J282a000l312c67l457i39k778J638A06
11145b118c90B223a54j070e68A289c266j998k609R36b691f83k01G85K338c470
11128a405p46a009l824J132k383j776b118M5D674K96l27H32c347j343b098d27
11111a088j753R23a93j205k936j251J228a576j650J271i47o495K16b154d85r90
11095a475M5k845E09g8l983m46a830n201J192k660k200M660j328b560C879N857
11079I736A261e202E427L459B253b628k837I61J648C92a35j887F70A96b139l403
11063e542E74J19O46g18j112C792c174l34j399O24a323j215h79o00B012J243P44
11046C999K376b329i09C168A514a863Q26A506i3F82a783g28C063b644k563q38
11030f045B78a564j294G71a137n89o41M06p27j233a338A890M467C05i16j56H46
11012C952C63J327d229J221j72C606A172c446O02a010j343P57l326J004k469K327
10996d060A016a850A243L072b67r88m577k391q22K741a422k406Q07J460B39b213
10979A711b04B18b945l517J005A86b755q35L97J165g24A855a099A497Q60K106
10963D463A099g631j141b980E84d4q49k634j25J283B050a372H80a502A517P39
10947B256J3b586j197a409r26a071A294k11b257R02M38F45c87p08k081J566f28
10929c055l069j404A428b884m73L54A455J150A113J783c493a437j773K52k94q80
10913d132q3K36A122i35l61A336b178K93lN23k381Q99C83d254J122I54a427o80
10895b107k291r39R52b134D550b409o502Q39j810c488A061a144N3B638e29A720
10878G134B623I92J993b72r65j432C952a351j787j32k11b58j578G59a707A60b914
10860i73A222a331n90D364b601n15a336C191M75j788D01b282k520O86J978j411
10844c549A879A07R2E5L269B9b822o40C61K3a52H07R83f53m279J549a119e9n363
10825e422J853a010G65d334h22q25l614N45p88K258m380i84B84P31B31N22J493
10808B246Q09J044D97J774L8j87h5l307a144e05l929b033B032K247L05j846E48
10790a40j683m130d82K38l920N17J203j874J672B506c19C458J861d38j128A345
10773C716P69A430b174l04R63P35m502J266a368D36K827h09j510k992k464c428
10756A405h96p06k77D66a297b00B813C11P22c917p70K323f8dD70f3B075J855h92
10736b488m3B054J222M84h50j219i76H41J331a626A994c145j466m19m428d665
10719i68M32E43J560a307l967K132k191M13J929p20q13i73j563k89B07K016G09
10701d138J791F9a254B37K954A121g94q78B303m10b764j978a448C302J116j264
10685C154j31g12K95A875a643l776K200H14b268m749J378J302a752a42m412j088
10669e642J559n13l50a349k521b93b3C15M300J516A811e414J281j076a864N61
10653a303A040N54f33k700O16A166K117J722A845c089k90J490k421m107L029a636
10636h88A735K413j437a622j832e08B107o74c47p57F93b18k611l986d07q66r63
10619b236G28f41o236P07a467j825r14a199l860e91a06m149J044k097A310n85
10603G25a870n067b551l95k099a250k526J53e05a7j015B090b325j726a547l059
10587d606J028J185P51B37J386b551B917k45a41j04j98j647c6m900j191E12b807
10569a809E00f17m463J999p62p06O04j123P23k51l21J947E11J454c315L98l841
10552f758c273H89b095q41B076H03b513j293m25m14m14B744I83K152r27a784A663
10534c702l53d84C046o00c015a07o00k266Q05B50e763J899J210c10D441b334K32
10517b102N23J64C43N745L327m074B203J741A608a752A033b317Q34j42j711l278
10501f614n46J271a305k06A434L358b627A836NB60d092J828c60l707a865o27j502
10484c994J70H73A3c509K64j029o88a953r35j913G5M794c49p82j69o18j225Q49
10466b294q73o415c784l58J855g50A759a385n50A437K807K039E43a007j825n516
10450h348K348g76j065o06l234R15L64n419K132b402P09o71P71e92l137j525J257
10433c997f39j309c52A641d31j362k459Q31l184b957k421n47F30a484k602j14
10417d200A521M34a570k341d55k631j123F84J28J28O66K744A014b295B750d043
10400c759k49J424E51n8d606f65B182q34K109a142l384i48D56d754e92j409F393
10382A234K399Q32A005E3b214I56m35e987l445K954b104N42k390b59H49N24a267
10364d888b030m382P85A916m03P95B10c680L02Q69A23d17B945j444n40J636a057
10346a982j916N38J50f56l500B946K865M73b10C136b02j052E06c805J488j89k205
10329d711b310l18r82a032m49O40p2D531a008q35A04J430a106j624P54Q16G70
10311A29K128i64b34p24k954A664a249j508k610A132L495a199m831J559j250h4
10294a279m623j232j970d526i69C10a468k250C12Cd102J908M58l936J151o01a974
10276A772l99a821n930e49m331B370a988j605g76j102B191g33n166J782q53J405
10260c565m772K009a366j42j551J05e52g9j000r68j296m106b643e21j16k373a102
10242d677B09N81e579J469A441i76F46b375j333A725a303N31o80k316a564k623
10226d187J244c03j86m24k3c0r58l160K073k097q0J421R72H30g17A176L658j803
10208C031g12r93A190P46b999A43K684E26e165K542c32B888b33C394K7J642j690
10191C373a461l346b207i73m76B684b514j247m090L160b123k905j617a870m49
10176b319P31n5g93A338a26n15m292J360A362J84i6m994j377E44c289N64I71C06
10157B447L67R54g67A043D55a015B66a645h22k487j450K44k229K177a838k48j942
10140d028A672i83m387J486m290c749e73o95k137J504g49l329a305C670A719a287
10123b588c74C049l56g18A277m39a919k119a957O52k399Q67p34J395g64R9k785
10106c450N67j058a337j578A210P5b79F98b927k678h32D080A380k51f969d59D353
10088F87b777l204J405j217K681b10l030N93N82C243J519J21B126b157j231j29
10072c517A762J649j013H1J89K856a732m062e81B277a81k45I68a52k557O26c27
10054b574C568A781a217j053E29J283p54a860k655J617J269k606b032j04l891
10039f027a001A394J830J435F09g638K154J817H24b622n774d004C369g24k320
10024c044J121n88R21j475n55k384a157A830K327e96l81r00j44B162m85b916k975
10007e891J924a843D74e25a09k995J2k713a635L68j102A453g075o16L489J805
9991b397f18B46h50a80q61l118B972d36F74J305a036j109j965a380k547j096l019
9974h042j862a719g01C450J648b195h4A722b921j402a00j089E61J343n79c550
9957c293A88M21e56j103j223E14a199C617A573J64N45c239k1A103ip2G00h72F673
9937C218O70d98k05j585k667j458C05M281H91J754J446A289P97d703j74Fc153
9919b296k762b084A398k13b408N68p88k745a676f74e3j918F95c86a60C843j193
9902B650a156C53L688j091A347K783K554k852j491c586m281c027a29m5B427P53
9886C180M30j351q01a91B508n61J682J95L315A169J34i70j843C78e567K149e26
9868c026i51B271J318A533P295KC558J231E86k78a870p03n136b773a1A22c018
9850b162R72L34C192L654C082a51l462k625J097A349J668J555a080q16A942a647
9833a598r4B713j292J200Ka526f95r47E60J05R78K300A922L278k538p99H61c028
9814b809R1k526C44g15B733a072m874K908a329b0G13C49L62a336O36A094a7A896
9795C22J19c24j380A91c889B129K119a941r61j146J53J920B389A190n36L501k06
9778C949A752j61G02a493C59K417h62D730H49J569A188K465K610k609A510J328
9762B838j367J244a233l210i96I73C56g079J416g40o81A438N39a957B948A389
9745a825o17R04j062c7k963N77n37K50C17c57k223l47k356J762a075k452b09k665
9727b874o66B247r73J197a271C670a113D94J537c433J000Q16a52D493o42A246
9710C070d2j193j024A455J023P02d00E677B255m34L41N49a389D26J06e46j017
9693a563j755l42J728A579i68o88D95d146j795K724l032K037j70i06j712j133
9677c751m9j928J564g55m265M69k355c312N84B817J317A260K660K395J535C577
9660F243k533a852m719J047N12J587j31H27J174a33k0j901k5o79n73a059m618
9643e677J451J775l113J428k757a571J40b44l58K02k134q9H62N43b123j075l677
9626f875P23N38d17D968A410c61n176b435E33J868b069f81k502A156a232C151
9609C210d869J360C12J271c529j093J565j367j779j702c804f00n676N16O13a879
9592d231C20c684Q52C223J694r87C8d9A95b383l13h04k629o182J695b277j049
9575c326A742n79B9c277k852a498B181p33a840M64j266n72a271j205P23A85K028
9558B213c47B052l55G98b790j959a107q44o28m422h11K56E837j927D68K105b313
9540d53j720k117l38C509a158k689J852j793a746F29N053m18A8M05J650E84J858
9523B442q37L49b012i65H03L41L040j23d13D45L180K298R72B116J351d00k269
9506b669j019A431m88a549l722K172p90J050a266n540K768j010J911Q73c60F50
9489B036J147h06l309B125a208l334B550M775a432M81B318a78C582E91B75a02
9472c754J444K16o6I28L28f73k420K37j541l472r40d336J343l379h91B350c703
9454b653n87e13C073M39k97J4J725a093A251B66b048g27k162O79n76a132C157
9436A009a784E919B172I58C46b781f38m123Q01J200O87B304A78L716j51j841a62
9418d64m88k905B475j123M654k879A280c440m68M25O45k675l650a453l402m94
9402e349b444j33j460P5n38K017L36C420a456k632p57M84k2l213K385k18B93f884
9383c282A792q52L66d091k461J713C209A291b807l453b484b72r12A735d103d54
9366G12b484j290i89r84J28C5K961J970k415F58b05F35M06kc481A605E84b190
9347d362a576C488A430a410j736j54Q04j33k88j5A2b580a48B648d072j118J033
9330d157a66B42d59E159j35D42e45k599a412A133b221k124a373A077b022n106
9314g128M19k76K524l249n263L328d529l454c953E29b056D454mc064c35B396a608
9296b585d69C588m66b88B192i65l951A019n04R84K421d88D363B97d186A324c439
9278A60a938A32a146j348R5m18n50J661I9a053n12p64A452Q35M96a408L53n510
9260f565N77J816a798i0m35o20C217A95b270C600b330k361K201c34A782l60c071
9242d783e04H23J833H36i81C656d12j735n564K873E36O55b241k521b308h07L62
9225d45k339o60a706a9k700l253j855c561k67j369l63b510R47b17B340L72k59
9208B453a244E44J530G36h44l134J676o14n22D884j024c060j076C004L625A368
9191C015K244M755m215A910b340m55a177k065c95k899k154a615C286M69j566J112
9175C301j417a407E930B483L63j398e522k63K585J6P26E47J861J408b316l179
9159e495a838H3e08A459K662A143N395C215e33H49N88d77k518g10I46K248A68
9141H24e89C018L79N32j71o2a57A29f29A296K248j379c571c56C204E99a18k389
9123b507a141N16p86j625l516L267a091r26k868k468g17a08A122j70a105j513
9107b618k38m652a832C134J535b82B263j084K495j435a530e93E842O65c50j285
9091a635k684c46k79j004B088h45C517M365l530L818A985O30j286M37f208K491
9075c717r34j759a724A393a400a89B215o28M123a18H78N14M75K91a724A384P52
9058B136A7K679M52p15J282N22j734M159A250B36J305R0k04K468L22A373D49M926
9040E375o99c23B992G82a531B272M08G79L854a52A173J125f99k98j380G55J817
9023B572M18b930k655J367O59J462n23A9J00L995k16fA991m39D05b555I14K90
9005A204a42D225j207A271K714I76J104L668A37b829k44b8j020D11a145A693M43
8988B136b316E00h96n860k38b045P93j496a40H15b425k914J503D51lK172d54j353
8970a807f56k360l485i43l98l444J521k996m27K016k617A76N516E67J626J111
8954C304g6A154f27j814C865Q73b582i73A057c978i03C32J553c46E37g83A906
8936B50K04c79B696A063g58k544o288a305j718H8M533A877A91d5n571b231A05
8918b605C591j554a071K14k353c51a52B002l64E59Q22J331G37a364D9J790J802
8901C641A092f88E225k07A838b045n30D33a096p6B342k82F52J21b530j996j333
8884e859b593m80a102N8p12j708k379j550c295q91p35M63k51f93j629j186q32
8867d340a618B4b43F09k94J859f459K278C6a334i0B054L88i16j421l416b611l767
8849f378J127a836G81e16j788d7j417o35D689J235A38R31R85l75o63e84E43i55
8830C10H7J355K42f3A017K786m51j228C67L732A612C04J179c169J279l187a75
8812B945a529q311c188a326l004J421N24B293f9k721G38J121M9k86L231j70A232
8794c04A421k10L795J497A619B49k7b525J022K92k226a707l511q50K900a479A743
8776C705N25J161b486A451b312A516J845j540q46a97A253C70K744E41B34c889
8759b457J166C248A343c98D008J161B542b95D41J598g99A863j4a340A010e88j613
8742b201k947K199a279h7I03B8e525l14j286l626d627b23n918k210a585A152a624
8724e53j862r20d93k995e66j008g68c25j537p722J777c075a334k270j352N18j52
8707d590A003K577Q61B036L1d878a735l81k254b116D35J631M96l17J220P1b94
8689C438L005k702e63j379m52e70m75A157a82k96k81A910A56a715h01m758P57
8672d802b129d1B882j112n08K810A361K38M51r38a365n320q77c040j12C75N98
8655I73l2g86j042k472J876n66J277A15J568J134L810C197b613D157h30k915n33
8638d278J732j234O30J232Q40l702j451J034d59k330e18m128p33b268j526l02
8622d096a274L7j421D154A107C4a404l06l36I34P044J60k567B350a556j449j987
8605d992E7L010C20i68B315L975m76A025J416d19D415o66a851A439F88M29M49
8588A566Q14I13K264o88b326Q39j609E395j839b541J27j875K33J144C310F32f53
8570a4j846m47B208r81b21A171i31H39J708C3f7k780O97F52N352J135B838a98
8551A53Q92J212a315j993B091K509j098M84Q06k023a847k50D035P66K104j048
8535E857a511j502a030k2A08a073k38B213n12f54j099k440J992P82j508o42a637
8517G4b357k570j50M17k4a223C802f84r49j000J253H87a115C84q0K078n82e96
8498a055l130a208A457K030j632O16J816d49n794l31a537j905k181b189i0A182
8481B227a244d29H58l25j44M975o53A442E49a424C39K770j548F93a151C014j356
8464A658a521A544R59c295F43J689A19h32m16A187A69c886j982F59L906A622a768
8446a802l072J501a168A148c828b10l543J075E28b475a088q0b15l012P55A97b280
8428c560a232k288J09A349C14A48J474P57D41L291O04j695J162I13d290h35B250
8410D441B134m49K646A907L903G89a356A075K488j422F92a221B104n81k73J167
8394B417J083p14a736q51C046i77E11a384F52J650c559a481o52j78G56a926A968
8376B479b97B502n53L167A295D72b478a209l31A292h74k048j655a179k221D30
8359b130k513a355j616E13c22o374J306a729g95B45b787D06L957C6i98A907o88
8342A219M57b877A577L60O49L155B835c86B981A027a866q85A230K94L327j867
8326B984A31F3a819j03F34O31a644e06q62E982j231J486k910P13K043F99L465
8309D164j191n24F76K937f92b49B980b52l403k025A78d345k301R28a692j425J418
8292a699m79H62g99A90L198a008D742Q72A920G38J795b578D2e8j46j97o484K335
8274d550o82J472q17Q97a90r23j010n041a51F8b304a01j347D05J233K867g58m8
8256h06A705e734k72a862A588J14a507l41j416O15A59K819F17a058j72B30K605
8239B835A395d904q10K042Q25L36l201a858M43K46A943C74J511f3A044L773k168
8222B649d52j249j362m280J313J200F14K85J764H08a274l762A47L05f311a714
8205d072J66i53A449a464k66k501J984k077k11A174N38E27e42E343k549f58F199
8187A000a578M58A17J700a22A745J842o98c53J2j612k602a002m590o38a881q98
8170b779j391J182b17l55o127r67b443l864J715K259j48O87b74n11E90Bb644L57
8152b287F90n4M13a810n78H24J624d70j083C310A121a423N61m74k519J446p79
8135c188C86R95b79C262h77C096b179p63B669B91K79i19E21Q81l31c149P94P32
8117a623B16J58J24c229B98b87C115o62a557A507N0K569B41a760d01C06P77J248
8099B331M462J978C448J625A059J78j68J679L370k707a759j28f5B310M842b08
8082c881R31J040m02K78B868K77j496m30A60K60P13P65b85D210J614c089m32B458
8063E376B04b891E87a012k326A433e83k227J344j401a341B839L68b662J160B896
8046C200a959K83A826F50b334n14Q77O58B874j87l84F07K939J618J870j078A801
8028C512l22n02A53a552H5J625a885j107q84R20k791K002J293Q07l41k20C63b052
8009E87f05D16h45n057b293C304a747N86c39k94I54f50E22d462B344J134a744
7991A926J300r72a602M13m75j211a255m92N1H26A16a357l41l554J235R18n45D255
7972B609K426K94g30p88D073j966p01J609b834k380K564B544K091B35D1c156j519
7955d675K74J579E248h48K15j386B040a887A591J84q27b194j765e16m368a033
7938a073A559j43a422b40A715L91K449A644l59E18K896i6k665A772q30K061k24
7921B779i73B15J803I92J98J88d054a556I60f21E92K131j40k2F30d48B184g53
7902a79m77j206L13n16N23C835A115b401d68E489j53A782C75c018A999I5a088
7884b427Q03C583a617k193Q92j912b380E541j292c24E90L23J865c927k921k8b396
7866D43b51l245j94H57b886J367m322J826a838A688c707l030a771Q1J61j082B273
7848C719a643j691a321n77d83k419h45B005l35K413E57J742O50d827p89p49J562
7831d803J18o43J171c33B834a065o51D491j793f04A48L173a753L84B984k66K156
7814D874J140j816a120A192L619k005O26J808H6J872K155n13j096i97M40D464
7797B927n43CK211a371B41b620J025A663a920A431m43J518i20F258D20N10l06
7780F24a532A564M243K845A333g10K97j567f1j520k224B401J694H26a639C798
7763C159A281J224G80a962J33j611a103A703R92a83C103m82b116j781f72D099
7746B248H64J197J468a385A531l70B53J039J609E64J512q44b21j611b66B615K395
7729E010B084J527A573c84F47b612J216k345E56b769l46P63e96k431A118c100
7712e967b061P18A900b056n76k370P09K033o45G48K500j89d994J770n07l453b391
7694f181b789E18K153J439J3A363J982Q86H34b211l436b483b38H83J695L17K56
7677C151J415k102i30I70L423R17A207b135k9m76q30e15j972n056J405b389P85
7660a604k506a775B449p11B83a34B620a345c79k72H7J208J456K313g30r72l996
7643e698K71K564J06A43f11H65L064g35G224A625P25J404i81j298m672K381C307
7625A774b034k949a812A857G2M555B70g97m30p21l96F38e22C385r88B65R75R99
7607B239b51C46K387J341j434j212n5a814j086a290j802I40K352c037a471D13
7590a515P04I59K957J967e17j044E31a063j069A200L19L58C86M287B25A12J957
7573B069b656B267q89d57F14b155C432J02q02a5A161a85k315I35K165G04J37M778
7555E619A763M016B085B16d37j721d89j46b93C662J24A891b336a51A828J030E56
7537C564A722b045B382Q46L693l71A849A82N71b293d44G96L955q46G56P58L12
7520A826O68r15a714l842A87J60i48B69L98N253j424A220a38A343m69M054f72
7502f53E341A810c08j754n11H95L410j995H90K402R04b490R61j988k925A693a464
7484a263j153j002A599F14b23A785g50l49j30L20A215a257I97J378k74c195a185
7466d598a664B304G51C65Nc274B61M79J052a044l900b062B245j6h02B140e725
7448f97E198R29c10B685P03k61g23q36D949j177A141J324p24c38j03j070B319
7430c83l207G73L168H33Q23R67A103l94K725j142m11N01l38c529R79c74l263a742
7411d530R91d88G90J045J473e88r60G5e552j1b064A222K210A549J549h93p48B948
7392C400R31b984A796H72K581m38e248K222J8R43k199A56b09k07A147h61A08J627
7374A735b958l262i1A405e52F28L062P34B47J666K191J531k323A92K895J985A972
7356F21N17P89e11n40E255J484B594a45B826L12p19b783a117j592B059J358D51
7338b092A15R40c867C13HJ096J1f28l350I82i9B227e32m019b112A282a49r14A392
7318a373A17J071m19O05O50d312a973k68P5C550d405k131K287J666j849M72J939
7301b021j866J049m15F26O54J470M13J384j873a884j427L89R80i47m719c99r66
7284a365B286J470a863r11k250g42j226B076k35M87M80A015A95a274j718G13K346
7267C059a4k085A947e678j001R61b630A040b026j275Q44D836A137d217J783o92
7251c126k98B585j094c11C470c40j0308e303K190J409B143b55l5k74F67K360i10
7233B970J991f57j908A722K450E71K850d09B891b91k137E00g6B463P26i99j864
7216b863C333E80h24A06N75b252E759K525C147H69D09a002d00A65O54J92J909
7199B920J435b898B202a010j98A156a029m582a553b96j898A704G63c166k20M6
7183c340J068A517b034d51B08K062E63K956O21c708j355M00g80H07M008r29H64
7165H62P28h7o251K896e18k819N2J416O98k004j683K321k054K248B472K370j802
7148C040j110m68f61l700b142k786p08i11n73B195H84K172M61B07K173f45m070
7131d715d25B058a357k420b31j902A08M434n63A887b834l318m69c17l338J588
7115b067C785j17L110D44Q10K588E7a159m28C67R09a565B752J800k014D74b28
7097i57j175A390a41k376b02C504b243k188k91b35j93l869P49J710B825F04O47
7080A251E24c302c95j066c81q97k754A534E35R24M67C50a950N21b13l773J413
7063b573e62k14l755K240I16a92F22q7d348l02K264C62K965a451n78E17k47K975
7045C245J206A415J489i03j736o18K68f75B355I5e02E98P34K824D50J722J442
7028C614C93J924n91C47J534l04F22b910D72d091O96a194m519b075B58J858k80
7011A836c578J469P67k97p91d83A009O88i43G41Q735D658k020j000a11I87L847
6994D834j911l37C05c56m60H5R52b994G97g13LJ25l389R10q17C48K741G69k15
6975E54b203j458k3j658a843B8b79P5D28O8a261A510O150l760d555I73J582l45
6957B210c322j738e82m285g19H76A92L087d719O73O30N69A961L86b426B74c168
6939E96J635I23M65c166B043i39D071E19L060c646a400B663a905o46B560J610
6923D170a759j307h16J05j665L62l373e33m44k004J160A569f398L148Q70A35l9
6906I6b908j999j967h82E4c61p65N11r51p04e60C47Q3d520l22A282E58M745P36
6887F039d74m978k2K222c25j595k225O56J190p04J335e35k231m30A105K401A723
6869D75M74J853a2q89C995L198A245a484r24Q40f01C38d50k414P69l33A443g64
6850a983B384q66a33B039H99J710j079J869n04a110k14C810k73d54A325C85P15
6833A100H6a814L40B254b622I91g83k484N15J142A653a687p17m26k34I54a849
6815a602F87b124q12N80C879r19A465M68E67L695j606j140a445k462E7L142f69
6797a310A889f150H5b828A00d95a59D960j938R37a3k221B130h60A047K481q75
6780B653M26a965A109M40Q88C14J363P73K825j831A604p39A63b183N74G9a511
6762C87j34L315N82a051J56k877A574K255i63l26j328m637m657M325B292B61i52
6744A981k5F16a563M34C985j219fq98l759L57J424D611j122l4b650o92M32F13
6725c562J337c26A855Q69j165C15J24M78L59J386b073C321A432a484j201J48c18
6707A690o13g56k272F92d193J461C882A548b80B248c038M19f32E73a40j609k873
6690d622J205K91a519j92O19A70b615E96b092D216l0a008j370d34j792A931a65
6672h80p22G9M761f63G58J785d27j732E18j64K219m10J73m48b539g80A458B86
6653a078m96d50c5j090A396J915j03J17J810i58j402a105k597q03h77F50a051
6635a318a93o29F4N087h45C91a915j081B066r14e98K33B988l5a02j531C615j791
6617A824R19K56q28B91h75j05a75A743b38B834a40B220d835j029O5i14B394j01
6599B293J884a162j562d9m61K31P5l174K82i21l63C61P763C746A603a115j267
6582b382q98A695N24J271a860k263A561a49k394B212K028c287k98a682D84R01
6566A385F37g47K06k945j49a216H39K156D51c06l737J792n09h57B850A195d428
6548b339C876j389r71a68j423o565c235m47e33A947H33d561R27A67N35K30K48
6531A180a825j812B103N46a763l956a935J13j686k179K646f4C840N4r11L057k385
6514C655J392f16j962G206j956I16j91M54K62J365J494J358g25C050n50c57C6
6496a465D261P41B307C47J151M23a621q8B933c39B048p34a270r79l297b750o37
6479c387a286A967O80o2m93H19J857a48d7n79D066N009e70n88A051Q32J017a011
6460C059J136G30M827q09J017A318g67B581r33a82D203L455C640M45J515G87J061
6443A848K342A877F33J788D14k06a135B46K608K644e1l059G151K751k488l310
6427D104j036o27R88D53N69b855J134B847j047K769k129c70C161K0q79e56b5j273
6409a298A604c96l111K13D178L152B882c269B756J722a295b66a1j060j132A994
6392a169H57b746a249n71j194a314B460a295l79a69l099C030j313b756a020m406
6376e426a450G66d75J40o57A112J627E4O33M43l72A61b803j00j105f0j771B600
6357I041C054b22j370k119J335q01b16Q0l146j75b8j158o62k343b036P8H92a975
6338a896L69D262n78d443C081P29I74a506C153j333J801l99j346c092n255c710
6321b560A685o70e809J402b174B510n59c101k071a399B321L32L043A989A97J019
6305A216M905k176A367M763C062G65J086a33m2D681e33o76k052a022A876J021
6289B897k47c29E58a067E76c56l003J343B604A01N70c8o23J33A473e04F67h0E25
6269A945k37P41H01N90d346a845m867L004A845D80n9b205g9C25a75C788j567a696
6250c98B490c5k749N32a091D797B320L616a138o32E087A340a73C58g20l683b55
6232c255k686b305O19C509J032E73d491e72E943k872A182A7a346k91j933o61e
6214A972K986I2g83j841Q21g48m831B128N07K01A397D35M612a047a11k358n26
6197b995J164f88j740k2l55l35P98J04f16B95J011a936eB140a540j650C632j94
6179C438Q40j789a276n95B004a106j304h44A440a432B523a135A974p39f387G69
6162b761a030j269o66k704b272k947K030F32K065F74d712a749l085a245l88B746
6145B034h30D73J917R25g97j219A75K499d51p54l530a359p86m810Q34n53a331
6127B290D73j63D3L6c643m71Q2C048J383k204b011G60J34a632I14J438O03h8A170
6107A448R34h71C024B10R04a158j81O35k833M5P49E94K917J74M02a014b39j012
6089a251c84B73e016F68f42R7J68o75D050J853j907h0r17n06l23B449M39JK7L313
6069F229B171h86q78B743H10c575h04C27N69J904q45b052k774b311M46j44A383
6051a38B670c23C679A534a534j482i40D450A837J496A252j84J095m24h8H91L56
6034A247h56k21j439d26A195a121O7m477b744k707J335a169o46j439m566L550
6018d270J620A004b040H62l60c147q47J843A399L68H60M861R53j981k164d773
6001d074K06P23A81d545L13i69k026C21f03G71d89m776A84L093b182J007K42j476
5983b409I22J371h55C45L83L707N796E058r78d37q5C86h20q75B848K705D13i00
5964a711B220a0k798a225j276C549P2E07J466a525c72l700a211B839J664G11R10
5947A621K084b15j695B082b533J11B263j102K798a861f44J87A113b038k279O0
5931d257a688C668J800r38o26j770G22a132A380D38i89G23c784a770Q82B712m10
5914B302h64D11b488A020h21c65j12B880O97F35b123K09f06H47O314l357J256
5897E060B389J446A087d10A812P63b136j034J144A777J803K259O22B851j26I36
5880b84m5B465o36M015A057g49C431e30i2j960r31a096A429J043d66A054C42K340
5862B682O77K410A481b82I33d877J98g69B551I87a555j850b31B01a288B998J592
5845D590r39a828I94M99h95E575A317Q42J471F22B66K769G79C6M971H36a84B81
5826A690L25J246j035c310m64I06Q52J757J01c09C25J943Q97j217M654k9j199
5809E374B126b232i54k933a757J20B283K150j824L056b7j927a44j584r65A770
5792C104C74b983d16I45B73K270A125m59R25a251B994J051I85J486L496B954b768
5774e47j030r07p30F29b027a09D333a858l266K382B693g89n018Q05a234a73m632
5757d805i60k50k194m36B936J709I57c395k69b34j176n75h75l975j103K662A103
5739B959B02K85d69C779A525K36b510h46C29K848p1i39j652l106b27C464a760
5721B488l66a098R0k011E82b32n222J362C627K418j706c86A031j39J741F49a27
5703h34J60m001A116D26d330O47i32E336g98A05K58b454C20K947b59B109f57j927
5685b584C27g86j239f10l79F10J653K78J267p41I99A14b594A122K328j368K72
5668B354a077B433M9e1A877J778J328k197c156b29j167I93L613j477m01R18a914
5650c414A058d31p55k871J164B781A76b642A339J852b049j54P6J9j239f36F928
5632E090j632j290o65n22J017J448j395c45D047j684i25j457g80j074h77j186
5616b063C182d80l204j119a685n67A092K746c605E39J251Q11e56I17a868A894
5599a151A791j9H07K551d219P18G99c742l376J388J384a945A823o10R69a477d05
5581a337O56l00l714J012b07B220a177E44J982G56o6K1b337g27A046O56Q8M331
5563F121k604L096j854A838M3F59f033b755f66l481a48k148A637J164a353D97
5546A378O79F49h25C524j590g83A515b075A338K122a314m500J759J387A384m35
5530I49b136P92j236g45a77C775M247k794d110B818F2J438a302A328l43b089B309
5512D165a200e87D473k65e39n565d20D22P5B06J4b30A686J328K775d95k598j65
5494c258n060c356E253e04m10F93k46K404a808j287f53j004B574I02N72Mb862
5476a604B674J619o74pj643M33f27c5B483p48J489G6N39K041K97A097J644K756
5458E497k122L950A629M69J498a306p36A204b362j335H74K027a037j94F75J691
5442B366E06g41B350c43k35o19A866A29b83A477f6H42a007M0A017a456r8P15j010
5423a849C236J885j567J012j620K18O96g61k113f47f3A072J511e284j180K178
5407d286K59a015c51j828i51E57b62A674p96l48J467q70e317O59J534J397n95
5390b322A994H97B98K478E37N45R30F25k07c428k35h99k176C317n78a195C925
5372A43a121D579j147C06a321B754o70N92i01k396j037l299K187K714d68I27J556
5355B483O91A006N85g20c09j856j41j000f95B030G13M478G40b374K56k510e65
5337b097j474f12D64P86k97c77A13b956l611K586O08a082F51c48k234j615J033
5320c164B517c686d84B138b256N80B868O78K073A06K6J409D96e48j284i2C378
5302F405H75N64g52G37M88n03d37j887g70C397d31D63L318M39b151j349A206b60
5283f0G95O94P0J350J625K173C028a199E249N48k403E48N28d62C034n15A086K514
5265C600M31i31l384j534b240B600c301B110Q68j067c99o9C36K457J050I54a676
5247b731k670A496J417a069C258K11n07J056a731k08A101L150A866b132k26N01
5231a857b75B240B05QP8J220J21J152m13a131d13N0G07g247K377G18L56b29B388
5211a336L1l66B125K75KJ97K146k212q85L535K74B357c26m21A99N221J339C281
5192a079J52m048k337J630a527B91K654j401a444m065h71A271i8l475j644J977
5176c240E78P97k60M71L167k196a833B91a921R12A021b74i0F030J079j549B144
5158c767c7A110M661j721A469M16e32h2B898a13k078B327M173C042A354f1n916
5141e977B864j061L421A381L312j492f77C630J654c49j442B018a347B7M331K130
5125F488A963A05J385c14B238m54J90M679B105c838G25R81d603J239L31A979L92
5108B371P96a662j71b14B525J683r90h31B59L349A709R21A230a159J52a18E59
5090C750J723L01j812a399j712J134P24A778L608B374j051J075a56a6n92F025
5073B071M09N053C325a777k686J041N9l793K40K771j800l77K768a308OA136a363
5055d080f6A96b581A160k95b73B79c251a537k376i73D53b145H42K640b165C516
5037E287J795A276a310A948a731j043M15B115a322E041P57j205a476B005B34e09
5020H20l09J243K401b204O98E83j18K34f78A482a650N75B769M271A337J78d00
5002b485j394g78B609B50K225K19A268O68F06J554e36B156J731m08i84C389J68
4985C557j733K330o17K616k629o74m44J07a277j69I88b44B721a235e64m834b351
4967F894B334L90J203m60A1J790a114B711A010b697K08j875a855B84e57E939B961
4949c168B077M483B419b234K60E26L138I95b4G59b92j501k357L83C127A552p31
4932H21a616k517B214b444p64A006a082D268j384a161C75q2c41q48j991h33j548
4915b381A71M334A533K560A555a57B447J174A047b326c56n78E00M331K43A065
4898A153P82r5e99A901q50M22L73A58K207I01a465r24j36l643b881A224J836j327
4880A733c506A139K993a760K06P53I69j75K442l53K228B343b662l58i64A459Q75
4863B334a19A082m85c393B919a009l936J190C324L38m6N70j887M53d431O12J852
4846a967f45A922b306j341J209m067b351k40j032f16k017p94q69B531p95j74K036
4829C598L16F23O58c051j852C97c30m14j800C330L568o04l46j623b243B217L6
4812B253e287a784M46k007R92j441J173D16R34A05e05B087J859J303k234j473
4796A542a389c47j837L48N39C249K73c116q35J053j538J283j03j526N30k60f61
4778g9A459J58L908k146j178h27l29n747c443j647N02A077f90l21A020A01M16
4761E17J143b656A824b79l86k305j510a283I39k6K357b155n85n13I2Ff74j59m9
4742h82K14I03m51K005P65b879F53K91L884q20j935J584j193e84A373N396I31
4724B017H3a77D53a249A459m03J962K963j359H97J764a6C862J215M81A216d16
4706C71K136a656k963o12f92c5l737a40B180r74a67A463K766J14a813j525r26
4689d264c58k826A461Q67j065J114G30O41k98d50l290A69a714O48B117J794I34
4671i94b81C148M886l330d11k698A81J036J905e48K60l829F04J46J741M200k843
4654C848a053j161h62B404J484b01B669j84M081h82E2N06P86D15L57L344p46J19
4636C489b013l87a008H0K793r23M543A000b449L75j412B158q37n93a496k745F89
4618B818p28A96J013J889j217A76a546k0l79A140a440A197g21n440o15a711e12
4600E835B311c978A654a946D94a713j099H95K304j400b963K37Q64j121k113J957
4584c139a453l46F25k3J069c37J59B327G74a66A614K182l02A348c730J293Q13
4567a624K59l24D60a021l14A708J8c68j505K71j869i51b07o86H13O680j136l144
4549C213j97J71p10F56J315M052D59e00G324e20k033M47k438b106e59A242g92
4531b752e47C28a112P7n771a925H4b723c56j0j59A852K436I62a055n05k47M74
4513a333j708M77G57J381C49a520A276K12M540m5A993C68a37l844a859k738g78
4495C882A087c230M46A55K440L904H13J475n9n65c750A444J495A383K753F17A60
4477B36J605q98J880F48K102j76A137b729k066a260B51L22c540m75i45E02b153
4459G50b989j092B832d41m472C14b837A59M061J48j39A069a05j400Mc65B178N92
4441B770h67j057j413A790l80d203a504m49B8b80B69O19K826d34k123j023k463
4424f043j113K79F24N842l024a575l962b181F88K13B47c930n28J86j541b31B95
4406H39O56c254k506O57P43a829A968a7k473A813m98b617R39a24j424k515B728
4388C67b401A2J292a963e56m75A6L30Q67c14A848K626A491A1J834N31e41A138
4369A487M66J075O53Q74d11D035p4j483a027j032A006c192B691j344e19C935F41
4351c948J224j879B816g0C101j023K171j089L8a386m32A028j74h79l848K293n97
4334c031f28k370A432a53B240a340K81H60a098B46K036O40A064b603A068K231
4318C299j105c290j192I13K32J458g11m209j493K877b19m157K009C459j70R44
4302D233j999m21m27c953A061J138L664J648j437K852C257i44A35M71Q051q85
4286G772b393J136K7A468e043K007C522A219e0D390q47b79A777F13K490L454B527
4268Ba198A464a09j157M73n40c5B299J240N82j554b262m507a792D006d923o56
4251e579K691C426K240B769A089N45c640j495K445i08b74j545L68A258K74B03
4234c10k712A161N51b380f1C18b28A009b955J121A890H52e079J900F9g85A431
4216A284a979A134F7J794R35K093K36A257K661A310a887m001N86P25I8D9P46a778
4197b149j31d87A799N15L385k410o15D13a510L01A656l95J528P33k55A185h88
4179A56K173i28D66L30h27F07e07m64b9l392J433C487K96r01a930b22A904f35
4160B165a385m665a104I85L629k267d117O8I46d69l082A566K656j408q87a169
4143A491L167A331B2b08B04L947o49j716m53a732a67m588O73a26j536Jk077k7
4125c765J414A899O376j471a457q12b80j330c36C107b954R40h06l310a834A662
4108A605k59K812H78M48b095b53D112K158j079D97e81C72b011j952J890g05f3
4090B102k94b820M55R2P18H00b121k864A70L464j742P66k69j159g01C373j053
4073B320J74J191b879j570C899F33e216A518l79K847Q45r63a553A057P57h97C24
4055g68l161a911l637K529A356b497r10q7C874P39c983k997I33j25N519A458b713
4037F461B529b382E166Rj778l41C00L764L98J449I9b435P58d70j80F99Q14b195
4018B827i79c93k227a174j5a27B923c250B131D77B3K405a439F25b042l13C101
4000a907N54A755h18j573C021F96K325a866j423B801J313r48o59j238e154b31
3983A674L2d9C624d26A976J239c874q41d04E294o47j503C20f47B720Ma255k152
3965c407h31C251N003L051c07m682A751L573n28j468o92A279a320B557m82H55
3948a939E64M472B284K145A130I0f34k262j863K349B204j044d30k329c36C427
3931a002j796C516j339o69C42d721K218f38k081g92A461b96m09k282j18k671b433
3913e4p33r93A92a908l487d72E473k599A88K05e006a542J85E62Q74c25n14j040
3895a879k587m38b335D420J907j984m75m13G08d00D86J840K741j124J854B272
3878C411j092i24m450l132b755M93j689a574N03A282K183L665A014b449J16k284
3862d617I80L26J306J89b280k459K088j427A213a741r21J94p31H18b263A925J331
3845C256N31A160c663P29J298A812G33d67l15L15B013p82b070G16b643O9C58c153
3826H18K81a781k94A011b143a004G99J658G32h53j567M15A548d743j984b09A247
3808c880d24j098M46C91d461a660L0B845A305d849i96p5q66l146m45a721j624
3791c345B32a21k779a178F56M01l88c782k370A324d77D892K668k323A122J14m0
3774A196K155K398A721M06K373A941H40J439d92B763r96b846J039A284c26E40
3757F11b102B508E82J680N59J383K346b71A213E99a738l734I7d56C250Q99j817
3740B332F52P39n23a526c74E9a917j806a504A024K188A581K214F97J500J42I68
3722a219L19A267k91j29K020R23j227b251j138i48A951q38b016p05B433L09B7
3704C138L100B703D47O87N58K733k18J670k811p05o21E9L820J3j849B91d56E924
3685F861A593a061A634M909k624l86A022C62K744o66d101J894C383B14J800m25
3669A589a873k552A473b192i15B133P23B31f71C47O028J310C536p95K303K746
3653G790HJ860C61b389b82j364d36j212o63A592e48B424l59a282B356f05r31A448
3634E72K539a880j759a256M94q41j589b31D486b028N70C019R33J432B138f64n50
3617a214D57M694B396d280R87A01i09j993i97d91C295M007j985k080a29n84A228
3599A244O44a166c83j897j338Q08B172q93P67q19m17d113J149J389j970d62H46
3581g30o628K787A45K456F00i58m84j459k562g97D452E5P72k57M939j932a964
3563h81j615B188a039m699a901A495o86a527j553N29e88B123D2J101b722l997
3547f719j233c917a524A380a394o75l4r13O91R96A580L397Q9J548B690D08K894
3530C302h64b05I1g08B541D73a553F542j480M83B625B40g33B893d166J525a82
3512A783l14R9h07j544A702Q74g88j884B549b94n735p0Q92K11a410k06A380K16
3494A596a05A664J011a840E467L40B216a441B21c546A96K102b654p98A540L399
3478D939k198j227K287N603B692j223b63B199c86k419J28o41J590C23J928J119
3462C370J078A668g61A65M849l49B59c773a803K79j193j098C65J860K14J745j991
3445B193L647r05a230@A129d25e2l332R01b22k300k243J974Q75B600a765d23C005
3426b203N74a11A766J430a886J15A282O83c382r90g77B880E43N1N286k238J695
3409E337j972j163b4m308a876R13F71J174a748A676L79K477B113c432l999J571
3393e860J622J991K87A248b048g74q09q64q52f91E037E96J53O63o7c043G68a831
3374d883a074q63P58j84b42D664B47J498J160O66h54m127a106C87j92a556L89
3357a167b16n34A913G39M48L80K528G74J56K507J213p94j773j7D2J377J05K977
3339D501A853b889p46a678L13J73B539K485B045a588l123e88b21C476j656i0m640
3322d730A354J615q04J053j189d74j520A703b117D36a843j183o860c020g24r49
3306a673k74A792O637I81K162J72D6f85D260E17b161A81b261a003j867L13L71
3289b186j156j025b020N05q35h98D333A428K52L587j660L941B75b091C242J969
3273E211k587d066a593D662J856B688e26k374Q76A728H40c115a538b48l723A822
3256A202g95G56c118k022j30A328F07J901r11iC086C83j55Q61b153j920A689M432
3238F121B890a412j095j028c43j183o06k550L08a265A285A55N22d24j768j046
3222c238D56c356g59C465A101M90d71B073I5L315n48f10A414N83b97B51c564D94
3203d033k212J732b041A030J542E46b695b62n04j41o70B367a581J7B276K385j479
3186C182c07E16b097j519l71f29r86B101H35K863o87a01A636c50A355c167B795
3168H063j551a266F53a231A84N48J446L207k024c79l023Q23m384J992b17A351
3151D01C1c96j739a08B959a786J37C701m88r86P81j60c136k68o22J061C297N04
3133C801g96l238D77b25H05b023D247j148B77b783J276A402a112k424J700L94
3117a442K99A632J289M740C212K135j199p82Q26A018A1K329L488B162F5h15j268
3100b083A672c77C081A255c34B776j87q04a631j986O73j938A761N17k29n15O83
3083B217K38a805J19j785j855M37a940q26C17L643j022a9A850I3J443O49H36L35
3065A171J729b072Q91M05k543j224J694I38l24f91j224l9O75e1I64a229A36K340
3047B476H9J873Q81P33A304c99A139J550c97k126n31M52G20M514B332m56Q71O63
3029C410J094L08p55K23K625k682K501B701c398P1M6a18k442j040j727O14a719
3011a14l68j248q94a085I94B66J771o23K040g16D8L270a4A37c05C25P4J262K351
2992D012J319B329J068K60o91G72L54L075a370f31Q6E99a877M53B518K23c779
2974e71C62P73p2g89E936q89q59k045a713A39J468g96B910P0B66c856n75a733
2955A80c065a420A513J502b092j070a157B718J724i16d9I79J138a391k491Q76
2939c006Q83A201D30O627k091b954J081l976K502J595A811r9E48J967J714k033
2923B196K76J756i08B22N284j918F29b083p92N24Q41a8B671a596o62I43g25I24
2904b174n86j086L90O40O51h30B0e70C984N27J966P10B910D04d783L07J581J429
2886a466I33L72h49B437a695P1k771l24K113l27k54R12J14m43B327M78L869J300
2868G974j112J271C879r08K532A713B58R55K42d998J202K49a98j487A330M988
2852F318d04k750J213l244a636N47j037D792A972c032O61i03k782O54k0j125J332
2835b844B94J016a751k03A378e927J204A1J9a943A098K216j140a051k322I69M64
2818A433b29A779H32c631a52C962j860O644m002a411l657E35K509b231A407F32
2801Da178K01l81C592G49k80R10M25k82b467j148a589k977j488b461H57J022K181
2783D060a273j514c43J42j058C206J701p20a133L55D176a523j542a57l020O22
2767b555H09O26J34B77J324c56C986b181g34B736J231H04N024K280k716B30A06
2749C846K923K046B469a616m19A162K360A518A61g95C73d858K181A979b45C382
2732F056O10A154J171n15F03f88A755F7K254q66K397h0B518Q70a92B813G58g6
2713e40D961J360J080J304d29j065C453K17R28j204j420D2g96A489L119A685b174
2695a391l965j867K585J72J522j001a581E67L86e1E205A946c97j74m5G5K803j92
2677B686A290D39J717k77b098D583A877B68J532g06F409G46c232C885i19H73m25
2660D48b251A152b91q92C132j136b358e92B655H88a232G33Q40d79r90D44K55M60
2642A159M381m67L77J630h27r786d32A552a530l627m18K223J217i02j459R79M84
2625h98J91fr11A788D12c432b62C299J063A015R73q90K62e43A356a698A251b108
2606f9A718J893G93d65A975o35L69a359B341k83N51I16h32r8A119b763A003F8
2587b086k577j929K926B555A054a955E47A20L753A400A13O36a673j534J513@E28
2569B35M360a069k949J011O8f40j789E30K954A149f592b153A762J230a141j260
2553b401c75r83G71J123b61B344O52H94J274E07a225q41A081D32f74A868h57m349
2535e206B458A90P19K556J698j260j382r36n78K177O81K811k794a229k339A557
2518D472A159a94A360a369A520C65b126B496K758k183M605B364a529B295P98N46
2502C639A545g87k027F79c314j325C02L044i32b71I25e96B91J904N31a814A576
2484a301G64K118g21A964D46N02a074D078A764h53A275c425b54j266K90K27j859
2467b862O48m720K207F78a363m314J228f48n26k848a041A438K807j442f96D402
2450B606A269J237C11b821A223N45O50a09k960l007J866a969A68L275F18J301
2434A919J437E73c395B918c08A529N964j500A364c760a084j984D12K517j022g74
2417b231k360j848E17Q12E56a696A459m67L177j665B28d67j41n71p45A035e94
2399c365h89M37A537K268a689D834L74F70L856R90a034B303K019A957l32G37M54
2382A191a760b71B433a137A397n84L405j2L223k537k216E13A75J069h02A211b00
2364C953j559L821P7m85k207P81A742c337F157m13a110j120e94B508b627G55K250
2347C005a72D722K59h74j851k016J616C570r03b105G53a621j863B385J250B26
2330A91g196P04b087k780a055M49c03A086b921J285E136B172e76k511A063L723
2314D786A148m80a55m342k390j122L016K421q17h80B798b322a144A774L08k92
2298A790A14a080j252j867J895j81D62M98a097E55b880h68B016F04A3c252J051
2281b201a044j667m370a115C081f60j669k687B146c189H53b937j763a980K98l135
2265d817J730j317a469I03J673k7a009p82k637D146A780K060A81b014d48A317
2248B295j095h62m442B47L015p21N39A301k71D23h2o6I73b431i74r8r10k113a454
2228E74M321A679b625D42P06M986k343a739l638K16a690A586h48n83D37J34P42
2211A313d456a964i5q34E758A269c863a045k547j598d80o17D3b789a248C983k90
2194C693b341C226K264A879a487d0G88J129m47c90A511b83a1G11J480a668j552
2177c220C25A32a784A108n18M94Q8L667J567a52C055L397B385p85K292n98L22
2160C616J793A269k46d59j485o93g66k934A29b522d46C197A590K855k023j164
2144A258E37K135b723i8F186j462A792a97B344m00J375j321a610c85D49m7e681
2126a060B231L26J720c56m598a415J37f01q1m90L35B814l67l64B65e6A676a890
2107f009b706B978b736k075a457A757c437a705A567l79K979N04A820M38b220o03
2091b823O11h07M6q92B36J39J985M08n27j020n50a599b95B429i97A656R05b243
2072e317a589G16a239o21M75m055K088a589j666d86r60D127N77l00P64R42A859
2054b13n44B043G03O66c93A542L85l7p90d249C727P60B97a84D99b522A916M93
2036B409o45p02D98J36J765d99P8C730a968k861B00M33i93j581j86m15a482N04
2018i78l133a266j288J30M82I66a150B120J047K17A596J02O15l36J468H01f43
2000a975e50j586B291R15p58G87N06c435d60C545J39B71b912i63k540J123f31
1982C232j001o98g27F12h27k299F65J487N26a216A249N834p86k814g42k253d69
1964F27j06K538F11b685J14A508J571a431C33L039J296A412i97B768C70N08a448
1946c357J478j67d40A34L332j133K901k71B44J791a032K83G23M68l71c41B070
1928D586B008G40b485K80C047K364j855n11n32j226O59b895i03m1L54k741J536
1911a795D09D2a925j733N87I29c402j249b258A189P90a559c40n52G823l779g9
1893G86Q57K267j729p69L66l25a536o98F920k336h88l906d65G25a393F1R5Q26
1875I82K288C96a501j20k233J825L38c82j949k298j989K261b143L35L55o52m008
1858f113d95B902K29c696J12L07a026k149J200C168E2B1a650h24C15a451p24A501
1839a970C03a063B306K283j05A083a385k581j676K250o171d491i21j087E05a166
1822a448C87J495K79J087H01N93f79A566o82a72C899j582L602b981J404O78A479
1804A286b031A362b207h23E41L568A960o91a679B6e88m900Q6a049A161M95o93
1787I63d039a879A069j30C80J279e233K519D388q90a627j154B141g2j66l182j938
1770e358a265j756J188q32A5e92A63a172J41A382a526I95c998N6J547m194j071
1753g660L056Q11L48I2d70q35C74J608K311m98j076b767m83B128K838a109k56
1736a365D74K304R45A320M89J122%J095Q64B206A09Q54J127N1L475j933L509F47
1717a173j906l361b226j666J786b2A34c179q58a554I0l2L300J348G20L811j881
1700B650a641r08A821f82n776b927d15A995K604o6j892o5J570J603A986p28J387
1683B645K749A147o4Q6K4a745oN22D23N790B978J013a7B398N411C127o33F99N60
1664A259L114R95k044E03L51P70K136a636g81I88l30J500a680o83B489k12a385
1646b763k569h43F54a594C087n78d82l956a918C683g29n427j920J45c220B045
1629I75i81A915pq63K157o59C17Q69c808M34a34k467E39A78c262l018b144P09
1611a435N76l458K070J114j636R51O03g5k599A12L039A184d022J044A784N06G3
1593C409i73j560C071L219A899P2J484A376L04M86O67J557K802A109b903j762
1577d665Q45J640A838J475c707k178N72j872J131K68o18K842a061j525a268A54
1560c193iA514J45o54N589l035b818d83m985a454D070k75E25K878j050b330j491
1543c821H54Q0b264D139J403k222d60D10g59A098K217B37J608K571A006D33m8
1526C85c65o04A150g75k899a462k711i52k23p12C334j123c594N27d62j141i7B382
1507B640k00c40j378D38b42k160A705c82k168J37E87J514m77n71d614b229l670
1490e899j561L632B393L804j030L03F50K298L563k748J169k311A98b798m7G17
1473B936j241N82H22i39a83k260A22M64P5K72a614c6A871b724e61A334D12N92
1455A004A35a411p18k064K32R1H07N5f7A811J836K256A377D50f45n3A851a029
1436d731J616k691J459J527Q38A366d7l741D88e2B96M62f0B165b470J32f98C691
1417C631l22j351c61C105O15C63c098b63E22L508p40j300L912o45A445K027j172
1400B300d072Q72E84L934b197R36E24b308j60P49l11Q12M33r54r08a33j87k335
1382b655j624o01a930F38J908q13L33b337P22A46Q93E13a683k307N45%b47A488
1363D184j032i79K3E36M873A158J443j29p45g95L03j541k155J939A428D46d534
1345a953l33B528J946q67A643o08a53C840A904H66h5k604p63i90A345f156j541
1328g697K240A291K820F60a596F97a963e6k594k113A886d22D733K930a7A024K98
1311A322K705j017j488i33A104a725k978a520l28a88j244m183P16A785H02o9d672
1293d201E25D7a425F32c792l074b790B168J209C75K495J567E27K332n17l03C6
1275c946E26J839R4O86E69c90p31Lj58N76A341b590o14B666J471c521k06j477
1257e204b025N12A454c334k464b332l53M55j362A054j69f01K8a32A548a565g66
1239B053f06m103j767C17a575H41B73d472b038B635j188m20M953k965E03a271
1222g213L035j568b688l943K242a412j962B089b849d3l455j591j054h63L81A014
1205A343K575M470k349p47B99O80a082A618L38d004B040J081d782k127g91F408
1188c90l905a696A779P19d007j521b360D61K515A426E49a25j533j704f45a64o64
1171h28B261a256e08B045J890A150l73a680n57d98B358J649B07L684a732A504
1154B225d565b80j82A208l84b449A302l76J587g3p63j84j43j027M84A076k76L687
1136D487I82a226l232l20P14a036r63a92C037E84b209k863a401o1p3A067P08L4
1118A809a261m764b249i38k699i76A650L829A84J871c87j569C24J836K573i43
1101b246j214a103r56K37j339N27a189q00r57B403n89b237A265c92E84N469f57
1083b804g18Q1C617j463e053J633A156h84m170L00a406o65A05J806D38d534J166
1066c368J075n3A154c36j419b5k102Q7I8N092A929F3L872J724A690k78a351l952
1048e303K110l3n31Q65A419J333A42a473K19k568J563B292b073b84C710j773p01
1031A236b424A159b81j718A595N30d84a08B116b78m041l1a748j74n69B93c989
1013e118n66e86B086R8a773B678J511K330O62C418J46a801F25J954Q99j653J841
996C666l94L273l52J546B137O85a839C31a509j88B650b404j100h31j487l835f31
978b14k477M13n79a309C582A628K36d696k21A978q25b437A025a320j686A516C45
960c156C54g0F64b840K11A496a497n011j39C307r61p32J919P79K183A602g33G13
941f65a24l252R78a21m253K14J940D263j332k0n3d28R5H64M114B50b785b26I78
921a033B444L135F69b922A418b786o40i72p42n77A705m6P21j7c384A72L396O73
903D241k016c637J4b09j871J23P08j562m73k3r58m67J03b307b65E28e79j202k200
884c981J548J182E70d82K00F66J834H34a294P5A731K060B69j00M65e11G53j39
866F14c057h31E053j332a63C280J927C62f61p60l575b13o92k143i76B424I87b264
847c399J107l048K617j417J341b00J9D053c70B546O47L205k162j844G48f168M02
830e766q86b725k965l27K371G53N383j786p53i8D11b820k99o56a708A779a324
812a122B711d116n67J199a353D862H64h40H99Q84b776C992K579k851C56e8B158
794B318j42p35J83b56N7B442J314c911J72a410C41M277j352m82j221D83f67B913
775E649A492b394C77b367n97E95J313K271a239I81g90j32k82j023A684F42K039
758B681i38m97B587j084J281A196a602k815f48A758c527C97K020K32A192N2a633
740f637c90j44m219a836J7C663N48b97C399A056J635k51J009J103e4p85j472G33
721C154b039j197h97j307A464b070Q25A994k86b048a65B846A073a667k312a128
704d265B571A028B53c699J334A124d275a794E6K441m24p91j64a169k54A310c293
686A059P09b192i90m57M84r75e88B936j406m43K457F52P91g21bC155A058b554
667b627i57l05r49Q21k058J666A742m37c15l44C88b357L49K85D3a600l763k06
649e569a958j069K1n72a606e79j525p52n00Q21j376a659k255a060e00l209b4j28
631a52l388A03K100a881j47r83j08f68I55J160Q13F27a103j98b27j692l044J139
613c824Q78a353B235h23L24A472B34L497j221L83A177K716j278C4b10B302n77
596A725m30O88G6b585f24F23c873J286J032A84h9A317P18K027G40b119b00B455
577B429B40a735q2K46j602a226B849j021q48i00J46PC056R10c70j04l103a583
558A178B95J057g75j930E2b118k51O91c57a72k26E105B010B58a783G8K894a512
539a296m871a167A521K26D60b669A475J028d76j605j25e76A548L606k8b528g16
521D75J298R03L6A076g18A463J926p80A086N12J181L460p96k238j598K533E94
503A475b210L17L41k59d92l450j025j154F13L403j784f992b531j55b60A290C85
485F52b029l7j052J517N11d61a82k979a440B593L77J00p0B65b000M11j263b65
466d31F76c327F63L743a689k019R53a291r83b2n76k263A747g07k818C19a918j116
448c034A169E34K34a161k114q55A086Q49b229A324c133O20g60l584K094G3L038
431C111A525a15A303Q1a911m73i20r40M70o42R31a83q06n86h2p87A026N22L697
412E245A959d593J366a402j088K39i5o33j7C31h34I46B34L1j6b350I05J343M73
393B721n69a42l693k604n17K727K062N80k0k128M17R07F64R04h06C754Q41B068
374A52N98a606C034P70d06A69J390J155b156F61d93p08D95b957I84M37b169B927
355E205a243k639a885B292J339m61J549A981f42q8k275q80a938H2J194J417E28
337h04r08j024A454p0a585q6P48c45e9j735j725L34h06k48C35c434m80b86B507
317I26l44J8R55a752l064A183A85L13K118m27e01G9a001d92B190J977A969a059
298a58C508N35o03J07a443N21B215r52l36a034p80B81L903K756j101A574c684
280b552M72o63B174l43b57A841E88b92k414j283J826O45a69k99A422a246k092
263c338I37L299A56a817B611A158c735R13j819a017H14a839h31o42j650j978a317
245b66I53b34A634L60I46K547A488b829A513j63C95J65J318l71l2J233a125j621
227b746k630P88D82a531a96A205J328G44a31C340L5j601b932J70k267b099B102
209C999j931o25d12J98L7j123j811e36B457J480j490m75C09J414p21b091k16j595
191c902J616B93O63i88K15j16j189B43K274a356p55I07J846j205L87r42A22f34
172A917q68d232Q02e84k581e22q99O16k436j185J416Q81j035%f76j205j49j420
154c450k51e3q46a71A661a472D78L05b982J184j098E08J933a438A818g52j146
137a898q15a050j175B014J11d33k002L25l84G29N0R88K02d44k266r91b40p45q90
118a875R16A335e83i6H49d23A07J508b506A133a47j960J66R15j907k85a91r43
100a134A304P6l47K689A511J099Q29j444j28d63C52e20j704A338J84h43j75k976
82c994a146I49f0D006j484J808j753c142l87m85j42o6Q86J186a034d45J28j926
64b243O93P14p18j45B240R5b157k531I25a143m442R04A39Q96C96O51f75A569L379
45D948A826b414B34K848a126p4I64d85A694b386f11o80G56L44L07j69R6D31a135
25a612e67A174J327J183a000A360a04j078J70j259M44j134J32B21R20K110A395
7F09D3a45A861G74J87J295N52
0B808
##END=
