##TITLE=13C-DEPT135: A_Laurent_190525 3/1 Sample 1 in d2o, 298 K
.
CH, CH3 up; CH2 down; C(q) zero
##JCAMPDX= 6.0         $$ Bruker NMR JCAMP-DX V2.0
##DATA TYPE= NMR SPECTRUM
##DATA CLASS= XYDATA
##ORIGIN= Bruker BioSpin GmbH
##OWNER= aci
##LONG DATE= 2025/05/19 10:55:17+0000
$$ TopSpin 5.0.0
$$ 2026-09-17 13:13:54.611 +0200  matthias@Matthiass-MacBook-Pro.local
$$ Compression mode = diff/dup
##.OBSERVE FREQUENCY= 125.8019787
##.OBSERVE NUCLEUS= ^13C
##.ACQUISITION MODE= SIMULTANEOUS (DQD)
##.ACQUISITION SCHEME= undefined
##.AVERAGES= 44
##.DIGITISER RES= 21
##SPECTROMETER/DATA SYSTEM= spect
##.PULSE SEQUENCE= deptsp135
##.SOLVENT NAME= D2O
##.SHIFT REFERENCE= INTERNAL, D2O, 1, 235.6402
##AUDIT TRAIL= $$ (NUMBER, WHEN, WHO, WHERE, PROCESS, VERSION, WHAT)
$$ ##TITLE= Audit trail, TopSpin 3.5 pl 7
$$ ##JCAMPDX= 5.01
$$ ##ORIGIN= Bruker BioSpin GmbH
$$ ##OWNER= aci
$$ $$ /opt/topspin3.2/data/aci/nmr/A_Laurent_190525/3/pdata/1/auditp.txt
$$ ##AUDIT TRAIL=  $$ (NUMBER, WHEN, WHO, WHERE, PROCESS, VERSION, WHAT)
(   1,<2025-05-19 12:55:22.927 +0200>,<aci>,<chem-nmr500>,<go4>,<TopSpin 3.5.7>,
      <created by zg
	started at 2025-05-19 12:52:27.780 +0200,
	POWCHK enabled, PULCHK disabled,
       terminated by command 'stop'
       configuration hash MD5:
       31 97 3A DA F0 08 8D 37 3F DC 37 8D 19 73 88 39
       data hash MD5: 87496
       BF 22 D7 9F 0D AC 8F 93 E1 C3 00 17 22 85 63 D0>)
(   2,<2025-05-19 12:55:34.424 +0200>,<aci>,<chem-nmr500>,<proc1d>,<TopSpin 3.5.7>,
      <Start of raw data processing
       efp LB = 1 FT_mod = 6 PKNL = 1 PHC0 = -260.7729 PHC1 = -160.55 SI = 64K 
       data hash MD5: 64K
       25 E7 AC 58 FB C5 F2 8E 93 23 CD 71 5A EC 2F 69>)
(   3,<2025-05-21 12:01:31.610 +0200>,<aci>,<chem-nmr500>,<disknew>,<TopSpin 3.5.7>,
      <processed data deleted>)
$$ $$ /Users/matthias/Documents/NMR/NMR Spectra/Data Stuff/Guvacine/3/pdata/1/auditp.txt
(   4,<2026-09-15T13:50:21.162+0200>,<matthias>,<Matthiass-MacBook-Pro.local>,<proc1d>,<TopSpin 5.0.0>,
      <Start of raw data processing
       em LB = 1 SI = 64K
       fid data hash MD5: 87496
       BF 22 D7 9F 0D AC 8F 93 E1 C3 00 17 22 85 63 D0
       data hash MD5: 64K
       55 33 BA 02 6B F6 17 B1 42 83 FD 38 8C 17 42 51>)
(   5,<2026-09-15T13:50:21.252+0200>,<matthias>,<Matthiass-MacBook-Pro.local>,<proc1d>,<TopSpin 5.0.0>,
      <ft FT_mod = 6 PKNL = 1 SI = 64K
       data hash MD5: 64K
       72 A0 0F 9C 93 8E 51 D0 49 AF 74 F5 B3 27 D5 79>)
(   6,<2026-09-15T13:50:21.404+0200>,<matthias>,<Matthiass-MacBook-Pro.local>,<proc1d>,<TopSpin 5.0.0>,
      <apk
       data hash MD5: 64K
       9E B8 09 51 FF 67 FB 5D 28 73 7A 92 70 FF AA DE>)
(   7,<2026-09-15T13:50:21.489+0200>,<matthias>,<Matthiass-MacBook-Pro.local>,<proc1d>,<TopSpin 5.0.0>,
      <abs n ABSG = 5
       data hash MD5: 64K
       63 EA 33 7D 05 E2 A8 34 2C AE EC 5D D2 8A 5A 97>)
(   8,<2026-09-17T13:05:44.729+0200>,<matthias>,<Matthiass-MacBook-Pro.local>,<proc1d>,<TopSpin 5.0.0>,
      <pk fgphup PHC0 = 46.13774 PHC1 = -53.6
       data hash MD5: 64K
       F5 A9 46 FE 98 84 E8 43 63 95 9C 10 AE 88 86 4A>)
$$ ##END=
$$ 
$$ $$ hash MD5
$$ $$ 7B 1F 97 D2 EB 72 E0 48 4E B1 83 D2 F6 4A 0D E7
##$RELAX= 
##$BRUKER FILE EXP=cpdprg2
$$ 1 pcpd*3:180
$$   pcpd*4:0
$$   pcpd*2:180
$$   pcpd*3:0
$$   pcpd  :180
$$   pcpd*2:0
$$   pcpd*4:180
$$   pcpd*2:0
$$   pcpd*3:180
$$ 2 pcpd*3:0
$$   pcpd*4:180
$$   pcpd*2:0
$$   pcpd*3:180
$$   pcpd  :0
$$   pcpd*2:180
$$   pcpd*4:0
$$   pcpd*2:180
$$   pcpd*3:0
$$   lo to 2 times 2
$$ 3 pcpd*3:180
$$   pcpd*4:0
$$   pcpd*2:180
$$   pcpd*3:0
$$   pcpd  :180
$$   pcpd*2:0
$$   pcpd*4:180
$$   pcpd*2:0
$$   pcpd*3:180
$$   jump to 1
##$RELAX= 
##$BRUKER FILE EXP=format.temp
$$ EDIT_PAR COMMAND FILE
$$ 
$$ DI_MODE         LONG
$$ ED_ENTRY        ACQU
$$ ORDER           FILE
$$ 
$$ 
$$ HEADER		"F2 - Acquisition Parameters"
$$ T_NAME		Date_
$$ 		TYPE	R64
$$ 		CLASS	ACQU
$$ 		SUBRANGE 0.0 50000000
$$ 		REL	"Date_=itodate(DATE)"
$$ 		INV_REL	"DATE=datetoi(Date_,DATE)"
$$ 		FORMAT	"%14.0f"
$$ 		TEXT	" "
$$ END
$$ T_NAME		Time
$$ 		TYPE	R32
$$ 		CLASS	ACQU
$$ 		SUBRANGE 0.0 1000000
$$ 		REL	"Time=itotime(DATE)"
$$ 		INV_REL	"DATE=timetoi(Time,DATE)"
$$ 		FORMAT	"%14.2f h"
$$ 		TEXT	" "
$$ END
$$ NAME		INSTRUM
$$ 		TEXT	" "
$$ END
$$ NAME		PROBHD
$$ 		FORMAT	"%14.14s"
$$ 		TEXT	" "
$$ END
$$ NAME		PULPROG
$$ 		TEXT	" "
$$ END
$$ NAME		TD
$$ 		TEXT	" "
$$ END
$$ NAME		SOLVENT
$$ 		TEXT	" "
$$ END
$$ NAME		NS
$$ 		TEXT	" "
$$ END
$$ NAME		DS
$$ 		TEXT	" "
$$ END
$$ T_NAME		SWH
$$ 		TYPE	R32
$$ 		CLASS	ACQU
$$ 		SUBRANGE 0.0 1e8
$$ 		REL	"SWH=SW*SFO1"
$$ 		INV_REL "SW=SWH/SFO1"
$$ 		UNIT	"Hz"
$$ 		FORMAT	"%14.3f Hz"
$$ 		TEXT	" "
$$ END
$$ T_NAME          FIDRES
$$                 TYPE    R32
$$                 CLASS   ACQU
$$                 SUBRANGE 0.0 100000
$$                 REL     "FIDRES=2*SW*SFO1/TD"
$$                 INV_REL "TD = nextpow(2*SW*SFO1/FIDRES)"
$$ 		UNIT	"Hz"
$$ 		FORMAT	"%14.6f Hz"
$$ 		TEXT	" "
$$ END
$$ T_NAME          AQ
$$ 		TYPE	R32
$$ 		CLASS	ACQU
$$ 		SUBRANGE 0.0 1000
$$ 		REL	"AQ=aqcalc(SW,SFO1,TD,DIGTYP)"
$$ 		INV_REL	"TD=tdcalc(SW,SFO1,1.0e6*AQ,DIGTYP)"
$$ 		UNIT	"sec"
$$ 		FORMAT	"%14.7f sec"
$$ 		TEXT	" "
$$ END
$$ NAME		RG
$$ 		TEXT	" "
$$ END
$$ T_NAME          DW
$$ 		TYPE	R32
$$ 		CLASS	ACQU
$$ 		SUBRANGE 0.0 1000000
$$ 		REL	"DW=1/(2*SW*SFO1)"
$$ 		INV_REL	"SW=1000000/(2*(0.005+DW)*SFO1)"
$$ 		UNIT	"usec"
$$ 		FORMAT	"%14.3lf usec"
$$ 		TEXT	" "
$$ END
$$ NAME		DE
$$ 		FORMAT	"%14.2f usec"
$$ 		TEXT	" "
$$ END
$$ NAME		TE
$$ 		FORMAT	"%14.1f K"
$$ 		TEXT	" "
$$ END
$$ T_NAME		CNST2
$$ 		TYPE	R32
$$ 		CLASS	ACQU
$$ 		SUBRANGE -1e38 1e38
$$ 		REL	"CNST2=CNST[2]"
$$ 		INV_REL	"CNST[2]=CNST2"
$$ 		FORMAT	"%14.7f"
$$ 		TEXT	" "
$$ END
$$ T_NAME		D1
$$ 		TYPE	R32
$$ 		CLASS	ACQU
$$ 		SUBRANGE 0.0 1e38
$$ 		REL	"D1=D[1]"
$$ 		INV_REL	"D[1]=D1"
$$ 		UNIT	"sec"
$$ 		FORMAT	"%14.8f sec"
$$ 		TEXT	" "
$$ END
$$ T_NAME		D2
$$ 		TYPE	R32
$$ 		CLASS	ACQU
$$ 		SUBRANGE 0.0 1e38
$$ 		REL	"D2=D[2]"
$$ 		INV_REL	"D[2]=D2"
$$ 		UNIT	"sec"
$$ 		FORMAT	"%14.8f sec"
$$ 		TEXT	" "
$$ END
$$ T_NAME		D12
$$ 		TYPE	R32
$$ 		CLASS	ACQU
$$ 		SUBRANGE 0.0 1e38
$$ 		REL	"D12=D[12]"
$$ 		INV_REL	"D[12]=D12"
$$ 		UNIT	"sec"
$$ 		FORMAT	"%14.8f sec"
$$ 		TEXT	" "
$$ END
$$ NAME		TD0
$$ 		TEXT	" "
$$ END
$$ NAME		SFO1
$$ 		FORMAT	"%14.7f MHz"
$$ 		TEXT	" "
$$ END
$$ NAME		NUC1
$$ 		NONEDIT
$$ 		TEXT	" "
$$ END
$$ T_NAME		P1
$$ 		TYPE	R32
$$ 		CLASS	ACQU
$$ 		SUBRANGE 0.0 1.0e10
$$ 		REL	"P1=P[1]"
$$ 		INV_REL	"P[1]=P1"
$$ 		UNIT	"usec"
$$ 		FORMAT	"%14.2f usec"
$$ 		TEXT	" "
$$ END
$$ T_NAME		P13
$$ 		TYPE	R32
$$ 		CLASS	ACQU
$$ 		SUBRANGE 0.0 1.0e10
$$ 		REL	"P13=P[13]"
$$ 		INV_REL	"P[13]=P13"
$$ 		UNIT	"usec"
$$ 		FORMAT	"%14.2f usec"
$$ 		TEXT	" "
$$ END
$$ T_NAME		PLW0
$$ 		TYPE	R32
$$ 		CLASS	ACQU
$$ 		REL	"PLW0=PLW[0]"
$$ 		INV_REL	"PLW[0]=PLW0"
$$ 		UNIT	"W"
$$ 		FORMAT	"%14.8f W"
$$ 		TEXT	"power PLW0 "
$$ END
$$ T_NAME		PLW1
$$ 		TYPE	R32
$$ 		CLASS	ACQU
$$ 		REL	"PLW1=PLW[1]"
$$ 		INV_REL	"PLW[1]=PLW1"
$$ 		UNIT	"W"
$$ 		FORMAT	"%14.8f W"
$$ 		TEXT	"power PLW1 "
$$ END
$$ NAME		SPNAM[5]
$$ 		TEXT	" "
$$ END
$$ T_NAME		SPOAL5
$$ 		TYPE	R32
$$ 		CLASS	ACQU
$$ 		SUBRANGE -1.0 1.0
$$ 		REL	"SPOAL5=SPOAL[5]"
$$ 		INV_REL	"SPOAL[5]=SPOAL5"
$$ 		FORMAT	"%14.3f"
$$ 		TEXT	" "
$$ END
$$ T_NAME		SPOFFS5
$$ 		TYPE	R32
$$ 		CLASS	ACQU
$$ 		SUBRANGE -1e38 1e38
$$ 		REL	"SPOFFS5=SPOFFS[5]"
$$ 		INV_REL	"SPOFFS[0]=SPOFFS0"
$$ 		UNIT	"Hz"
$$ 		FORMAT	"%14.2f Hz"
$$ 		TEXT	" "
$$ END
$$ T_NAME		SPW5
$$ 		TYPE	R32
$$ 		CLASS	ACQU
$$ 		REL	"SPW5=SPW[5]"
$$ 		INV_REL	"SPW[5]=SPW5"
$$ 		UNIT	"W"
$$ 		FORMAT	"%14.8f W"
$$ 		TEXT	"shaped pulse power SPW5"
$$ END
$$ NAME		SFO2
$$ 		FORMAT	"%14.7f MHz"
$$ 		TEXT	" "
$$ END
$$ NAME		NUC2
$$ 		NONEDIT
$$ 		TEXT	" "
$$ END
$$ NAME		CPDPRG[2]
$$ 		TEXT	" "
$$ END
$$ T_NAME		P3
$$ 		TYPE	R32
$$ 		CLASS	ACQU
$$ 		SUBRANGE 0.0 1.0e10
$$ 		REL	"P3=P[3]"
$$ 		INV_REL	"P[3]=P3"
$$ 		UNIT	"usec"
$$ 		FORMAT	"%14.2f usec"
$$ 		TEXT	" "
$$ END
$$ T_NAME		P4
$$ 		TYPE	R32
$$ 		CLASS	ACQU
$$ 		SUBRANGE 0.0 1.0e10
$$ 		REL	"P4=P[4]"
$$ 		INV_REL	"P[4]=P4"
$$ 		UNIT	"usec"
$$ 		FORMAT	"%14.2f usec"
$$ 		TEXT	" "
$$ END
$$ T_NAME		PCPD2
$$ 		TYPE	R32
$$ 		CLASS	ACQU
$$ 		SUBRANGE 0 1e38
$$ 		REL	"PCPD2=PCPD[2]"
$$ 		INV_REL	"PCPD[2]=PCPD2"
$$ 		UNIT	"usec"
$$ 		FORMAT	"%14.2f usec"
$$ 		TEXT	" "
$$ END
$$ T_NAME		PLW2
$$ 		TYPE	R32
$$ 		CLASS	ACQU
$$ 		REL	"PLW2=PLW[2]"
$$ 		INV_REL	"PLW[2]=PLW2"
$$ 		UNIT	"W"
$$ 		FORMAT	"%14.8f W"
$$ 		TEXT	"power PLW2 "
$$ END
$$ T_NAME		PLW12
$$ 		TYPE	R32
$$ 		CLASS	ACQU
$$ 		REL	"PLW12=PLW[12]"
$$ 		INV_REL	"PLW[12]=PLW12"
$$ 		UNIT	"W"
$$ 		FORMAT	"%14.8f W"
$$ 		TEXT	"power PLW12 "
$$ END
##$RELAX= 
##$BRUKER FILE EXP=scon2
$$ ##TITLE= Parameter file, TopSpin 3.5 pl 7
$$ ##JCAMPDX= 5.0
$$ ##DATATYPE= Parameter Values
$$ ##NPOINTS= 3	$$ modification sequence number
$$ ##ORIGIN= Bruker BioSpin GmbH
$$ ##OWNER= aci
$$ $$ 2025-05-19 12:52:27.632 +0200  aci@chem-nmr500
$$ $$ /opt/topspin3.2/data/aci/nmr/A_Laurent_190525/3/scon2
$$ $$ process /opt/topspin3.5pl7/prog/mod/go4
$$ ##$BLKTR= (0..19)
$$ 3 3 3 3 3 3 3 3 3 3 3 3 3 3 3 3 3 3 3 3
$$ ##$DE1= 4.5
$$ ##$DEADC= 0.5
$$ ##$DEPA= 4.5
$$ ##$DERX= 1.5
$$ ##$FILCOR= 0
$$ ##$GRADCHAN= 0
$$ ##$GRADPRE= (0..1)
$$ 10 10
$$ ##$HD_BLKTR= (0..19)
$$ 1 1 1 1 1 1 1 1 1 1 1 1 1 1 1 1 1 1 1 1
$$ ##$HD_DE1= 5
$$ ##$HD_DEADC= 0
$$ ##$HD_DEPA= 2.5
$$ ##$HD_DERX= 0
$$ ##END=
##$RELAX= 
##$BRUKER FILE EXP=acqum
$$ ##TITLE= Parameter file, TopSpin 3.5 pl 7
$$ ##JCAMPDX= 5.0
$$ ##DATATYPE= Parameter Values
$$ ##NPOINTS= 1	$$ modification sequence number
$$ ##ORIGIN= Bruker BioSpin GmbH
$$ ##OWNER= aci
$$ $$ 2025-05-19 12:34:42.703 +0200  aci@chem-nmr500
$$ $$ /opt/topspin3.2/data/aci/nmr/A_Laurent_190525/3/acqum
$$ $$ process /opt/topspin3.5pl7/prog/mod/edparproc
$$ ##$COMMENT= <>
$$ ##$ECF= 1
$$ ##$ECHOLST= (0..15)
$$ 1 1 1 1 1 1 1 1 1 1 1 1 1 1 1 1
$$ ##$ECOLLST= (0..15)
$$ 1 1 1 1 1 1 1 1 1 1 1 1 1 1 1 1
$$ ##$FLIPA= 0
$$ ##$FOV1= 0
$$ ##$FOV2= 0
$$ ##$FOV3= 0
$$ ##$FRARE= 1
$$ ##$HEADER= <>
$$ ##$INSTIT= <>
$$ ##$METHOD= <>
$$ ##$NECHOES= 1
$$ ##$NPROJEC= 1
$$ ##$NSLICES= 1
$$ ##$PATPOS= 0
$$ ##$RUNEXAM= -1
$$ ##$SDIST= 1
$$ ##$SOANGLE= 0
$$ ##$SORIENT= 0
$$ ##$SOT= <>
$$ ##$SPOS= 0
$$ ##$SPOSDIR= <>
$$ ##$STHICK= 3
$$ ##$T2DIST= 30
$$ ##$TINV= 50
$$ ##$TREC= 2700
$$ ##$TREP= 3000
$$ ##$TSCAN= 50000
$$ ##END=
##$RELAX= 
##$BRUKER FILE EXP=spnam5
$$ ##TITLE= sm. comp. Chirp: 60kHz, 2ms
$$ ##JCAMP-DX= 5.00 Bruker JCAMP library
$$ ##DATA TYPE= Shape Data
$$ ##ORIGIN= Bruker BioSpin GmbH
$$ ##OWNER= <demo>
$$ ##DATE= 2005/09/22
$$ ##TIME= 18:40:13
$$ ##$SHAPE_PARAMETERS= Type: CompositeSmoothedChirp Add Const. Phase -84.0
$$ ##MINX= 0.000000E00
$$ ##MAXX= 1.000000E02
$$ ##MINY= 1.110750E-01
$$ ##MAXY= 3.599617E02
$$ ##$SHAPE_EXMODE= CompositeAdiabatic
$$ ##$SHAPE_TOTROT= 1.800000E02
$$ ##$SHAPE_TYPE= Refocussing
$$ ##$SHAPE_USER_DEF= 
$$ ##$SHAPE_REPHFAC= 
$$ ##$SHAPE_BWFAC= 8.099400E01
$$ ##$SHAPE_BWFAC50= 
$$ ##$SHAPE_INTEGFAC= 2.558317E-02
$$ ##$SHAPE_MODE= 0
$$ ##NPOINTS= 4000
$$ ##XYPOINTS= (XY..XY)
$$ 0.000000E00, 1.833013E02
$$ 7.893367E-01, 1.779122E02
$$ 1.578624E00, 1.725338E02
$$ 2.367813E00, 1.671662E02
$$ 3.156855E00, 1.618093E02
$$ 3.945700E00, 1.564633E02
$$ 4.734299E00, 1.511282E02
$$ 5.522603E00, 1.458037E02
$$ 6.310563E00, 1.404901E02
$$ 7.098130E00, 1.351873E02
$$ 7.885255E00, 1.298954E02
$$ 8.671888E00, 1.246142E02
$$ 9.457981E00, 1.193437E02
$$ 1.024348E01, 1.140841E02
$$ 1.102835E01, 1.088353E02
$$ 1.181253E01, 1.035973E02
$$ 1.259597E01, 9.837015E01
$$ 1.337863E01, 9.315375E01
$$ 1.416045E01, 8.794815E01
$$ 1.494139E01, 8.275335E01
$$ 1.572140E01, 7.756935E01
$$ 1.650044E01, 7.239615E01
$$ 1.727844E01, 6.723375E01
$$ 1.805537E01, 6.208215E01
$$ 1.883117E01, 5.694135E01
$$ 1.960579E01, 5.181135E01
$$ 2.037920E01, 4.669215E01
$$ 2.115134E01, 4.158375E01
$$ 2.192216E01, 3.648615E01
$$ 2.269161E01, 3.139935E01
$$ 2.345965E01, 2.632335E01
$$ 2.422623E01, 2.125815E01
$$ 2.499130E01, 1.620375E01
$$ 2.575481E01, 1.116015E01
$$ 2.651671E01, 6.127350E00
$$ 2.727697E01, 1.105350E00
$$ 2.803552E01, 3.560941E02
$$ 2.879233E01, 3.510937E02
$$ 2.954734E01, 3.461042E02
$$ 3.030052E01, 3.411253E02
$$ 3.105180E01, 3.361573E02
$$ 3.180115E01, 3.312001E02
$$ 3.254852E01, 3.262537E02
$$ 3.329386E01, 3.213182E02
$$ 3.403713E01, 3.163933E02
$$ 3.477828E01, 3.114793E02
$$ 3.551726E01, 3.065761E02
$$ 3.625402E01, 3.016837E02
$$ 3.698853E01, 2.968021E02
$$ 3.772073E01, 2.919314E02
$$ 3.845058E01, 2.870713E02
$$ 3.917804E01, 2.822221E02
$$ 3.990306E01, 2.773837E02
$$ 4.062559E01, 2.725561E02
$$ 4.134558E01, 2.677394E02
$$ 4.206301E01, 2.629333E02
$$ 4.277781E01, 2.581382E02
$$ 4.348994E01, 2.533537E02
$$ 4.419937E01, 2.485802E02
$$ 4.490604E01, 2.438174E02
$$ 4.560992E01, 2.390654E02
$$ 4.631095E01, 2.343241E02
$$ 4.700910E01, 2.295937E02
$$ 4.770431E01, 2.248741E02
$$ 4.839656E01, 2.201653E02
$$ 4.908579E01, 2.154674E02
$$ 4.977196E01, 2.107801E02
$$ 5.045503E01, 2.061038E02
$$ 5.113496E01, 2.014381E02
$$ 5.181170E01, 1.967834E02
$$ 5.248522E01, 1.921393E02
$$ 5.315546E01, 1.875062E02
$$ 5.382239E01, 1.828837E02
$$ 5.448597E01, 1.782721E02
$$ 5.514615E01, 1.736713E02
$$ 5.580290E01, 1.690813E02
$$ 5.645617E01, 1.645021E02
$$ 5.710592E01, 1.599337E02
$$ 5.775212E01, 1.553761E02
$$ 5.839471E01, 1.508293E02
$$ 5.903367E01, 1.462934E02
$$ 5.966895E01, 1.417682E02
$$ 6.030051E01, 1.372537E02
$$ 6.092832E01, 1.327501E02
$$ 6.155232E01, 1.282573E02
$$ 6.217250E01, 1.237754E02
$$ 6.278880E01, 1.193041E02
$$ 6.340118E01, 1.148438E02
$$ 6.400962E01, 1.103941E02
$$ 6.461407E01, 1.059553E02
$$ 6.521449E01, 1.015274E02
$$ 6.581085E01, 9.711015E01
$$ 6.640311E01, 9.270375E01
$$ 6.699124E01, 8.830815E01
$$ 6.757518E01, 8.392335E01
$$ 6.815492E01, 7.954935E01
$$ 6.873041E01, 7.518615E01
$$ 6.930162E01, 7.083375E01
$$ 6.986851E01, 6.649215E01
$$ 7.043105E01, 6.216135E01
$$ 7.098920E01, 5.784135E01
$$ 7.154293E01, 5.353215E01
$$ 7.209220E01, 4.923375E01
$$ 7.263698E01, 4.494615E01
$$ 7.317723E01, 4.066935E01
$$ 7.371292E01, 3.640335E01
$$ 7.424402E01, 3.214815E01
$$ 7.477049E01, 2.790375E01
$$ 7.529231E01, 2.367015E01
$$ 7.580943E01, 1.944735E01
$$ 7.632183E01, 1.523535E01
$$ 7.682948E01, 1.103415E01
$$ 7.733233E01, 6.843750E00
$$ 7.783037E01, 2.664150E00
$$ 7.832356E01, 3.584954E02
$$ 7.881187E01, 3.543373E02
$$ 7.929527E01, 3.501902E02
$$ 7.977373E01, 3.460537E02
$$ 8.024722E01, 3.419282E02
$$ 8.071571E01, 3.378133E02
$$ 8.117917E01, 3.337094E02
$$ 8.163757E01, 3.296161E02
$$ 8.209089E01, 3.255337E02
$$ 8.253909E01, 3.214621E02
$$ 8.298215E01, 3.174013E02
$$ 8.342003E01, 3.133514E02
$$ 8.385272E01, 3.093122E02
$$ 8.428019E01, 3.052837E02
$$ 8.470240E01, 3.012662E02
$$ 8.511934E01, 2.972593E02
$$ 8.553097E01, 2.932634E02
$$ 8.593728E01, 2.892781E02
$$ 8.633823E01, 2.853038E02
$$ 8.673380E01, 2.813401E02
$$ 8.712396E01, 2.773873E02
$$ 8.750870E01, 2.734453E02
$$ 8.788799E01, 2.695142E02
$$ 8.826180E01, 2.655938E02
$$ 8.863011E01, 2.616842E02
$$ 8.899290E01, 2.577854E02
$$ 8.935014E01, 2.538973E02
$$ 8.970182E01, 2.500202E02
$$ 9.004790E01, 2.461537E02
$$ 9.038838E01, 2.422981E02
$$ 9.072323E01, 2.384533E02
$$ 9.105242E01, 2.346193E02
$$ 9.137594E01, 2.307962E02
$$ 9.169376E01, 2.269838E02
$$ 9.200588E01, 2.231821E02
$$ 9.231226E01, 2.193914E02
$$ 9.261288E01, 2.156114E02
$$ 9.290774E01, 2.118421E02
$$ 9.319681E01, 2.080838E02
$$ 9.348008E01, 2.043361E02
$$ 9.375751E01, 2.005993E02
$$ 9.402911E01, 1.968733E02
$$ 9.429485E01, 1.931581E02
$$ 9.455471E01, 1.894537E02
$$ 9.480868E01, 1.857602E02
$$ 9.505675E01, 1.820774E02
$$ 9.529889E01, 1.784053E02
$$ 9.553510E01, 1.747442E02
$$ 9.576535E01, 1.710937E02
$$ 9.598963E01, 1.674542E02
$$ 9.620794E01, 1.638253E02
$$ 9.642025E01, 1.602074E02
$$ 9.662655E01, 1.566001E02
$$ 9.682683E01, 1.530037E02
$$ 9.702108E01, 1.494181E02
$$ 9.720928E01, 1.458434E02
$$ 9.739143E01, 1.422794E02
$$ 9.756751E01, 1.387261E02
$$ 9.773751E01, 1.351837E02
$$ 9.790142E01, 1.316521E02
$$ 9.805923E01, 1.281314E02
$$ 9.821093E01, 1.246213E02
$$ 9.835651E01, 1.211222E02
$$ 9.849597E01, 1.176337E02
$$ 9.862928E01, 1.141562E02
$$ 9.875646E01, 1.106893E02
$$ 9.887747E01, 1.072333E02
$$ 9.899233E01, 1.037881E02
$$ 9.910102E01, 1.003537E02
$$ 9.920354E01, 9.693015E01
$$ 9.929987E01, 9.351735E01
$$ 9.939002E01, 9.011535E01
$$ 9.947397E01, 8.672415E01
$$ 9.955173E01, 8.334375E01
$$ 9.962328E01, 7.997415E01
$$ 9.968863E01, 7.661535E01
$$ 9.974776E01, 7.326735E01
$$ 9.980069E01, 6.993015E01
$$ 9.984739E01, 6.660375E01
$$ 9.988787E01, 6.328815E01
$$ 9.992213E01, 5.998335E01
$$ 9.995016E01, 5.668935E01
$$ 9.997196E01, 5.340615E01
$$ 9.998754E01, 5.013375E01
$$ 9.999688E01, 4.687215E01
$$ 1.000000E02, 4.362135E01
$$ 1.000000E02, 4.038135E01
$$ 1.000000E02, 3.715215E01
$$ 1.000000E02, 3.393375E01
$$ 1.000000E02, 3.072615E01
$$ 1.000000E02, 2.752935E01
$$ 1.000000E02, 2.434335E01
$$ 1.000000E02, 2.116815E01
$$ 1.000000E02, 1.800375E01
$$ 1.000000E02, 1.485015E01
$$ 1.000000E02, 1.170735E01
$$ 1.000000E02, 8.575350E00
$$ 1.000000E02, 5.454150E00
$$ 1.000000E02, 2.343750E00
$$ 1.000000E02, 3.592442E02
$$ 1.000000E02, 3.561554E02
$$ 1.000000E02, 3.530773E02
$$ 1.000000E02, 3.500102E02
$$ 1.000000E02, 3.469537E02
$$ 1.000000E02, 3.439082E02
$$ 1.000000E02, 3.408734E02
$$ 1.000000E02, 3.378493E02
$$ 1.000000E02, 3.348362E02
$$ 1.000000E02, 3.318337E02
$$ 1.000000E02, 3.288422E02
$$ 1.000000E02, 3.258613E02
$$ 1.000000E02, 3.228914E02
$$ 1.000000E02, 3.199322E02
$$ 1.000000E02, 3.169838E02
$$ 1.000000E02, 3.140461E02
$$ 1.000000E02, 3.111193E02
$$ 1.000000E02, 3.082033E02
$$ 1.000000E02, 3.052981E02
$$ 1.000000E02, 3.024038E02
$$ 1.000000E02, 2.995201E02
$$ 1.000000E02, 2.966474E02
$$ 1.000000E02, 2.937853E02
$$ 1.000000E02, 2.909342E02
$$ 1.000000E02, 2.880937E02
$$ 1.000000E02, 2.852642E02
$$ 1.000000E02, 2.824453E02
$$ 1.000000E02, 2.796373E02
$$ 1.000000E02, 2.768402E02
$$ 1.000000E02, 2.740537E02
$$ 1.000000E02, 2.712782E02
$$ 1.000000E02, 2.685133E02
$$ 1.000000E02, 2.657594E02
$$ 1.000000E02, 2.630161E02
$$ 1.000000E02, 2.602838E02
$$ 1.000000E02, 2.575622E02
$$ 1.000000E02, 2.548513E02
$$ 1.000000E02, 2.521513E02
$$ 1.000000E02, 2.494621E02
$$ 1.000000E02, 2.467838E02
$$ 1.000000E02, 2.441161E02
$$ 1.000000E02, 2.414593E02
$$ 1.000000E02, 2.388133E02
$$ 1.000000E02, 2.361781E02
$$ 1.000000E02, 2.335537E02
$$ 1.000000E02, 2.309401E02
$$ 1.000000E02, 2.283374E02
$$ 1.000000E02, 2.257454E02
$$ 1.000000E02, 2.231642E02
$$ 1.000000E02, 2.205938E02
$$ 1.000000E02, 2.180342E02
$$ 1.000000E02, 2.154853E02
$$ 1.000000E02, 2.129473E02
$$ 1.000000E02, 2.104201E02
$$ 1.000000E02, 2.079038E02
$$ 1.000000E02, 2.053982E02
$$ 1.000000E02, 2.029034E02
$$ 1.000000E02, 2.004194E02
$$ 1.000000E02, 1.979462E02
$$ 1.000000E02, 1.954838E02
$$ 1.000000E02, 1.930322E02
$$ 1.000000E02, 1.905913E02
$$ 1.000000E02, 1.881613E02
$$ 1.000000E02, 1.857421E02
$$ 1.000000E02, 1.833337E02
$$ 1.000000E02, 1.809362E02
$$ 1.000000E02, 1.785494E02
$$ 1.000000E02, 1.761733E02
$$ 1.000000E02, 1.738082E02
$$ 1.000000E02, 1.714538E02
$$ 1.000000E02, 1.691101E02
$$ 1.000000E02, 1.667773E02
$$ 1.000000E02, 1.644553E02
$$ 1.000000E02, 1.621441E02
$$ 1.000000E02, 1.598437E02
$$ 1.000000E02, 1.575542E02
$$ 1.000000E02, 1.552753E02
$$ 1.000000E02, 1.530073E02
$$ 1.000000E02, 1.507502E02
$$ 1.000000E02, 1.485038E02
$$ 1.000000E02, 1.462681E02
$$ 1.000000E02, 1.440433E02
$$ 1.000000E02, 1.418293E02
$$ 1.000000E02, 1.396261E02
$$ 1.000000E02, 1.374338E02
$$ 1.000000E02, 1.352521E02
$$ 1.000000E02, 1.330814E02
$$ 1.000000E02, 1.309214E02
$$ 1.000000E02, 1.287722E02
$$ 1.000000E02, 1.266337E02
$$ 1.000000E02, 1.245061E02
$$ 1.000000E02, 1.223893E02
$$ 1.000000E02, 1.202833E02
$$ 1.000000E02, 1.181881E02
$$ 1.000000E02, 1.161037E02
$$ 1.000000E02, 1.140301E02
$$ 1.000000E02, 1.119673E02
$$ 1.000000E02, 1.099154E02
$$ 1.000000E02, 1.078741E02
$$ 1.000000E02, 1.058438E02
$$ 1.000000E02, 1.038241E02
$$ 1.000000E02, 1.018153E02
$$ 1.000000E02, 9.981735E01
$$ 1.000000E02, 9.783015E01
$$ 1.000000E02, 9.585375E01
$$ 1.000000E02, 9.388815E01
$$ 1.000000E02, 9.193335E01
$$ 1.000000E02, 8.998935E01
$$ 1.000000E02, 8.805615E01
$$ 1.000000E02, 8.613375E01
$$ 1.000000E02, 8.422215E01
$$ 1.000000E02, 8.232135E01
$$ 1.000000E02, 8.043135E01
$$ 1.000000E02, 7.855215E01
$$ 1.000000E02, 7.668375E01
$$ 1.000000E02, 7.482615E01
$$ 1.000000E02, 7.297935E01
$$ 1.000000E02, 7.114335E01
$$ 1.000000E02, 6.931815E01
$$ 1.000000E02, 6.750375E01
$$ 1.000000E02, 6.570015E01
$$ 1.000000E02, 6.390735E01
$$ 1.000000E02, 6.212535E01
$$ 1.000000E02, 6.035415E01
$$ 1.000000E02, 5.859375E01
$$ 1.000000E02, 5.684415E01
$$ 1.000000E02, 5.510535E01
$$ 1.000000E02, 5.337735E01
$$ 1.000000E02, 5.166015E01
$$ 1.000000E02, 4.995375E01
$$ 1.000000E02, 4.825815E01
$$ 1.000000E02, 4.657335E01
$$ 1.000000E02, 4.489935E01
$$ 1.000000E02, 4.323615E01
$$ 1.000000E02, 4.158375E01
$$ 1.000000E02, 3.994215E01
$$ 1.000000E02, 3.831135E01
$$ 1.000000E02, 3.669135E01
$$ 1.000000E02, 3.508215E01
$$ 1.000000E02, 3.348375E01
$$ 1.000000E02, 3.189615E01
$$ 1.000000E02, 3.031935E01
$$ 1.000000E02, 2.875335E01
$$ 1.000000E02, 2.719815E01
$$ 1.000000E02, 2.565375E01
$$ 1.000000E02, 2.412015E01
$$ 1.000000E02, 2.259735E01
$$ 1.000000E02, 2.108535E01
$$ 1.000000E02, 1.958415E01
$$ 1.000000E02, 1.809375E01
$$ 1.000000E02, 1.661415E01
$$ 1.000000E02, 1.514535E01
$$ 1.000000E02, 1.368735E01
$$ 1.000000E02, 1.224015E01
$$ 1.000000E02, 1.080375E01
$$ 1.000000E02, 9.378150E00
$$ 1.000000E02, 7.963350E00
$$ 1.000000E02, 6.559350E00
$$ 1.000000E02, 5.166150E00
$$ 1.000000E02, 3.783750E00
$$ 1.000000E02, 2.412150E00
$$ 1.000000E02, 1.051350E00
$$ 1.000000E02, 3.597014E02
$$ 1.000000E02, 3.583622E02
$$ 1.000000E02, 3.570338E02
$$ 1.000000E02, 3.557161E02
$$ 1.000000E02, 3.544094E02
$$ 1.000000E02, 3.531133E02
$$ 1.000000E02, 3.518282E02
$$ 1.000000E02, 3.505538E02
$$ 1.000000E02, 3.492902E02
$$ 1.000000E02, 3.480373E02
$$ 1.000000E02, 3.467954E02
$$ 1.000000E02, 3.455642E02
$$ 1.000000E02, 3.443438E02
$$ 1.000000E02, 3.431342E02
$$ 1.000000E02, 3.419353E02
$$ 1.000000E02, 3.407474E02
$$ 1.000000E02, 3.395702E02
$$ 1.000000E02, 3.384038E02
$$ 1.000000E02, 3.372482E02
$$ 1.000000E02, 3.361034E02
$$ 1.000000E02, 3.349693E02
$$ 1.000000E02, 3.338461E02
$$ 1.000000E02, 3.327338E02
$$ 1.000000E02, 3.316322E02
$$ 1.000000E02, 3.305413E02
$$ 1.000000E02, 3.294614E02
$$ 1.000000E02, 3.283922E02
$$ 1.000000E02, 3.273338E02
$$ 1.000000E02, 3.262862E02
$$ 1.000000E02, 3.252494E02
$$ 1.000000E02, 3.242234E02
$$ 1.000000E02, 3.232082E02
$$ 1.000000E02, 3.222038E02
$$ 1.000000E02, 3.212102E02
$$ 1.000000E02, 3.202274E02
$$ 1.000000E02, 3.192554E02
$$ 1.000000E02, 3.182942E02
$$ 1.000000E02, 3.173438E02
$$ 1.000000E02, 3.164042E02
$$ 1.000000E02, 3.154754E02
$$ 1.000000E02, 3.145574E02
$$ 1.000000E02, 3.136502E02
$$ 1.000000E02, 3.127537E02
$$ 1.000000E02, 3.118682E02
$$ 1.000000E02, 3.109933E02
$$ 1.000000E02, 3.101294E02
$$ 1.000000E02, 3.092762E02
$$ 1.000000E02, 3.084338E02
$$ 1.000000E02, 3.076022E02
$$ 1.000000E02, 3.067814E02
$$ 1.000000E02, 3.059714E02
$$ 1.000000E02, 3.051722E02
$$ 1.000000E02, 3.043838E02
$$ 1.000000E02, 3.036062E02
$$ 1.000000E02, 3.028393E02
$$ 1.000000E02, 3.020834E02
$$ 1.000000E02, 3.013382E02
$$ 1.000000E02, 3.006038E02
$$ 1.000000E02, 2.998802E02
$$ 1.000000E02, 2.991674E02
$$ 1.000000E02, 2.984654E02
$$ 1.000000E02, 2.977742E02
$$ 1.000000E02, 2.970938E02
$$ 1.000000E02, 2.964242E02
$$ 1.000000E02, 2.957654E02
$$ 1.000000E02, 2.951174E02
$$ 1.000000E02, 2.944802E02
$$ 1.000000E02, 2.938538E02
$$ 1.000000E02, 2.932382E02
$$ 1.000000E02, 2.926334E02
$$ 1.000000E02, 2.920394E02
$$ 1.000000E02, 2.914562E02
$$ 1.000000E02, 2.908837E02
$$ 1.000000E02, 2.903221E02
$$ 1.000000E02, 2.897714E02
$$ 1.000000E02, 2.892314E02
$$ 1.000000E02, 2.887022E02
$$ 1.000000E02, 2.881838E02
$$ 1.000000E02, 2.876762E02
$$ 1.000000E02, 2.871794E02
$$ 1.000000E02, 2.866934E02
$$ 1.000000E02, 2.862182E02
$$ 1.000000E02, 2.857537E02
$$ 1.000000E02, 2.853002E02
$$ 1.000000E02, 2.848574E02
$$ 1.000000E02, 2.844254E02
$$ 1.000000E02, 2.840042E02
$$ 1.000000E02, 2.835938E02
$$ 1.000000E02, 2.831942E02
$$ 1.000000E02, 2.828054E02
$$ 1.000000E02, 2.824274E02
$$ 1.000000E02, 2.820602E02
$$ 1.000000E02, 2.817038E02
$$ 1.000000E02, 2.813582E02
$$ 1.000000E02, 2.810234E02
$$ 1.000000E02, 2.806994E02
$$ 1.000000E02, 2.803862E02
$$ 1.000000E02, 2.800838E02
$$ 1.000000E02, 2.797922E02
$$ 1.000000E02, 2.795114E02
$$ 1.000000E02, 2.792414E02
$$ 1.000000E02, 2.789822E02
$$ 1.000000E02, 2.787338E02
$$ 1.000000E02, 2.784962E02
$$ 1.000000E02, 2.782694E02
$$ 1.000000E02, 2.780534E02
$$ 1.000000E02, 2.778482E02
$$ 1.000000E02, 2.776538E02
$$ 1.000000E02, 2.774702E02
$$ 1.000000E02, 2.772974E02
$$ 1.000000E02, 2.771354E02
$$ 1.000000E02, 2.769842E02
$$ 1.000000E02, 2.768438E02
$$ 1.000000E02, 2.767142E02
$$ 1.000000E02, 2.765954E02
$$ 1.000000E02, 2.764874E02
$$ 1.000000E02, 2.763902E02
$$ 1.000000E02, 2.763038E02
$$ 1.000000E02, 2.762282E02
$$ 1.000000E02, 2.761634E02
$$ 1.000000E02, 2.761094E02
$$ 1.000000E02, 2.760662E02
$$ 1.000000E02, 2.760338E02
$$ 1.000000E02, 2.760122E02
$$ 1.000000E02, 2.760014E02
$$ 1.000000E02, 2.760014E02
$$ 1.000000E02, 2.760122E02
$$ 1.000000E02, 2.760338E02
$$ 1.000000E02, 2.760662E02
$$ 1.000000E02, 2.761094E02
$$ 1.000000E02, 2.761634E02
$$ 1.000000E02, 2.762282E02
$$ 1.000000E02, 2.763038E02
$$ 1.000000E02, 2.763902E02
$$ 1.000000E02, 2.764874E02
$$ 1.000000E02, 2.765954E02
$$ 1.000000E02, 2.767142E02
$$ 1.000000E02, 2.768438E02
$$ 1.000000E02, 2.769842E02
$$ 1.000000E02, 2.771354E02
$$ 1.000000E02, 2.772974E02
$$ 1.000000E02, 2.774702E02
$$ 1.000000E02, 2.776538E02
$$ 1.000000E02, 2.778482E02
$$ 1.000000E02, 2.780534E02
$$ 1.000000E02, 2.782694E02
$$ 1.000000E02, 2.784962E02
$$ 1.000000E02, 2.787338E02
$$ 1.000000E02, 2.789822E02
$$ 1.000000E02, 2.792414E02
$$ 1.000000E02, 2.795114E02
$$ 1.000000E02, 2.797922E02
$$ 1.000000E02, 2.800838E02
$$ 1.000000E02, 2.803862E02
$$ 1.000000E02, 2.806994E02
$$ 1.000000E02, 2.810234E02
$$ 1.000000E02, 2.813582E02
$$ 1.000000E02, 2.817038E02
$$ 1.000000E02, 2.820602E02
$$ 1.000000E02, 2.824274E02
$$ 1.000000E02, 2.828054E02
$$ 1.000000E02, 2.831942E02
$$ 1.000000E02, 2.835938E02
$$ 1.000000E02, 2.840042E02
$$ 1.000000E02, 2.844254E02
$$ 1.000000E02, 2.848574E02
$$ 1.000000E02, 2.853002E02
$$ 1.000000E02, 2.857537E02
$$ 1.000000E02, 2.862182E02
$$ 1.000000E02, 2.866934E02
$$ 1.000000E02, 2.871794E02
$$ 1.000000E02, 2.876762E02
$$ 1.000000E02, 2.881838E02
$$ 1.000000E02, 2.887022E02
$$ 1.000000E02, 2.892314E02
$$ 1.000000E02, 2.897714E02
$$ 1.000000E02, 2.903221E02
$$ 1.000000E02, 2.908837E02
$$ 1.000000E02, 2.914562E02
$$ 1.000000E02, 2.920394E02
$$ 1.000000E02, 2.926334E02
$$ 1.000000E02, 2.932382E02
$$ 1.000000E02, 2.938538E02
$$ 1.000000E02, 2.944802E02
$$ 1.000000E02, 2.951174E02
$$ 1.000000E02, 2.957654E02
$$ 1.000000E02, 2.964242E02
$$ 1.000000E02, 2.970938E02
$$ 1.000000E02, 2.977742E02
$$ 1.000000E02, 2.984654E02
$$ 1.000000E02, 2.991674E02
$$ 1.000000E02, 2.998802E02
$$ 1.000000E02, 3.006038E02
$$ 1.000000E02, 3.013382E02
$$ 1.000000E02, 3.020834E02
$$ 1.000000E02, 3.028393E02
$$ 1.000000E02, 3.036062E02
$$ 1.000000E02, 3.043838E02
$$ 1.000000E02, 3.051722E02
$$ 1.000000E02, 3.059714E02
$$ 1.000000E02, 3.067814E02
$$ 1.000000E02, 3.076022E02
$$ 1.000000E02, 3.084338E02
$$ 1.000000E02, 3.092762E02
$$ 1.000000E02, 3.101294E02
$$ 1.000000E02, 3.109933E02
$$ 1.000000E02, 3.118682E02
$$ 1.000000E02, 3.127537E02
$$ 1.000000E02, 3.136502E02
$$ 1.000000E02, 3.145574E02
$$ 1.000000E02, 3.154754E02
$$ 1.000000E02, 3.164042E02
$$ 1.000000E02, 3.173438E02
$$ 1.000000E02, 3.182942E02
$$ 1.000000E02, 3.192554E02
$$ 1.000000E02, 3.202274E02
$$ 1.000000E02, 3.212102E02
$$ 1.000000E02, 3.222038E02
$$ 1.000000E02, 3.232082E02
$$ 1.000000E02, 3.242234E02
$$ 1.000000E02, 3.252494E02
$$ 1.000000E02, 3.262862E02
$$ 1.000000E02, 3.273338E02
$$ 1.000000E02, 3.283922E02
$$ 1.000000E02, 3.294614E02
$$ 1.000000E02, 3.305413E02
$$ 1.000000E02, 3.316322E02
$$ 1.000000E02, 3.327338E02
$$ 1.000000E02, 3.338461E02
$$ 1.000000E02, 3.349693E02
$$ 1.000000E02, 3.361034E02
$$ 1.000000E02, 3.372482E02
$$ 1.000000E02, 3.384038E02
$$ 1.000000E02, 3.395702E02
$$ 1.000000E02, 3.407474E02
$$ 1.000000E02, 3.419353E02
$$ 1.000000E02, 3.431342E02
$$ 1.000000E02, 3.443438E02
$$ 1.000000E02, 3.455642E02
$$ 1.000000E02, 3.467954E02
$$ 1.000000E02, 3.480373E02
$$ 1.000000E02, 3.492902E02
$$ 1.000000E02, 3.505538E02
$$ 1.000000E02, 3.518282E02
$$ 1.000000E02, 3.531133E02
$$ 1.000000E02, 3.544094E02
$$ 1.000000E02, 3.557161E02
$$ 1.000000E02, 3.570338E02
$$ 1.000000E02, 3.583622E02
$$ 1.000000E02, 3.597014E02
$$ 1.000000E02, 1.051350E00
$$ 1.000000E02, 2.412150E00
$$ 1.000000E02, 3.783750E00
$$ 1.000000E02, 5.166150E00
$$ 1.000000E02, 6.559350E00
$$ 1.000000E02, 7.963350E00
$$ 1.000000E02, 9.378150E00
$$ 1.000000E02, 1.080375E01
$$ 1.000000E02, 1.224015E01
$$ 1.000000E02, 1.368735E01
$$ 1.000000E02, 1.514535E01
$$ 1.000000E02, 1.661415E01
$$ 1.000000E02, 1.809375E01
$$ 1.000000E02, 1.958415E01
$$ 1.000000E02, 2.108535E01
$$ 1.000000E02, 2.259735E01
$$ 1.000000E02, 2.412015E01
$$ 1.000000E02, 2.565375E01
$$ 1.000000E02, 2.719815E01
$$ 1.000000E02, 2.875335E01
$$ 1.000000E02, 3.031935E01
$$ 1.000000E02, 3.189615E01
$$ 1.000000E02, 3.348375E01
$$ 1.000000E02, 3.508215E01
$$ 1.000000E02, 3.669135E01
$$ 1.000000E02, 3.831135E01
$$ 1.000000E02, 3.994215E01
$$ 1.000000E02, 4.158375E01
$$ 1.000000E02, 4.323615E01
$$ 1.000000E02, 4.489935E01
$$ 1.000000E02, 4.657335E01
$$ 1.000000E02, 4.825815E01
$$ 1.000000E02, 4.995375E01
$$ 1.000000E02, 5.166015E01
$$ 1.000000E02, 5.337735E01
$$ 1.000000E02, 5.510535E01
$$ 1.000000E02, 5.684415E01
$$ 1.000000E02, 5.859375E01
$$ 1.000000E02, 6.035415E01
$$ 1.000000E02, 6.212535E01
$$ 1.000000E02, 6.390735E01
$$ 1.000000E02, 6.570015E01
$$ 1.000000E02, 6.750375E01
$$ 1.000000E02, 6.931815E01
$$ 1.000000E02, 7.114335E01
$$ 1.000000E02, 7.297935E01
$$ 1.000000E02, 7.482615E01
$$ 1.000000E02, 7.668375E01
$$ 1.000000E02, 7.855215E01
$$ 1.000000E02, 8.043135E01
$$ 1.000000E02, 8.232135E01
$$ 1.000000E02, 8.422215E01
$$ 1.000000E02, 8.613375E01
$$ 1.000000E02, 8.805615E01
$$ 1.000000E02, 8.998935E01
$$ 1.000000E02, 9.193335E01
$$ 1.000000E02, 9.388815E01
$$ 1.000000E02, 9.585375E01
$$ 1.000000E02, 9.783015E01
$$ 1.000000E02, 9.981735E01
$$ 1.000000E02, 1.018153E02
$$ 1.000000E02, 1.038241E02
$$ 1.000000E02, 1.058438E02
$$ 1.000000E02, 1.078741E02
$$ 1.000000E02, 1.099154E02
$$ 1.000000E02, 1.119673E02
$$ 1.000000E02, 1.140301E02
$$ 1.000000E02, 1.161037E02
$$ 1.000000E02, 1.181881E02
$$ 1.000000E02, 1.202833E02
$$ 1.000000E02, 1.223893E02
$$ 1.000000E02, 1.245061E02
$$ 1.000000E02, 1.266337E02
$$ 1.000000E02, 1.287722E02
$$ 1.000000E02, 1.309214E02
$$ 1.000000E02, 1.330814E02
$$ 1.000000E02, 1.352521E02
$$ 1.000000E02, 1.374338E02
$$ 1.000000E02, 1.396261E02
$$ 1.000000E02, 1.418293E02
$$ 1.000000E02, 1.440433E02
$$ 1.000000E02, 1.462681E02
$$ 1.000000E02, 1.485038E02
$$ 1.000000E02, 1.507502E02
$$ 1.000000E02, 1.530073E02
$$ 1.000000E02, 1.552753E02
$$ 1.000000E02, 1.575542E02
$$ 1.000000E02, 1.598437E02
$$ 1.000000E02, 1.621441E02
$$ 1.000000E02, 1.644553E02
$$ 1.000000E02, 1.667773E02
$$ 1.000000E02, 1.691101E02
$$ 1.000000E02, 1.714538E02
$$ 1.000000E02, 1.738082E02
$$ 1.000000E02, 1.761733E02
$$ 1.000000E02, 1.785494E02
$$ 1.000000E02, 1.809362E02
$$ 1.000000E02, 1.833337E02
$$ 1.000000E02, 1.857421E02
$$ 1.000000E02, 1.881613E02
$$ 1.000000E02, 1.905913E02
$$ 1.000000E02, 1.930322E02
$$ 1.000000E02, 1.954838E02
$$ 1.000000E02, 1.979462E02
$$ 1.000000E02, 2.004194E02
$$ 1.000000E02, 2.029034E02
$$ 1.000000E02, 2.053982E02
$$ 1.000000E02, 2.079038E02
$$ 1.000000E02, 2.104201E02
$$ 1.000000E02, 2.129473E02
$$ 1.000000E02, 2.154853E02
$$ 1.000000E02, 2.180342E02
$$ 1.000000E02, 2.205938E02
$$ 1.000000E02, 2.231642E02
$$ 1.000000E02, 2.257454E02
$$ 1.000000E02, 2.283374E02
$$ 1.000000E02, 2.309401E02
$$ 1.000000E02, 2.335537E02
$$ 1.000000E02, 2.361781E02
$$ 1.000000E02, 2.388133E02
$$ 1.000000E02, 2.414593E02
$$ 1.000000E02, 2.441161E02
$$ 1.000000E02, 2.467838E02
$$ 1.000000E02, 2.494621E02
$$ 1.000000E02, 2.521513E02
$$ 1.000000E02, 2.548513E02
$$ 1.000000E02, 2.575622E02
$$ 1.000000E02, 2.602838E02
$$ 1.000000E02, 2.630161E02
$$ 1.000000E02, 2.657594E02
$$ 1.000000E02, 2.685133E02
$$ 1.000000E02, 2.712782E02
$$ 1.000000E02, 2.740537E02
$$ 1.000000E02, 2.768402E02
$$ 1.000000E02, 2.796373E02
$$ 1.000000E02, 2.824453E02
$$ 1.000000E02, 2.852642E02
$$ 1.000000E02, 2.880937E02
$$ 1.000000E02, 2.909342E02
$$ 1.000000E02, 2.937853E02
$$ 1.000000E02, 2.966474E02
$$ 1.000000E02, 2.995201E02
$$ 1.000000E02, 3.024038E02
$$ 1.000000E02, 3.052981E02
$$ 1.000000E02, 3.082033E02
$$ 1.000000E02, 3.111193E02
$$ 1.000000E02, 3.140461E02
$$ 1.000000E02, 3.169838E02
$$ 1.000000E02, 3.199322E02
$$ 1.000000E02, 3.228914E02
$$ 1.000000E02, 3.258613E02
$$ 1.000000E02, 3.288422E02
$$ 1.000000E02, 3.318337E02
$$ 1.000000E02, 3.348362E02
$$ 1.000000E02, 3.378493E02
$$ 1.000000E02, 3.408734E02
$$ 1.000000E02, 3.439082E02
$$ 1.000000E02, 3.469537E02
$$ 1.000000E02, 3.500102E02
$$ 1.000000E02, 3.530773E02
$$ 1.000000E02, 3.561554E02
$$ 1.000000E02, 3.592442E02
$$ 1.000000E02, 2.343750E00
$$ 1.000000E02, 5.454150E00
$$ 1.000000E02, 8.575350E00
$$ 1.000000E02, 1.170735E01
$$ 1.000000E02, 1.485015E01
$$ 1.000000E02, 1.800375E01
$$ 1.000000E02, 2.116815E01
$$ 1.000000E02, 2.434335E01
$$ 1.000000E02, 2.752935E01
$$ 1.000000E02, 3.072615E01
$$ 1.000000E02, 3.393375E01
$$ 1.000000E02, 3.715215E01
$$ 1.000000E02, 4.038135E01
$$ 1.000000E02, 4.362135E01
$$ 9.999688E01, 4.687215E01
$$ 9.998754E01, 5.013375E01
$$ 9.997196E01, 5.340615E01
$$ 9.995016E01, 5.668935E01
$$ 9.992213E01, 5.998335E01
$$ 9.988787E01, 6.328815E01
$$ 9.984739E01, 6.660375E01
$$ 9.980069E01, 6.993015E01
$$ 9.974776E01, 7.326735E01
$$ 9.968863E01, 7.661535E01
$$ 9.962328E01, 7.997415E01
$$ 9.955173E01, 8.334375E01
$$ 9.947397E01, 8.672415E01
$$ 9.939002E01, 9.011535E01
$$ 9.929987E01, 9.351735E01
$$ 9.920354E01, 9.693015E01
$$ 9.910102E01, 1.003537E02
$$ 9.899233E01, 1.037881E02
$$ 9.887747E01, 1.072333E02
$$ 9.875646E01, 1.106893E02
$$ 9.862928E01, 1.141562E02
$$ 9.849597E01, 1.176337E02
$$ 9.835651E01, 1.211222E02
$$ 9.821093E01, 1.246213E02
$$ 9.805923E01, 1.281314E02
$$ 9.790142E01, 1.316521E02
$$ 9.773751E01, 1.351837E02
$$ 9.756751E01, 1.387261E02
$$ 9.739143E01, 1.422794E02
$$ 9.720928E01, 1.458434E02
$$ 9.702108E01, 1.494181E02
$$ 9.682683E01, 1.530037E02
$$ 9.662655E01, 1.566001E02
$$ 9.642025E01, 1.602074E02
$$ 9.620794E01, 1.638253E02
$$ 9.598963E01, 1.674542E02
$$ 9.576535E01, 1.710937E02
$$ 9.553510E01, 1.747442E02
$$ 9.529889E01, 1.784053E02
$$ 9.505675E01, 1.820774E02
$$ 9.480868E01, 1.857602E02
$$ 9.455471E01, 1.894537E02
$$ 9.429485E01, 1.931581E02
$$ 9.402911E01, 1.968733E02
$$ 9.375751E01, 2.005993E02
$$ 9.348008E01, 2.043361E02
$$ 9.319681E01, 2.080838E02
$$ 9.290774E01, 2.118421E02
$$ 9.261288E01, 2.156114E02
$$ 9.231226E01, 2.193914E02
$$ 9.200588E01, 2.231821E02
$$ 9.169376E01, 2.269838E02
$$ 9.137594E01, 2.307962E02
$$ 9.105242E01, 2.346193E02
$$ 9.072323E01, 2.384533E02
$$ 9.038838E01, 2.422981E02
$$ 9.004790E01, 2.461537E02
$$ 8.970182E01, 2.500202E02
$$ 8.935014E01, 2.538973E02
$$ 8.899290E01, 2.577854E02
$$ 8.863011E01, 2.616842E02
$$ 8.826180E01, 2.655938E02
$$ 8.788799E01, 2.695142E02
$$ 8.750870E01, 2.734453E02
$$ 8.712396E01, 2.773873E02
$$ 8.673380E01, 2.813401E02
$$ 8.633823E01, 2.853038E02
$$ 8.593728E01, 2.892781E02
$$ 8.553097E01, 2.932634E02
$$ 8.511934E01, 2.972593E02
$$ 8.470240E01, 3.012662E02
$$ 8.428019E01, 3.052837E02
$$ 8.385272E01, 3.093122E02
$$ 8.342003E01, 3.133514E02
$$ 8.298215E01, 3.174013E02
$$ 8.253909E01, 3.214621E02
$$ 8.209089E01, 3.255337E02
$$ 8.163757E01, 3.296161E02
$$ 8.117917E01, 3.337094E02
$$ 8.071571E01, 3.378133E02
$$ 8.024722E01, 3.419282E02
$$ 7.977373E01, 3.460537E02
$$ 7.929527E01, 3.501902E02
$$ 7.881187E01, 3.543373E02
$$ 7.832356E01, 3.584954E02
$$ 7.783037E01, 2.664150E00
$$ 7.733233E01, 6.843750E00
$$ 7.682948E01, 1.103415E01
$$ 7.632183E01, 1.523535E01
$$ 7.580943E01, 1.944735E01
$$ 7.529231E01, 2.367015E01
$$ 7.477049E01, 2.790375E01
$$ 7.424402E01, 3.214815E01
$$ 7.371292E01, 3.640335E01
$$ 7.317723E01, 4.066935E01
$$ 7.263698E01, 4.494615E01
$$ 7.209220E01, 4.923375E01
$$ 7.154293E01, 5.353215E01
$$ 7.098920E01, 5.784135E01
$$ 7.043105E01, 6.216135E01
$$ 6.986851E01, 6.649215E01
$$ 6.930162E01, 7.083375E01
$$ 6.873041E01, 7.518615E01
$$ 6.815492E01, 7.954935E01
$$ 6.757518E01, 8.392335E01
$$ 6.699124E01, 8.830815E01
$$ 6.640311E01, 9.270375E01
$$ 6.581085E01, 9.711015E01
$$ 6.521449E01, 1.015274E02
$$ 6.461407E01, 1.059553E02
$$ 6.400962E01, 1.103941E02
$$ 6.340118E01, 1.148438E02
$$ 6.278880E01, 1.193041E02
$$ 6.217250E01, 1.237754E02
$$ 6.155232E01, 1.282573E02
$$ 6.092832E01, 1.327501E02
$$ 6.030051E01, 1.372537E02
$$ 5.966895E01, 1.417682E02
$$ 5.903367E01, 1.462934E02
$$ 5.839471E01, 1.508293E02
$$ 5.775212E01, 1.553761E02
$$ 5.710592E01, 1.599337E02
$$ 5.645617E01, 1.645021E02
$$ 5.580290E01, 1.690813E02
$$ 5.514615E01, 1.736713E02
$$ 5.448597E01, 1.782721E02
$$ 5.382239E01, 1.828837E02
$$ 5.315546E01, 1.875062E02
$$ 5.248522E01, 1.921393E02
$$ 5.181170E01, 1.967834E02
$$ 5.113496E01, 2.014381E02
$$ 5.045503E01, 2.061038E02
$$ 4.977196E01, 2.107801E02
$$ 4.908579E01, 2.154674E02
$$ 4.839656E01, 2.201653E02
$$ 4.770431E01, 2.248741E02
$$ 4.700910E01, 2.295937E02
$$ 4.631095E01, 2.343241E02
$$ 4.560992E01, 2.390654E02
$$ 4.490604E01, 2.438174E02
$$ 4.419937E01, 2.485802E02
$$ 4.348994E01, 2.533537E02
$$ 4.277781E01, 2.581382E02
$$ 4.206301E01, 2.629333E02
$$ 4.134558E01, 2.677394E02
$$ 4.062559E01, 2.725561E02
$$ 3.990306E01, 2.773837E02
$$ 3.917804E01, 2.822221E02
$$ 3.845058E01, 2.870713E02
$$ 3.772073E01, 2.919314E02
$$ 3.698853E01, 2.968021E02
$$ 3.625402E01, 3.016837E02
$$ 3.551726E01, 3.065761E02
$$ 3.477828E01, 3.114793E02
$$ 3.403713E01, 3.163933E02
$$ 3.329386E01, 3.213182E02
$$ 3.254852E01, 3.262537E02
$$ 3.180115E01, 3.312001E02
$$ 3.105180E01, 3.361573E02
$$ 3.030052E01, 3.411253E02
$$ 2.954734E01, 3.461042E02
$$ 2.879233E01, 3.510937E02
$$ 2.803552E01, 3.560941E02
$$ 2.727697E01, 1.105350E00
$$ 2.651671E01, 6.127350E00
$$ 2.575481E01, 1.116015E01
$$ 2.499130E01, 1.620375E01
$$ 2.422623E01, 2.125815E01
$$ 2.345965E01, 2.632335E01
$$ 2.269161E01, 3.139935E01
$$ 2.192216E01, 3.648615E01
$$ 2.115134E01, 4.158375E01
$$ 2.037920E01, 4.669215E01
$$ 1.960579E01, 5.181135E01
$$ 1.883117E01, 5.694135E01
$$ 1.805537E01, 6.208215E01
$$ 1.727844E01, 6.723375E01
$$ 1.650044E01, 7.239615E01
$$ 1.572140E01, 7.756935E01
$$ 1.494139E01, 8.275335E01
$$ 1.416045E01, 8.794815E01
$$ 1.337863E01, 9.315375E01
$$ 1.259597E01, 9.837015E01
$$ 1.181253E01, 1.035973E02
$$ 1.102835E01, 1.088353E02
$$ 1.024348E01, 1.140841E02
$$ 9.457981E00, 1.193437E02
$$ 8.671888E00, 1.246142E02
$$ 7.885255E00, 1.298954E02
$$ 7.098130E00, 1.351873E02
$$ 6.310563E00, 1.404901E02
$$ 5.522603E00, 1.458037E02
$$ 4.734299E00, 1.511282E02
$$ 3.945700E00, 1.564633E02
$$ 3.156855E00, 1.618093E02
$$ 2.367813E00, 1.671662E02
$$ 1.578624E00, 1.725338E02
$$ 7.893367E-01, 1.779122E02
$$ 0.000000E00, 1.833013E02
$$ 0.000000E00, 9.330067E01
$$ 3.936823E-01, 8.790607E01
$$ 7.873584E-01, 8.251687E01
$$ 1.181022E00, 7.713307E01
$$ 1.574668E00, 7.175467E01
$$ 1.968289E00, 6.638167E01
$$ 2.361880E00, 6.101408E01
$$ 2.755434E00, 5.565187E01
$$ 3.148946E00, 5.029508E01
$$ 3.542408E00, 4.494368E01
$$ 3.935816E00, 3.959767E01
$$ 4.329163E00, 3.425707E01
$$ 4.722442E00, 2.892187E01
$$ 5.115649E00, 2.359208E01
$$ 5.508776E00, 1.826768E01
$$ 5.901818E00, 1.294867E01
$$ 6.294768E00, 7.635075E00
$$ 6.687621E00, 2.326875E00
$$ 7.080370E00, 3.570241E02
$$ 7.473009E00, 3.517267E02
$$ 7.865533E00, 3.464347E02
$$ 8.257935E00, 3.411481E02
$$ 8.650208E00, 3.358669E02
$$ 9.042348E00, 3.305911E02
$$ 9.434347E00, 3.253207E02
$$ 9.826200E00, 3.200557E02
$$ 1.021790E01, 3.147961E02
$$ 1.060944E01, 3.095419E02
$$ 1.100082E01, 3.042931E02
$$ 1.139203E01, 2.990497E02
$$ 1.178306E01, 2.938117E02
$$ 1.217391E01, 2.885791E02
$$ 1.256457E01, 2.833519E02
$$ 1.295503E01, 2.781301E02
$$ 1.334530E01, 2.729137E02
$$ 1.373536E01, 2.677027E02
$$ 1.412520E01, 2.624971E02
$$ 1.451483E01, 2.572969E02
$$ 1.490423E01, 2.521021E02
$$ 1.529340E01, 2.469127E02
$$ 1.568233E01, 2.417287E02
$$ 1.607102E01, 2.365501E02
$$ 1.645946E01, 2.313769E02
$$ 1.684764E01, 2.262091E02
$$ 1.723557E01, 2.210467E02
$$ 1.762323E01, 2.158897E02
$$ 1.801061E01, 2.107381E02
$$ 1.839771E01, 2.055919E02
$$ 1.878453E01, 2.004511E02
$$ 1.917106E01, 1.953157E02
$$ 1.955729E01, 1.901857E02
$$ 1.994322E01, 1.850611E02
$$ 2.032884E01, 1.799419E02
$$ 2.071415E01, 1.748281E02
$$ 2.109913E01, 1.697197E02
$$ 2.148379E01, 1.646167E02
$$ 2.186811E01, 1.595191E02
$$ 2.225209E01, 1.544269E02
$$ 2.263573E01, 1.493401E02
$$ 2.301902E01, 1.442587E02
$$ 2.340195E01, 1.391827E02
$$ 2.378452E01, 1.341121E02
$$ 2.416672E01, 1.290469E02
$$ 2.454855E01, 1.239871E02
$$ 2.492999E01, 1.189327E02
$$ 2.531105E01, 1.138837E02
$$ 2.569172E01, 1.088401E02
$$ 2.607199E01, 1.038019E02
$$ 2.645185E01, 9.876907E01
$$ 2.683131E01, 9.374168E01
$$ 2.721035E01, 8.871967E01
$$ 2.758896E01, 8.370307E01
$$ 2.796715E01, 7.869187E01
$$ 2.834491E01, 7.368607E01
$$ 2.872223E01, 6.868567E01
$$ 2.909910E01, 6.369067E01
$$ 2.947552E01, 5.870107E01
$$ 2.985148E01, 5.371687E01
$$ 3.022698E01, 4.873808E01
$$ 3.060201E01, 4.376467E01
$$ 3.097657E01, 3.879668E01
$$ 3.135065E01, 3.383407E01
$$ 3.172424E01, 2.887687E01
$$ 3.209734E01, 2.392508E01
$$ 3.246995E01, 1.897867E01
$$ 3.284205E01, 1.403768E01
$$ 3.321364E01, 9.102075E00
$$ 3.358471E01, 4.171875E00
$$ 3.395527E01, 3.592471E02
$$ 3.432530E01, 3.543277E02
$$ 3.469480E01, 3.494137E02
$$ 3.506376E01, 3.445051E02
$$ 3.543217E01, 3.396019E02
$$ 3.580004E01, 3.347041E02
$$ 3.616735E01, 3.298117E02
$$ 3.653410E01, 3.249247E02
$$ 3.690029E01, 3.200431E02
$$ 3.726590E01, 3.151669E02
$$ 3.763094E01, 3.102961E02
$$ 3.799539E01, 3.054307E02
$$ 3.835925E01, 3.005707E02
$$ 3.872252E01, 2.957161E02
$$ 3.908519E01, 2.908669E02
$$ 3.944726E01, 2.860231E02
$$ 3.980871E01, 2.811847E02
$$ 4.016954E01, 2.763517E02
$$ 4.052975E01, 2.715241E02
$$ 4.088934E01, 2.667019E02
$$ 4.124829E01, 2.618851E02
$$ 4.160660E01, 2.570737E02
$$ 4.196427E01, 2.522677E02
$$ 4.232128E01, 2.474671E02
$$ 4.267764E01, 2.426719E02
$$ 4.303334E01, 2.378821E02
$$ 4.338837E01, 2.330977E02
$$ 4.374273E01, 2.283187E02
$$ 4.409641E01, 2.235451E02
$$ 4.444941E01, 2.187769E02
$$ 4.480172E01, 2.140141E02
$$ 4.515334E01, 2.092567E02
$$ 4.550425E01, 2.045047E02
$$ 4.585446E01, 1.997581E02
$$ 4.620396E01, 1.950169E02
$$ 4.655274E01, 1.902811E02
$$ 4.690080E01, 1.855507E02
$$ 4.724814E01, 1.808257E02
$$ 4.759474E01, 1.761061E02
$$ 4.794060E01, 1.713919E02
$$ 4.828573E01, 1.666831E02
$$ 4.863010E01, 1.619797E02
$$ 4.897372E01, 1.572817E02
$$ 4.931658E01, 1.525891E02
$$ 4.965867E01, 1.479019E02
$$ 5.000000E01, 1.432201E02
$$ 5.034055E01, 1.385437E02
$$ 5.068032E01, 1.338727E02
$$ 5.101931E01, 1.292071E02
$$ 5.135750E01, 1.245469E02
$$ 5.169490E01, 1.198921E02
$$ 5.203150E01, 1.152427E02
$$ 5.236729E01, 1.105987E02
$$ 5.270227E01, 1.059601E02
$$ 5.303643E01, 1.013269E02
$$ 5.336978E01, 9.669908E01
$$ 5.370229E01, 9.207667E01
$$ 5.403397E01, 8.745968E01
$$ 5.436481E01, 8.284807E01
$$ 5.469482E01, 7.824187E01
$$ 5.502397E01, 7.364107E01
$$ 5.535227E01, 6.904567E01
$$ 5.567971E01, 6.445567E01
$$ 5.600629E01, 5.987107E01
$$ 5.633201E01, 5.529187E01
$$ 5.665684E01, 5.071807E01
$$ 5.698081E01, 4.614968E01
$$ 5.730388E01, 4.158668E01
$$ 5.762607E01, 3.702907E01
$$ 5.794737E01, 3.247687E01
$$ 5.826777E01, 2.793007E01
$$ 5.858726E01, 2.338867E01
$$ 5.890585E01, 1.885268E01
$$ 5.922353E01, 1.432207E01
$$ 5.954028E01, 9.796875E00
$$ 5.985612E01, 5.277075E00
$$ 6.017102E01, 7.626750E-01
$$ 6.048499E01, 3.562537E02
$$ 6.079803E01, 3.517501E02
$$ 6.111012E01, 3.472519E02
$$ 6.142127E01, 3.427591E02
$$ 6.173147E01, 3.382717E02
$$ 6.204070E01, 3.337897E02
$$ 6.234898E01, 3.293131E02
$$ 6.265629E01, 3.248419E02
$$ 6.296263E01, 3.203761E02
$$ 6.326799E01, 3.159157E02
$$ 6.357237E01, 3.114607E02
$$ 6.387577E01, 3.070111E02
$$ 6.417818E01, 3.025669E02
$$ 6.447959E01, 2.981281E02
$$ 6.478001E01, 2.936947E02
$$ 6.507941E01, 2.892667E02
$$ 6.537782E01, 2.848441E02
$$ 6.567520E01, 2.804269E02
$$ 6.597157E01, 2.760151E02
$$ 6.626692E01, 2.716087E02
$$ 6.656124E01, 2.672077E02
$$ 6.685453E01, 2.628121E02
$$ 6.714678E01, 2.584219E02
$$ 6.743799E01, 2.540371E02
$$ 6.772816E01, 2.496577E02
$$ 6.801727E01, 2.452837E02
$$ 6.830534E01, 2.409151E02
$$ 6.859234E01, 2.365519E02
$$ 6.887828E01, 2.321941E02
$$ 6.916315E01, 2.278417E02
$$ 6.944696E01, 2.234947E02
$$ 6.972968E01, 2.191531E02
$$ 7.001132E01, 2.148169E02
$$ 7.029188E01, 2.104861E02
$$ 7.057135E01, 2.061607E02
$$ 7.084973E01, 2.018407E02
$$ 7.112701E01, 1.975261E02
$$ 7.140318E01, 1.932169E02
$$ 7.167825E01, 1.889131E02
$$ 7.195221E01, 1.846147E02
$$ 7.222505E01, 1.803217E02
$$ 7.249678E01, 1.760341E02
$$ 7.276738E01, 1.717519E02
$$ 7.303685E01, 1.674751E02
$$ 7.330519E01, 1.632037E02
$$ 7.357239E01, 1.589377E02
$$ 7.383845E01, 1.546771E02
$$ 7.410337E01, 1.504219E02
$$ 7.436714E01, 1.461721E02
$$ 7.462976E01, 1.419277E02
$$ 7.489122E01, 1.376887E02
$$ 7.515152E01, 1.334551E02
$$ 7.541066E01, 1.292269E02
$$ 7.566863E01, 1.250041E02
$$ 7.592542E01, 1.207867E02
$$ 7.618104E01, 1.165747E02
$$ 7.643548E01, 1.123681E02
$$ 7.668873E01, 1.081669E02
$$ 7.694079E01, 1.039711E02
$$ 7.719167E01, 9.978067E01
$$ 7.744134E01, 9.559567E01
$$ 7.768981E01, 9.141607E01
$$ 7.793709E01, 8.724187E01
$$ 7.818315E01, 8.307307E01
$$ 7.842800E01, 7.890967E01
$$ 7.867163E01, 7.475167E01
$$ 7.891405E01, 7.059908E01
$$ 7.915524E01, 6.645187E01
$$ 7.939521E01, 6.231007E01
$$ 7.963395E01, 5.817368E01
$$ 7.987145E01, 5.404267E01
$$ 8.010771E01, 4.991708E01
$$ 8.034273E01, 4.579688E01
$$ 8.057651E01, 4.168207E01
$$ 8.080904E01, 3.757267E01
$$ 8.104031E01, 3.346867E01
$$ 8.127033E01, 2.937007E01
$$ 8.149909E01, 2.527687E01
$$ 8.172659E01, 2.118908E01
$$ 8.195282E01, 1.710667E01
$$ 8.217778E01, 1.302967E01
$$ 8.240147E01, 8.958075E00
$$ 8.262388E01, 4.891875E00
$$ 8.284501E01, 8.310750E-01
$$ 8.306485E01, 3.567757E02
$$ 8.328341E01, 3.527257E02
$$ 8.350068E01, 3.486811E02
$$ 8.371665E01, 3.446419E02
$$ 8.393132E01, 3.406081E02
$$ 8.414470E01, 3.365797E02
$$ 8.435677E01, 3.325567E02
$$ 8.456753E01, 3.285391E02
$$ 8.477698E01, 3.245269E02
$$ 8.498512E01, 3.205201E02
$$ 8.519194E01, 3.165187E02
$$ 8.539744E01, 3.125227E02
$$ 8.560162E01, 3.085321E02
$$ 8.580447E01, 3.045469E02
$$ 8.600599E01, 3.005671E02
$$ 8.620618E01, 2.965927E02
$$ 8.640503E01, 2.926237E02
$$ 8.660254E01, 2.886601E02
$$ 8.679871E01, 2.847019E02
$$ 8.699354E01, 2.807491E02
$$ 8.718701E01, 2.768017E02
$$ 8.737914E01, 2.728597E02
$$ 8.756991E01, 2.689231E02
$$ 8.775932E01, 2.649919E02
$$ 8.794738E01, 2.610661E02
$$ 8.813407E01, 2.571457E02
$$ 8.831939E01, 2.532307E02
$$ 8.850335E01, 2.493211E02
$$ 8.868593E01, 2.454169E02
$$ 8.886714E01, 2.415181E02
$$ 8.904697E01, 2.376247E02
$$ 8.922542E01, 2.337367E02
$$ 8.940249E01, 2.298541E02
$$ 8.957818E01, 2.259769E02
$$ 8.975247E01, 2.221051E02
$$ 8.992538E01, 2.182387E02
$$ 9.009689E01, 2.143777E02
$$ 9.026700E01, 2.105221E02
$$ 9.043572E01, 2.066719E02
$$ 9.060303E01, 2.028271E02
$$ 9.076894E01, 1.989877E02
$$ 9.093344E01, 1.951537E02
$$ 9.109653E01, 1.913251E02
$$ 9.125822E01, 1.875019E02
$$ 9.141848E01, 1.836841E02
$$ 9.157733E01, 1.798717E02
$$ 9.173476E01, 1.760647E02
$$ 9.189077E01, 1.722631E02
$$ 9.204536E01, 1.684669E02
$$ 9.219852E01, 1.646761E02
$$ 9.235024E01, 1.608907E02
$$ 9.250054E01, 1.571107E02
$$ 9.264941E01, 1.533361E02
$$ 9.279684E01, 1.495669E02
$$ 9.294283E01, 1.458031E02
$$ 9.308737E01, 1.420447E02
$$ 9.323048E01, 1.382917E02
$$ 9.337214E01, 1.345441E02
$$ 9.351236E01, 1.308019E02
$$ 9.365112E01, 1.270651E02
$$ 9.378844E01, 1.233337E02
$$ 9.392430E01, 1.196077E02
$$ 9.405870E01, 1.158871E02
$$ 9.419165E01, 1.121719E02
$$ 9.432314E01, 1.084621E02
$$ 9.445316E01, 1.047577E02
$$ 9.458172E01, 1.010587E02
$$ 9.470882E01, 9.736507E01
$$ 9.483445E01, 9.367687E01
$$ 9.495861E01, 8.999407E01
$$ 9.508129E01, 8.631668E01
$$ 9.520250E01, 8.264468E01
$$ 9.532224E01, 7.897807E01
$$ 9.544050E01, 7.531687E01
$$ 9.555728E01, 7.166107E01
$$ 9.567258E01, 6.801067E01
$$ 9.578640E01, 6.436568E01
$$ 9.589873E01, 6.072607E01
$$ 9.600957E01, 5.709187E01
$$ 9.611893E01, 5.346308E01
$$ 9.622680E01, 4.983967E01
$$ 9.633318E01, 4.622167E01
$$ 9.643806E01, 4.260907E01
$$ 9.654145E01, 3.900188E01
$$ 9.664334E01, 3.540008E01
$$ 9.674374E01, 3.180367E01
$$ 9.684263E01, 2.821267E01
$$ 9.694003E01, 2.462707E01
$$ 9.703592E01, 2.104688E01
$$ 9.713031E01, 1.747207E01
$$ 9.722319E01, 1.390267E01
$$ 9.731457E01, 1.033867E01
$$ 9.740443E01, 6.780075E00
$$ 9.749279E01, 3.226875E00
$$ 9.757964E01, 3.596791E02
$$ 9.766497E01, 3.561367E02
$$ 9.774879E01, 3.525997E02
$$ 9.783110E01, 3.490681E02
$$ 9.791189E01, 3.455419E02
$$ 9.799116E01, 3.420211E02
$$ 9.806892E01, 3.385057E02
$$ 9.814515E01, 3.349957E02
$$ 9.821986E01, 3.314911E02
$$ 9.829305E01, 3.279919E02
$$ 9.836472E01, 3.244981E02
$$ 9.843486E01, 3.210097E02
$$ 9.850348E01, 3.175267E02
$$ 9.857057E01, 3.140491E02
$$ 9.863613E01, 3.105769E02
$$ 9.870016E01, 3.071101E02
$$ 9.876267E01, 3.036487E02
$$ 9.882364E01, 3.001927E02
$$ 9.888308E01, 2.967421E02
$$ 9.894099E01, 2.932969E02
$$ 9.899737E01, 2.898571E02
$$ 9.905221E01, 2.864227E02
$$ 9.910551E01, 2.829937E02
$$ 9.915728E01, 2.795701E02
$$ 9.920752E01, 2.761519E02
$$ 9.925621E01, 2.727391E02
$$ 9.930337E01, 2.693317E02
$$ 9.934899E01, 2.659297E02
$$ 9.939307E01, 2.625331E02
$$ 9.943561E01, 2.591419E02
$$ 9.947660E01, 2.557561E02
$$ 9.951606E01, 2.523757E02
$$ 9.955397E01, 2.490007E02
$$ 9.959034E01, 2.456311E02
$$ 9.962517E01, 2.422669E02
$$ 9.965845E01, 2.389081E02
$$ 9.969019E01, 2.355547E02
$$ 9.972038E01, 2.322067E02
$$ 9.974903E01, 2.288641E02
$$ 9.977613E01, 2.255269E02
$$ 9.980168E01, 2.221951E02
$$ 9.982569E01, 2.188687E02
$$ 9.984815E01, 2.155477E02
$$ 9.986906E01, 2.122321E02
$$ 9.988843E01, 2.089219E02
$$ 9.990625E01, 2.056171E02
$$ 9.992252E01, 2.023177E02
$$ 9.993724E01, 1.990237E02
$$ 9.995041E01, 1.957351E02
$$ 9.996203E01, 1.924519E02
$$ 9.997210E01, 1.891741E02
$$ 9.998063E01, 1.859017E02
$$ 9.998760E01, 1.826347E02
$$ 9.999303E01, 1.793731E02
$$ 9.999690E01, 1.761169E02
$$ 9.999923E01, 1.728661E02
$$ 1.000000E02, 1.696207E02
$$ 1.000000E02, 1.663807E02
$$ 1.000000E02, 1.631461E02
$$ 1.000000E02, 1.599169E02
$$ 1.000000E02, 1.566931E02
$$ 1.000000E02, 1.534747E02
$$ 1.000000E02, 1.502617E02
$$ 1.000000E02, 1.470541E02
$$ 1.000000E02, 1.438519E02
$$ 1.000000E02, 1.406551E02
$$ 1.000000E02, 1.374637E02
$$ 1.000000E02, 1.342777E02
$$ 1.000000E02, 1.310971E02
$$ 1.000000E02, 1.279219E02
$$ 1.000000E02, 1.247521E02
$$ 1.000000E02, 1.215877E02
$$ 1.000000E02, 1.184287E02
$$ 1.000000E02, 1.152751E02
$$ 1.000000E02, 1.121269E02
$$ 1.000000E02, 1.089841E02
$$ 1.000000E02, 1.058467E02
$$ 1.000000E02, 1.027147E02
$$ 1.000000E02, 9.958808E01
$$ 1.000000E02, 9.646687E01
$$ 1.000000E02, 9.335107E01
$$ 1.000000E02, 9.024067E01
$$ 1.000000E02, 8.713567E01
$$ 1.000000E02, 8.403608E01
$$ 1.000000E02, 8.094188E01
$$ 1.000000E02, 7.785307E01
$$ 1.000000E02, 7.476967E01
$$ 1.000000E02, 7.169167E01
$$ 1.000000E02, 6.861908E01
$$ 1.000000E02, 6.555187E01
$$ 1.000000E02, 6.249007E01
$$ 1.000000E02, 5.943367E01
$$ 1.000000E02, 5.638267E01
$$ 1.000000E02, 5.333708E01
$$ 1.000000E02, 5.029688E01
$$ 1.000000E02, 4.726207E01
$$ 1.000000E02, 4.423267E01
$$ 1.000000E02, 4.120867E01
$$ 1.000000E02, 3.819007E01
$$ 1.000000E02, 3.517687E01
$$ 1.000000E02, 3.216908E01
$$ 1.000000E02, 2.916667E01
$$ 1.000000E02, 2.616967E01
$$ 1.000000E02, 2.317807E01
$$ 1.000000E02, 2.019187E01
$$ 1.000000E02, 1.721107E01
$$ 1.000000E02, 1.423568E01
$$ 1.000000E02, 1.126567E01
$$ 1.000000E02, 8.301075E00
$$ 1.000000E02, 5.341875E00
$$ 1.000000E02, 2.388075E00
$$ 1.000000E02, 3.594397E02
$$ 1.000000E02, 3.564967E02
$$ 1.000000E02, 3.535591E02
$$ 1.000000E02, 3.506269E02
$$ 1.000000E02, 3.477001E02
$$ 1.000000E02, 3.447787E02
$$ 1.000000E02, 3.418627E02
$$ 1.000000E02, 3.389521E02
$$ 1.000000E02, 3.360469E02
$$ 1.000000E02, 3.331471E02
$$ 1.000000E02, 3.302527E02
$$ 1.000000E02, 3.273637E02
$$ 1.000000E02, 3.244801E02
$$ 1.000000E02, 3.216019E02
$$ 1.000000E02, 3.187291E02
$$ 1.000000E02, 3.158617E02
$$ 1.000000E02, 3.129997E02
$$ 1.000000E02, 3.101431E02
$$ 1.000000E02, 3.072919E02
$$ 1.000000E02, 3.044461E02
$$ 1.000000E02, 3.016057E02
$$ 1.000000E02, 2.987707E02
$$ 1.000000E02, 2.959411E02
$$ 1.000000E02, 2.931169E02
$$ 1.000000E02, 2.902981E02
$$ 1.000000E02, 2.874847E02
$$ 1.000000E02, 2.846767E02
$$ 1.000000E02, 2.818741E02
$$ 1.000000E02, 2.790769E02
$$ 1.000000E02, 2.762851E02
$$ 1.000000E02, 2.734987E02
$$ 1.000000E02, 2.707177E02
$$ 1.000000E02, 2.679421E02
$$ 1.000000E02, 2.651719E02
$$ 1.000000E02, 2.624071E02
$$ 1.000000E02, 2.596477E02
$$ 1.000000E02, 2.568937E02
$$ 1.000000E02, 2.541451E02
$$ 1.000000E02, 2.514019E02
$$ 1.000000E02, 2.486641E02
$$ 1.000000E02, 2.459317E02
$$ 1.000000E02, 2.432047E02
$$ 1.000000E02, 2.404831E02
$$ 1.000000E02, 2.377669E02
$$ 1.000000E02, 2.350561E02
$$ 1.000000E02, 2.323507E02
$$ 1.000000E02, 2.296507E02
$$ 1.000000E02, 2.269561E02
$$ 1.000000E02, 2.242669E02
$$ 1.000000E02, 2.215831E02
$$ 1.000000E02, 2.189047E02
$$ 1.000000E02, 2.162317E02
$$ 1.000000E02, 2.135641E02
$$ 1.000000E02, 2.109019E02
$$ 1.000000E02, 2.082451E02
$$ 1.000000E02, 2.055937E02
$$ 1.000000E02, 2.029477E02
$$ 1.000000E02, 2.003071E02
$$ 1.000000E02, 1.976719E02
$$ 1.000000E02, 1.950421E02
$$ 1.000000E02, 1.924177E02
$$ 1.000000E02, 1.897987E02
$$ 1.000000E02, 1.871851E02
$$ 1.000000E02, 1.845769E02
$$ 1.000000E02, 1.819741E02
$$ 1.000000E02, 1.793767E02
$$ 1.000000E02, 1.767847E02
$$ 1.000000E02, 1.741981E02
$$ 1.000000E02, 1.716169E02
$$ 1.000000E02, 1.690411E02
$$ 1.000000E02, 1.664707E02
$$ 1.000000E02, 1.639057E02
$$ 1.000000E02, 1.613461E02
$$ 1.000000E02, 1.587919E02
$$ 1.000000E02, 1.562431E02
$$ 1.000000E02, 1.536997E02
$$ 1.000000E02, 1.511617E02
$$ 1.000000E02, 1.486291E02
$$ 1.000000E02, 1.461019E02
$$ 1.000000E02, 1.435801E02
$$ 1.000000E02, 1.410637E02
$$ 1.000000E02, 1.385527E02
$$ 1.000000E02, 1.360471E02
$$ 1.000000E02, 1.335469E02
$$ 1.000000E02, 1.310521E02
$$ 1.000000E02, 1.285627E02
$$ 1.000000E02, 1.260787E02
$$ 1.000000E02, 1.236001E02
$$ 1.000000E02, 1.211269E02
$$ 1.000000E02, 1.186591E02
$$ 1.000000E02, 1.161967E02
$$ 1.000000E02, 1.137397E02
$$ 1.000000E02, 1.112881E02
$$ 1.000000E02, 1.088419E02
$$ 1.000000E02, 1.064011E02
$$ 1.000000E02, 1.039657E02
$$ 1.000000E02, 1.015357E02
$$ 1.000000E02, 9.911107E01
$$ 1.000000E02, 9.669187E01
$$ 1.000000E02, 9.427807E01
$$ 1.000000E02, 9.186968E01
$$ 1.000000E02, 8.946667E01
$$ 1.000000E02, 8.706908E01
$$ 1.000000E02, 8.467687E01
$$ 1.000000E02, 8.229008E01
$$ 1.000000E02, 7.990868E01
$$ 1.000000E02, 7.753268E01
$$ 1.000000E02, 7.516207E01
$$ 1.000000E02, 7.279687E01
$$ 1.000000E02, 7.043707E01
$$ 1.000000E02, 6.808267E01
$$ 1.000000E02, 6.573368E01
$$ 1.000000E02, 6.339007E01
$$ 1.000000E02, 6.105188E01
$$ 1.000000E02, 5.871907E01
$$ 1.000000E02, 5.639168E01
$$ 1.000000E02, 5.406967E01
$$ 1.000000E02, 5.175308E01
$$ 1.000000E02, 4.944187E01
$$ 1.000000E02, 4.713607E01
$$ 1.000000E02, 4.483567E01
$$ 1.000000E02, 4.254067E01
$$ 1.000000E02, 4.025107E01
$$ 1.000000E02, 3.796687E01
$$ 1.000000E02, 3.568807E01
$$ 1.000000E02, 3.341467E01
$$ 1.000000E02, 3.114668E01
$$ 1.000000E02, 2.888407E01
$$ 1.000000E02, 2.662687E01
$$ 1.000000E02, 2.437507E01
$$ 1.000000E02, 2.212867E01
$$ 1.000000E02, 1.988768E01
$$ 1.000000E02, 1.765207E01
$$ 1.000000E02, 1.542188E01
$$ 1.000000E02, 1.319707E01
$$ 1.000000E02, 1.097767E01
$$ 1.000000E02, 8.763675E00
$$ 1.000000E02, 6.555075E00
$$ 1.000000E02, 4.351875E00
$$ 1.000000E02, 2.154075E00
$$ 1.000000E02, 3.599617E02
$$ 1.000000E02, 3.577747E02
$$ 1.000000E02, 3.555931E02
$$ 1.000000E02, 3.534169E02
$$ 1.000000E02, 3.512461E02
$$ 1.000000E02, 3.490807E02
$$ 1.000000E02, 3.469207E02
$$ 1.000000E02, 3.447661E02
$$ 1.000000E02, 3.426169E02
$$ 1.000000E02, 3.404731E02
$$ 1.000000E02, 3.383347E02
$$ 1.000000E02, 3.362017E02
$$ 1.000000E02, 3.340741E02
$$ 1.000000E02, 3.319519E02
$$ 1.000000E02, 3.298351E02
$$ 1.000000E02, 3.277237E02
$$ 1.000000E02, 3.256177E02
$$ 1.000000E02, 3.235171E02
$$ 1.000000E02, 3.214219E02
$$ 1.000000E02, 3.193321E02
$$ 1.000000E02, 3.172477E02
$$ 1.000000E02, 3.151687E02
$$ 1.000000E02, 3.130951E02
$$ 1.000000E02, 3.110269E02
$$ 1.000000E02, 3.089641E02
$$ 1.000000E02, 3.069067E02
$$ 1.000000E02, 3.048547E02
$$ 1.000000E02, 3.028081E02
$$ 1.000000E02, 3.007669E02
$$ 1.000000E02, 2.987311E02
$$ 1.000000E02, 2.967007E02
$$ 1.000000E02, 2.946757E02
$$ 1.000000E02, 2.926561E02
$$ 1.000000E02, 2.906419E02
$$ 1.000000E02, 2.886331E02
$$ 1.000000E02, 2.866297E02
$$ 1.000000E02, 2.846317E02
$$ 1.000000E02, 2.826391E02
$$ 1.000000E02, 2.806519E02
$$ 1.000000E02, 2.786701E02
$$ 1.000000E02, 2.766937E02
$$ 1.000000E02, 2.747227E02
$$ 1.000000E02, 2.727571E02
$$ 1.000000E02, 2.707969E02
$$ 1.000000E02, 2.688421E02
$$ 1.000000E02, 2.668927E02
$$ 1.000000E02, 2.649487E02
$$ 1.000000E02, 2.630101E02
$$ 1.000000E02, 2.610769E02
$$ 1.000000E02, 2.591491E02
$$ 1.000000E02, 2.572267E02
$$ 1.000000E02, 2.553097E02
$$ 1.000000E02, 2.533981E02
$$ 1.000000E02, 2.514919E02
$$ 1.000000E02, 2.495911E02
$$ 1.000000E02, 2.476957E02
$$ 1.000000E02, 2.458057E02
$$ 1.000000E02, 2.439211E02
$$ 1.000000E02, 2.420419E02
$$ 1.000000E02, 2.401681E02
$$ 1.000000E02, 2.382997E02
$$ 1.000000E02, 2.364367E02
$$ 1.000000E02, 2.345791E02
$$ 1.000000E02, 2.327269E02
$$ 1.000000E02, 2.308801E02
$$ 1.000000E02, 2.290387E02
$$ 1.000000E02, 2.272027E02
$$ 1.000000E02, 2.253721E02
$$ 1.000000E02, 2.235469E02
$$ 1.000000E02, 2.217271E02
$$ 1.000000E02, 2.199127E02
$$ 1.000000E02, 2.181037E02
$$ 1.000000E02, 2.163001E02
$$ 1.000000E02, 2.145019E02
$$ 1.000000E02, 2.127091E02
$$ 1.000000E02, 2.109217E02
$$ 1.000000E02, 2.091397E02
$$ 1.000000E02, 2.073631E02
$$ 1.000000E02, 2.055919E02
$$ 1.000000E02, 2.038261E02
$$ 1.000000E02, 2.020657E02
$$ 1.000000E02, 2.003107E02
$$ 1.000000E02, 1.985611E02
$$ 1.000000E02, 1.968169E02
$$ 1.000000E02, 1.950781E02
$$ 1.000000E02, 1.933447E02
$$ 1.000000E02, 1.916167E02
$$ 1.000000E02, 1.898941E02
$$ 1.000000E02, 1.881769E02
$$ 1.000000E02, 1.864651E02
$$ 1.000000E02, 1.847587E02
$$ 1.000000E02, 1.830577E02
$$ 1.000000E02, 1.813621E02
$$ 1.000000E02, 1.796719E02
$$ 1.000000E02, 1.779871E02
$$ 1.000000E02, 1.763077E02
$$ 1.000000E02, 1.746337E02
$$ 1.000000E02, 1.729651E02
$$ 1.000000E02, 1.713019E02
$$ 1.000000E02, 1.696441E02
$$ 1.000000E02, 1.679917E02
$$ 1.000000E02, 1.663447E02
$$ 1.000000E02, 1.647031E02
$$ 1.000000E02, 1.630669E02
$$ 1.000000E02, 1.614361E02
$$ 1.000000E02, 1.598107E02
$$ 1.000000E02, 1.581907E02
$$ 1.000000E02, 1.565761E02
$$ 1.000000E02, 1.549669E02
$$ 1.000000E02, 1.533631E02
$$ 1.000000E02, 1.517647E02
$$ 1.000000E02, 1.501717E02
$$ 1.000000E02, 1.485841E02
$$ 1.000000E02, 1.470019E02
$$ 1.000000E02, 1.454251E02
$$ 1.000000E02, 1.438537E02
$$ 1.000000E02, 1.422877E02
$$ 1.000000E02, 1.407271E02
$$ 1.000000E02, 1.391719E02
$$ 1.000000E02, 1.376221E02
$$ 1.000000E02, 1.360777E02
$$ 1.000000E02, 1.345387E02
$$ 1.000000E02, 1.330051E02
$$ 1.000000E02, 1.314769E02
$$ 1.000000E02, 1.299541E02
$$ 1.000000E02, 1.284367E02
$$ 1.000000E02, 1.269247E02
$$ 1.000000E02, 1.254181E02
$$ 1.000000E02, 1.239169E02
$$ 1.000000E02, 1.224211E02
$$ 1.000000E02, 1.209307E02
$$ 1.000000E02, 1.194457E02
$$ 1.000000E02, 1.179661E02
$$ 1.000000E02, 1.164919E02
$$ 1.000000E02, 1.150231E02
$$ 1.000000E02, 1.135597E02
$$ 1.000000E02, 1.121017E02
$$ 1.000000E02, 1.106491E02
$$ 1.000000E02, 1.092019E02
$$ 1.000000E02, 1.077601E02
$$ 1.000000E02, 1.063237E02
$$ 1.000000E02, 1.048927E02
$$ 1.000000E02, 1.034671E02
$$ 1.000000E02, 1.020469E02
$$ 1.000000E02, 1.006321E02
$$ 1.000000E02, 9.922267E01
$$ 1.000000E02, 9.781867E01
$$ 1.000000E02, 9.642008E01
$$ 1.000000E02, 9.502687E01
$$ 1.000000E02, 9.363907E01
$$ 1.000000E02, 9.225667E01
$$ 1.000000E02, 9.087967E01
$$ 1.000000E02, 8.950807E01
$$ 1.000000E02, 8.814188E01
$$ 1.000000E02, 8.678107E01
$$ 1.000000E02, 8.542567E01
$$ 1.000000E02, 8.407567E01
$$ 1.000000E02, 8.273107E01
$$ 1.000000E02, 8.139188E01
$$ 1.000000E02, 8.005807E01
$$ 1.000000E02, 7.872967E01
$$ 1.000000E02, 7.740667E01
$$ 1.000000E02, 7.608907E01
$$ 1.000000E02, 7.477687E01
$$ 1.000000E02, 7.347007E01
$$ 1.000000E02, 7.216868E01
$$ 1.000000E02, 7.087268E01
$$ 1.000000E02, 6.958208E01
$$ 1.000000E02, 6.829688E01
$$ 1.000000E02, 6.701708E01
$$ 1.000000E02, 6.574267E01
$$ 1.000000E02, 6.447367E01
$$ 1.000000E02, 6.321007E01
$$ 1.000000E02, 6.195188E01
$$ 1.000000E02, 6.069907E01
$$ 1.000000E02, 5.945167E01
$$ 1.000000E02, 5.820968E01
$$ 1.000000E02, 5.697307E01
$$ 1.000000E02, 5.574187E01
$$ 1.000000E02, 5.451608E01
$$ 1.000000E02, 5.329567E01
$$ 1.000000E02, 5.208067E01
$$ 1.000000E02, 5.087107E01
$$ 1.000000E02, 4.966687E01
$$ 1.000000E02, 4.846808E01
$$ 1.000000E02, 4.727468E01
$$ 1.000000E02, 4.608667E01
$$ 1.000000E02, 4.490408E01
$$ 1.000000E02, 4.372688E01
$$ 1.000000E02, 4.255507E01
$$ 1.000000E02, 4.138867E01
$$ 1.000000E02, 4.022767E01
$$ 1.000000E02, 3.907207E01
$$ 1.000000E02, 3.792187E01
$$ 1.000000E02, 3.677707E01
$$ 1.000000E02, 3.563767E01
$$ 1.000000E02, 3.450367E01
$$ 1.000000E02, 3.337507E01
$$ 1.000000E02, 3.225188E01
$$ 1.000000E02, 3.113407E01
$$ 1.000000E02, 3.002167E01
$$ 1.000000E02, 2.891467E01
$$ 1.000000E02, 2.781307E01
$$ 1.000000E02, 2.671688E01
$$ 1.000000E02, 2.562607E01
$$ 1.000000E02, 2.454067E01
$$ 1.000000E02, 2.346067E01
$$ 1.000000E02, 2.238608E01
$$ 1.000000E02, 2.131687E01
$$ 1.000000E02, 2.025307E01
$$ 1.000000E02, 1.919467E01
$$ 1.000000E02, 1.814167E01
$$ 1.000000E02, 1.709407E01
$$ 1.000000E02, 1.605187E01
$$ 1.000000E02, 1.501507E01
$$ 1.000000E02, 1.398367E01
$$ 1.000000E02, 1.295768E01
$$ 1.000000E02, 1.193707E01
$$ 1.000000E02, 1.092188E01
$$ 1.000000E02, 9.912075E00
$$ 1.000000E02, 8.907675E00
$$ 1.000000E02, 7.908675E00
$$ 1.000000E02, 6.915075E00
$$ 1.000000E02, 5.926875E00
$$ 1.000000E02, 4.944075E00
$$ 1.000000E02, 3.966675E00
$$ 1.000000E02, 2.994675E00
$$ 1.000000E02, 2.028075E00
$$ 1.000000E02, 1.066875E00
$$ 1.000000E02, 1.110750E-01
$$ 1.000000E02, 3.591607E02
$$ 1.000000E02, 3.582157E02
$$ 1.000000E02, 3.572761E02
$$ 1.000000E02, 3.563419E02
$$ 1.000000E02, 3.554131E02
$$ 1.000000E02, 3.544897E02
$$ 1.000000E02, 3.535717E02
$$ 1.000000E02, 3.526591E02
$$ 1.000000E02, 3.517519E02
$$ 1.000000E02, 3.508501E02
$$ 1.000000E02, 3.499537E02
$$ 1.000000E02, 3.490627E02
$$ 1.000000E02, 3.481771E02
$$ 1.000000E02, 3.472969E02
$$ 1.000000E02, 3.464221E02
$$ 1.000000E02, 3.455527E02
$$ 1.000000E02, 3.446887E02
$$ 1.000000E02, 3.438301E02
$$ 1.000000E02, 3.429769E02
$$ 1.000000E02, 3.421291E02
$$ 1.000000E02, 3.412867E02
$$ 1.000000E02, 3.404497E02
$$ 1.000000E02, 3.396181E02
$$ 1.000000E02, 3.387919E02
$$ 1.000000E02, 3.379711E02
$$ 1.000000E02, 3.371557E02
$$ 1.000000E02, 3.363457E02
$$ 1.000000E02, 3.355411E02
$$ 1.000000E02, 3.347419E02
$$ 1.000000E02, 3.339481E02
$$ 1.000000E02, 3.331597E02
$$ 1.000000E02, 3.323767E02
$$ 1.000000E02, 3.315991E02
$$ 1.000000E02, 3.308269E02
$$ 1.000000E02, 3.300601E02
$$ 1.000000E02, 3.292987E02
$$ 1.000000E02, 3.285427E02
$$ 1.000000E02, 3.277921E02
$$ 1.000000E02, 3.270469E02
$$ 1.000000E02, 3.263071E02
$$ 1.000000E02, 3.255727E02
$$ 1.000000E02, 3.248437E02
$$ 1.000000E02, 3.241201E02
$$ 1.000000E02, 3.234019E02
$$ 1.000000E02, 3.226891E02
$$ 1.000000E02, 3.219817E02
$$ 1.000000E02, 3.212797E02
$$ 1.000000E02, 3.205831E02
$$ 1.000000E02, 3.198919E02
$$ 1.000000E02, 3.192061E02
$$ 1.000000E02, 3.185257E02
$$ 1.000000E02, 3.178507E02
$$ 1.000000E02, 3.171811E02
$$ 1.000000E02, 3.165169E02
$$ 1.000000E02, 3.158581E02
$$ 1.000000E02, 3.152047E02
$$ 1.000000E02, 3.145567E02
$$ 1.000000E02, 3.139141E02
$$ 1.000000E02, 3.132769E02
$$ 1.000000E02, 3.126451E02
$$ 1.000000E02, 3.120187E02
$$ 1.000000E02, 3.113977E02
$$ 1.000000E02, 3.107821E02
$$ 1.000000E02, 3.101719E02
$$ 1.000000E02, 3.095671E02
$$ 1.000000E02, 3.089677E02
$$ 1.000000E02, 3.083737E02
$$ 1.000000E02, 3.077851E02
$$ 1.000000E02, 3.072019E02
$$ 1.000000E02, 3.066241E02
$$ 1.000000E02, 3.060517E02
$$ 1.000000E02, 3.054847E02
$$ 1.000000E02, 3.049231E02
$$ 1.000000E02, 3.043669E02
$$ 1.000000E02, 3.038161E02
$$ 1.000000E02, 3.032707E02
$$ 1.000000E02, 3.027307E02
$$ 1.000000E02, 3.021961E02
$$ 1.000000E02, 3.016669E02
$$ 1.000000E02, 3.011431E02
$$ 1.000000E02, 3.006247E02
$$ 1.000000E02, 3.001117E02
$$ 1.000000E02, 2.996041E02
$$ 1.000000E02, 2.991019E02
$$ 1.000000E02, 2.986051E02
$$ 1.000000E02, 2.981137E02
$$ 1.000000E02, 2.976277E02
$$ 1.000000E02, 2.971471E02
$$ 1.000000E02, 2.966719E02
$$ 1.000000E02, 2.962021E02
$$ 1.000000E02, 2.957377E02
$$ 1.000000E02, 2.952787E02
$$ 1.000000E02, 2.948251E02
$$ 1.000000E02, 2.943769E02
$$ 1.000000E02, 2.939341E02
$$ 1.000000E02, 2.934967E02
$$ 1.000000E02, 2.930647E02
$$ 1.000000E02, 2.926381E02
$$ 1.000000E02, 2.922169E02
$$ 1.000000E02, 2.918011E02
$$ 1.000000E02, 2.913907E02
$$ 1.000000E02, 2.909857E02
$$ 1.000000E02, 2.905861E02
$$ 1.000000E02, 2.901919E02
$$ 1.000000E02, 2.898031E02
$$ 1.000000E02, 2.894197E02
$$ 1.000000E02, 2.890417E02
$$ 1.000000E02, 2.886691E02
$$ 1.000000E02, 2.883019E02
$$ 1.000000E02, 2.879401E02
$$ 1.000000E02, 2.875837E02
$$ 1.000000E02, 2.872327E02
$$ 1.000000E02, 2.868871E02
$$ 1.000000E02, 2.865469E02
$$ 1.000000E02, 2.862121E02
$$ 1.000000E02, 2.858827E02
$$ 1.000000E02, 2.855587E02
$$ 1.000000E02, 2.852401E02
$$ 1.000000E02, 2.849269E02
$$ 1.000000E02, 2.846191E02
$$ 1.000000E02, 2.843167E02
$$ 1.000000E02, 2.840197E02
$$ 1.000000E02, 2.837281E02
$$ 1.000000E02, 2.834419E02
$$ 1.000000E02, 2.831611E02
$$ 1.000000E02, 2.828857E02
$$ 1.000000E02, 2.826157E02
$$ 1.000000E02, 2.823511E02
$$ 1.000000E02, 2.820919E02
$$ 1.000000E02, 2.818381E02
$$ 1.000000E02, 2.815897E02
$$ 1.000000E02, 2.813467E02
$$ 1.000000E02, 2.811091E02
$$ 1.000000E02, 2.808769E02
$$ 1.000000E02, 2.806501E02
$$ 1.000000E02, 2.804287E02
$$ 1.000000E02, 2.802127E02
$$ 1.000000E02, 2.800021E02
$$ 1.000000E02, 2.797969E02
$$ 1.000000E02, 2.795971E02
$$ 1.000000E02, 2.794027E02
$$ 1.000000E02, 2.792137E02
$$ 1.000000E02, 2.790301E02
$$ 1.000000E02, 2.788519E02
$$ 1.000000E02, 2.786791E02
$$ 1.000000E02, 2.785117E02
$$ 1.000000E02, 2.783497E02
$$ 1.000000E02, 2.781931E02
$$ 1.000000E02, 2.780419E02
$$ 1.000000E02, 2.778961E02
$$ 1.000000E02, 2.777557E02
$$ 1.000000E02, 2.776207E02
$$ 1.000000E02, 2.774911E02
$$ 1.000000E02, 2.773669E02
$$ 1.000000E02, 2.772481E02
$$ 1.000000E02, 2.771347E02
$$ 1.000000E02, 2.770267E02
$$ 1.000000E02, 2.769241E02
$$ 1.000000E02, 2.768269E02
$$ 1.000000E02, 2.767351E02
$$ 1.000000E02, 2.766487E02
$$ 1.000000E02, 2.765677E02
$$ 1.000000E02, 2.764921E02
$$ 1.000000E02, 2.764219E02
$$ 1.000000E02, 2.763571E02
$$ 1.000000E02, 2.762977E02
$$ 1.000000E02, 2.762437E02
$$ 1.000000E02, 2.761951E02
$$ 1.000000E02, 2.761519E02
$$ 1.000000E02, 2.761141E02
$$ 1.000000E02, 2.760817E02
$$ 1.000000E02, 2.760547E02
$$ 1.000000E02, 2.760331E02
$$ 1.000000E02, 2.760169E02
$$ 1.000000E02, 2.760061E02
$$ 1.000000E02, 2.760007E02
$$ 1.000000E02, 2.760007E02
$$ 1.000000E02, 2.760061E02
$$ 1.000000E02, 2.760169E02
$$ 1.000000E02, 2.760331E02
$$ 1.000000E02, 2.760547E02
$$ 1.000000E02, 2.760817E02
$$ 1.000000E02, 2.761141E02
$$ 1.000000E02, 2.761519E02
$$ 1.000000E02, 2.761951E02
$$ 1.000000E02, 2.762437E02
$$ 1.000000E02, 2.762977E02
$$ 1.000000E02, 2.763571E02
$$ 1.000000E02, 2.764219E02
$$ 1.000000E02, 2.764921E02
$$ 1.000000E02, 2.765677E02
$$ 1.000000E02, 2.766487E02
$$ 1.000000E02, 2.767351E02
$$ 1.000000E02, 2.768269E02
$$ 1.000000E02, 2.769241E02
$$ 1.000000E02, 2.770267E02
$$ 1.000000E02, 2.771347E02
$$ 1.000000E02, 2.772481E02
$$ 1.000000E02, 2.773669E02
$$ 1.000000E02, 2.774911E02
$$ 1.000000E02, 2.776207E02
$$ 1.000000E02, 2.777557E02
$$ 1.000000E02, 2.778961E02
$$ 1.000000E02, 2.780419E02
$$ 1.000000E02, 2.781931E02
$$ 1.000000E02, 2.783497E02
$$ 1.000000E02, 2.785117E02
$$ 1.000000E02, 2.786791E02
$$ 1.000000E02, 2.788519E02
$$ 1.000000E02, 2.790301E02
$$ 1.000000E02, 2.792137E02
$$ 1.000000E02, 2.794027E02
$$ 1.000000E02, 2.795971E02
$$ 1.000000E02, 2.797969E02
$$ 1.000000E02, 2.800021E02
$$ 1.000000E02, 2.802127E02
$$ 1.000000E02, 2.804287E02
$$ 1.000000E02, 2.806501E02
$$ 1.000000E02, 2.808769E02
$$ 1.000000E02, 2.811091E02
$$ 1.000000E02, 2.813467E02
$$ 1.000000E02, 2.815897E02
$$ 1.000000E02, 2.818381E02
$$ 1.000000E02, 2.820919E02
$$ 1.000000E02, 2.823511E02
$$ 1.000000E02, 2.826157E02
$$ 1.000000E02, 2.828857E02
$$ 1.000000E02, 2.831611E02
$$ 1.000000E02, 2.834419E02
$$ 1.000000E02, 2.837281E02
$$ 1.000000E02, 2.840197E02
$$ 1.000000E02, 2.843167E02
$$ 1.000000E02, 2.846191E02
$$ 1.000000E02, 2.849269E02
$$ 1.000000E02, 2.852401E02
$$ 1.000000E02, 2.855587E02
$$ 1.000000E02, 2.858827E02
$$ 1.000000E02, 2.862121E02
$$ 1.000000E02, 2.865469E02
$$ 1.000000E02, 2.868871E02
$$ 1.000000E02, 2.872327E02
$$ 1.000000E02, 2.875837E02
$$ 1.000000E02, 2.879401E02
$$ 1.000000E02, 2.883019E02
$$ 1.000000E02, 2.886691E02
$$ 1.000000E02, 2.890417E02
$$ 1.000000E02, 2.894197E02
$$ 1.000000E02, 2.898031E02
$$ 1.000000E02, 2.901919E02
$$ 1.000000E02, 2.905861E02
$$ 1.000000E02, 2.909857E02
$$ 1.000000E02, 2.913907E02
$$ 1.000000E02, 2.918011E02
$$ 1.000000E02, 2.922169E02
$$ 1.000000E02, 2.926381E02
$$ 1.000000E02, 2.930647E02
$$ 1.000000E02, 2.934967E02
$$ 1.000000E02, 2.939341E02
$$ 1.000000E02, 2.943769E02
$$ 1.000000E02, 2.948251E02
$$ 1.000000E02, 2.952787E02
$$ 1.000000E02, 2.957377E02
$$ 1.000000E02, 2.962021E02
$$ 1.000000E02, 2.966719E02
$$ 1.000000E02, 2.971471E02
$$ 1.000000E02, 2.976277E02
$$ 1.000000E02, 2.981137E02
$$ 1.000000E02, 2.986051E02
$$ 1.000000E02, 2.991019E02
$$ 1.000000E02, 2.996041E02
$$ 1.000000E02, 3.001117E02
$$ 1.000000E02, 3.006247E02
$$ 1.000000E02, 3.011431E02
$$ 1.000000E02, 3.016669E02
$$ 1.000000E02, 3.021961E02
$$ 1.000000E02, 3.027307E02
$$ 1.000000E02, 3.032707E02
$$ 1.000000E02, 3.038161E02
$$ 1.000000E02, 3.043669E02
$$ 1.000000E02, 3.049231E02
$$ 1.000000E02, 3.054847E02
$$ 1.000000E02, 3.060517E02
$$ 1.000000E02, 3.066241E02
$$ 1.000000E02, 3.072019E02
$$ 1.000000E02, 3.077851E02
$$ 1.000000E02, 3.083737E02
$$ 1.000000E02, 3.089677E02
$$ 1.000000E02, 3.095671E02
$$ 1.000000E02, 3.101719E02
$$ 1.000000E02, 3.107821E02
$$ 1.000000E02, 3.113977E02
$$ 1.000000E02, 3.120187E02
$$ 1.000000E02, 3.126451E02
$$ 1.000000E02, 3.132769E02
$$ 1.000000E02, 3.139141E02
$$ 1.000000E02, 3.145567E02
$$ 1.000000E02, 3.152047E02
$$ 1.000000E02, 3.158581E02
$$ 1.000000E02, 3.165169E02
$$ 1.000000E02, 3.171811E02
$$ 1.000000E02, 3.178507E02
$$ 1.000000E02, 3.185257E02
$$ 1.000000E02, 3.192061E02
$$ 1.000000E02, 3.198919E02
$$ 1.000000E02, 3.205831E02
$$ 1.000000E02, 3.212797E02
$$ 1.000000E02, 3.219817E02
$$ 1.000000E02, 3.226891E02
$$ 1.000000E02, 3.234019E02
$$ 1.000000E02, 3.241201E02
$$ 1.000000E02, 3.248437E02
$$ 1.000000E02, 3.255727E02
$$ 1.000000E02, 3.263071E02
$$ 1.000000E02, 3.270469E02
$$ 1.000000E02, 3.277921E02
$$ 1.000000E02, 3.285427E02
$$ 1.000000E02, 3.292987E02
$$ 1.000000E02, 3.300601E02
$$ 1.000000E02, 3.308269E02
$$ 1.000000E02, 3.315991E02
$$ 1.000000E02, 3.323767E02
$$ 1.000000E02, 3.331597E02
$$ 1.000000E02, 3.339481E02
$$ 1.000000E02, 3.347419E02
$$ 1.000000E02, 3.355411E02
$$ 1.000000E02, 3.363457E02
$$ 1.000000E02, 3.371557E02
$$ 1.000000E02, 3.379711E02
$$ 1.000000E02, 3.387919E02
$$ 1.000000E02, 3.396181E02
$$ 1.000000E02, 3.404497E02
$$ 1.000000E02, 3.412867E02
$$ 1.000000E02, 3.421291E02
$$ 1.000000E02, 3.429769E02
$$ 1.000000E02, 3.438301E02
$$ 1.000000E02, 3.446887E02
$$ 1.000000E02, 3.455527E02
$$ 1.000000E02, 3.464221E02
$$ 1.000000E02, 3.472969E02
$$ 1.000000E02, 3.481771E02
$$ 1.000000E02, 3.490627E02
$$ 1.000000E02, 3.499537E02
$$ 1.000000E02, 3.508501E02
$$ 1.000000E02, 3.517519E02
$$ 1.000000E02, 3.526591E02
$$ 1.000000E02, 3.535717E02
$$ 1.000000E02, 3.544897E02
$$ 1.000000E02, 3.554131E02
$$ 1.000000E02, 3.563419E02
$$ 1.000000E02, 3.572761E02
$$ 1.000000E02, 3.582157E02
$$ 1.000000E02, 3.591607E02
$$ 1.000000E02, 1.110750E-01
$$ 1.000000E02, 1.066875E00
$$ 1.000000E02, 2.028075E00
$$ 1.000000E02, 2.994675E00
$$ 1.000000E02, 3.966675E00
$$ 1.000000E02, 4.944075E00
$$ 1.000000E02, 5.926875E00
$$ 1.000000E02, 6.915075E00
$$ 1.000000E02, 7.908675E00
$$ 1.000000E02, 8.907675E00
$$ 1.000000E02, 9.912075E00
$$ 1.000000E02, 1.092188E01
$$ 1.000000E02, 1.193707E01
$$ 1.000000E02, 1.295768E01
$$ 1.000000E02, 1.398367E01
$$ 1.000000E02, 1.501507E01
$$ 1.000000E02, 1.605187E01
$$ 1.000000E02, 1.709407E01
$$ 1.000000E02, 1.814167E01
$$ 1.000000E02, 1.919467E01
$$ 1.000000E02, 2.025307E01
$$ 1.000000E02, 2.131687E01
$$ 1.000000E02, 2.238608E01
$$ 1.000000E02, 2.346067E01
$$ 1.000000E02, 2.454067E01
$$ 1.000000E02, 2.562607E01
$$ 1.000000E02, 2.671688E01
$$ 1.000000E02, 2.781307E01
$$ 1.000000E02, 2.891467E01
$$ 1.000000E02, 3.002167E01
$$ 1.000000E02, 3.113407E01
$$ 1.000000E02, 3.225188E01
$$ 1.000000E02, 3.337507E01
$$ 1.000000E02, 3.450367E01
$$ 1.000000E02, 3.563767E01
$$ 1.000000E02, 3.677707E01
$$ 1.000000E02, 3.792187E01
$$ 1.000000E02, 3.907207E01
$$ 1.000000E02, 4.022767E01
$$ 1.000000E02, 4.138867E01
$$ 1.000000E02, 4.255507E01
$$ 1.000000E02, 4.372688E01
$$ 1.000000E02, 4.490408E01
$$ 1.000000E02, 4.608667E01
$$ 1.000000E02, 4.727468E01
$$ 1.000000E02, 4.846808E01
$$ 1.000000E02, 4.966687E01
$$ 1.000000E02, 5.087107E01
$$ 1.000000E02, 5.208067E01
$$ 1.000000E02, 5.329567E01
$$ 1.000000E02, 5.451608E01
$$ 1.000000E02, 5.574187E01
$$ 1.000000E02, 5.697307E01
$$ 1.000000E02, 5.820968E01
$$ 1.000000E02, 5.945167E01
$$ 1.000000E02, 6.069907E01
$$ 1.000000E02, 6.195188E01
$$ 1.000000E02, 6.321007E01
$$ 1.000000E02, 6.447367E01
$$ 1.000000E02, 6.574267E01
$$ 1.000000E02, 6.701708E01
$$ 1.000000E02, 6.829688E01
$$ 1.000000E02, 6.958208E01
$$ 1.000000E02, 7.087268E01
$$ 1.000000E02, 7.216868E01
$$ 1.000000E02, 7.347007E01
$$ 1.000000E02, 7.477687E01
$$ 1.000000E02, 7.608907E01
$$ 1.000000E02, 7.740667E01
$$ 1.000000E02, 7.872967E01
$$ 1.000000E02, 8.005807E01
$$ 1.000000E02, 8.139188E01
$$ 1.000000E02, 8.273107E01
$$ 1.000000E02, 8.407567E01
$$ 1.000000E02, 8.542567E01
$$ 1.000000E02, 8.678107E01
$$ 1.000000E02, 8.814188E01
$$ 1.000000E02, 8.950807E01
$$ 1.000000E02, 9.087967E01
$$ 1.000000E02, 9.225667E01
$$ 1.000000E02, 9.363907E01
$$ 1.000000E02, 9.502687E01
$$ 1.000000E02, 9.642008E01
$$ 1.000000E02, 9.781867E01
$$ 1.000000E02, 9.922267E01
$$ 1.000000E02, 1.006321E02
$$ 1.000000E02, 1.020469E02
$$ 1.000000E02, 1.034671E02
$$ 1.000000E02, 1.048927E02
$$ 1.000000E02, 1.063237E02
$$ 1.000000E02, 1.077601E02
$$ 1.000000E02, 1.092019E02
$$ 1.000000E02, 1.106491E02
$$ 1.000000E02, 1.121017E02
$$ 1.000000E02, 1.135597E02
$$ 1.000000E02, 1.150231E02
$$ 1.000000E02, 1.164919E02
$$ 1.000000E02, 1.179661E02
$$ 1.000000E02, 1.194457E02
$$ 1.000000E02, 1.209307E02
$$ 1.000000E02, 1.224211E02
$$ 1.000000E02, 1.239169E02
$$ 1.000000E02, 1.254181E02
$$ 1.000000E02, 1.269247E02
$$ 1.000000E02, 1.284367E02
$$ 1.000000E02, 1.299541E02
$$ 1.000000E02, 1.314769E02
$$ 1.000000E02, 1.330051E02
$$ 1.000000E02, 1.345387E02
$$ 1.000000E02, 1.360777E02
$$ 1.000000E02, 1.376221E02
$$ 1.000000E02, 1.391719E02
$$ 1.000000E02, 1.407271E02
$$ 1.000000E02, 1.422877E02
$$ 1.000000E02, 1.438537E02
$$ 1.000000E02, 1.454251E02
$$ 1.000000E02, 1.470019E02
$$ 1.000000E02, 1.485841E02
$$ 1.000000E02, 1.501717E02
$$ 1.000000E02, 1.517647E02
$$ 1.000000E02, 1.533631E02
$$ 1.000000E02, 1.549669E02
$$ 1.000000E02, 1.565761E02
$$ 1.000000E02, 1.581907E02
$$ 1.000000E02, 1.598107E02
$$ 1.000000E02, 1.614361E02
$$ 1.000000E02, 1.630669E02
$$ 1.000000E02, 1.647031E02
$$ 1.000000E02, 1.663447E02
$$ 1.000000E02, 1.679917E02
$$ 1.000000E02, 1.696441E02
$$ 1.000000E02, 1.713019E02
$$ 1.000000E02, 1.729651E02
$$ 1.000000E02, 1.746337E02
$$ 1.000000E02, 1.763077E02
$$ 1.000000E02, 1.779871E02
$$ 1.000000E02, 1.796719E02
$$ 1.000000E02, 1.813621E02
$$ 1.000000E02, 1.830577E02
$$ 1.000000E02, 1.847587E02
$$ 1.000000E02, 1.864651E02
$$ 1.000000E02, 1.881769E02
$$ 1.000000E02, 1.898941E02
$$ 1.000000E02, 1.916167E02
$$ 1.000000E02, 1.933447E02
$$ 1.000000E02, 1.950781E02
$$ 1.000000E02, 1.968169E02
$$ 1.000000E02, 1.985611E02
$$ 1.000000E02, 2.003107E02
$$ 1.000000E02, 2.020657E02
$$ 1.000000E02, 2.038261E02
$$ 1.000000E02, 2.055919E02
$$ 1.000000E02, 2.073631E02
$$ 1.000000E02, 2.091397E02
$$ 1.000000E02, 2.109217E02
$$ 1.000000E02, 2.127091E02
$$ 1.000000E02, 2.145019E02
$$ 1.000000E02, 2.163001E02
$$ 1.000000E02, 2.181037E02
$$ 1.000000E02, 2.199127E02
$$ 1.000000E02, 2.217271E02
$$ 1.000000E02, 2.235469E02
$$ 1.000000E02, 2.253721E02
$$ 1.000000E02, 2.272027E02
$$ 1.000000E02, 2.290387E02
$$ 1.000000E02, 2.308801E02
$$ 1.000000E02, 2.327269E02
$$ 1.000000E02, 2.345791E02
$$ 1.000000E02, 2.364367E02
$$ 1.000000E02, 2.382997E02
$$ 1.000000E02, 2.401681E02
$$ 1.000000E02, 2.420419E02
$$ 1.000000E02, 2.439211E02
$$ 1.000000E02, 2.458057E02
$$ 1.000000E02, 2.476957E02
$$ 1.000000E02, 2.495911E02
$$ 1.000000E02, 2.514919E02
$$ 1.000000E02, 2.533981E02
$$ 1.000000E02, 2.553097E02
$$ 1.000000E02, 2.572267E02
$$ 1.000000E02, 2.591491E02
$$ 1.000000E02, 2.610769E02
$$ 1.000000E02, 2.630101E02
$$ 1.000000E02, 2.649487E02
$$ 1.000000E02, 2.668927E02
$$ 1.000000E02, 2.688421E02
$$ 1.000000E02, 2.707969E02
$$ 1.000000E02, 2.727571E02
$$ 1.000000E02, 2.747227E02
$$ 1.000000E02, 2.766937E02
$$ 1.000000E02, 2.786701E02
$$ 1.000000E02, 2.806519E02
$$ 1.000000E02, 2.826391E02
$$ 1.000000E02, 2.846317E02
$$ 1.000000E02, 2.866297E02
$$ 1.000000E02, 2.886331E02
$$ 1.000000E02, 2.906419E02
$$ 1.000000E02, 2.926561E02
$$ 1.000000E02, 2.946757E02
$$ 1.000000E02, 2.967007E02
$$ 1.000000E02, 2.987311E02
$$ 1.000000E02, 3.007669E02
$$ 1.000000E02, 3.028081E02
$$ 1.000000E02, 3.048547E02
$$ 1.000000E02, 3.069067E02
$$ 1.000000E02, 3.089641E02
$$ 1.000000E02, 3.110269E02
$$ 1.000000E02, 3.130951E02
$$ 1.000000E02, 3.151687E02
$$ 1.000000E02, 3.172477E02
$$ 1.000000E02, 3.193321E02
$$ 1.000000E02, 3.214219E02
$$ 1.000000E02, 3.235171E02
$$ 1.000000E02, 3.256177E02
$$ 1.000000E02, 3.277237E02
$$ 1.000000E02, 3.298351E02
$$ 1.000000E02, 3.319519E02
$$ 1.000000E02, 3.340741E02
$$ 1.000000E02, 3.362017E02
$$ 1.000000E02, 3.383347E02
$$ 1.000000E02, 3.404731E02
$$ 1.000000E02, 3.426169E02
$$ 1.000000E02, 3.447661E02
$$ 1.000000E02, 3.469207E02
$$ 1.000000E02, 3.490807E02
$$ 1.000000E02, 3.512461E02
$$ 1.000000E02, 3.534169E02
$$ 1.000000E02, 3.555931E02
$$ 1.000000E02, 3.577747E02
$$ 1.000000E02, 3.599617E02
$$ 1.000000E02, 2.154075E00
$$ 1.000000E02, 4.351875E00
$$ 1.000000E02, 6.555075E00
$$ 1.000000E02, 8.763675E00
$$ 1.000000E02, 1.097767E01
$$ 1.000000E02, 1.319707E01
$$ 1.000000E02, 1.542188E01
$$ 1.000000E02, 1.765207E01
$$ 1.000000E02, 1.988768E01
$$ 1.000000E02, 2.212867E01
$$ 1.000000E02, 2.437507E01
$$ 1.000000E02, 2.662687E01
$$ 1.000000E02, 2.888407E01
$$ 1.000000E02, 3.114668E01
$$ 1.000000E02, 3.341467E01
$$ 1.000000E02, 3.568807E01
$$ 1.000000E02, 3.796687E01
$$ 1.000000E02, 4.025107E01
$$ 1.000000E02, 4.254067E01
$$ 1.000000E02, 4.483567E01
$$ 1.000000E02, 4.713607E01
$$ 1.000000E02, 4.944187E01
$$ 1.000000E02, 5.175308E01
$$ 1.000000E02, 5.406967E01
$$ 1.000000E02, 5.639168E01
$$ 1.000000E02, 5.871907E01
$$ 1.000000E02, 6.105188E01
$$ 1.000000E02, 6.339007E01
$$ 1.000000E02, 6.573368E01
$$ 1.000000E02, 6.808267E01
$$ 1.000000E02, 7.043707E01
$$ 1.000000E02, 7.279687E01
$$ 1.000000E02, 7.516207E01
$$ 1.000000E02, 7.753268E01
$$ 1.000000E02, 7.990868E01
$$ 1.000000E02, 8.229008E01
$$ 1.000000E02, 8.467687E01
$$ 1.000000E02, 8.706908E01
$$ 1.000000E02, 8.946667E01
$$ 1.000000E02, 9.186968E01
$$ 1.000000E02, 9.427807E01
$$ 1.000000E02, 9.669187E01
$$ 1.000000E02, 9.911107E01
$$ 1.000000E02, 1.015357E02
$$ 1.000000E02, 1.039657E02
$$ 1.000000E02, 1.064011E02
$$ 1.000000E02, 1.088419E02
$$ 1.000000E02, 1.112881E02
$$ 1.000000E02, 1.137397E02
$$ 1.000000E02, 1.161967E02
$$ 1.000000E02, 1.186591E02
$$ 1.000000E02, 1.211269E02
$$ 1.000000E02, 1.236001E02
$$ 1.000000E02, 1.260787E02
$$ 1.000000E02, 1.285627E02
$$ 1.000000E02, 1.310521E02
$$ 1.000000E02, 1.335469E02
$$ 1.000000E02, 1.360471E02
$$ 1.000000E02, 1.385527E02
$$ 1.000000E02, 1.410637E02
$$ 1.000000E02, 1.435801E02
$$ 1.000000E02, 1.461019E02
$$ 1.000000E02, 1.486291E02
$$ 1.000000E02, 1.511617E02
$$ 1.000000E02, 1.536997E02
$$ 1.000000E02, 1.562431E02
$$ 1.000000E02, 1.587919E02
$$ 1.000000E02, 1.613461E02
$$ 1.000000E02, 1.639057E02
$$ 1.000000E02, 1.664707E02
$$ 1.000000E02, 1.690411E02
$$ 1.000000E02, 1.716169E02
$$ 1.000000E02, 1.741981E02
$$ 1.000000E02, 1.767847E02
$$ 1.000000E02, 1.793767E02
$$ 1.000000E02, 1.819741E02
$$ 1.000000E02, 1.845769E02
$$ 1.000000E02, 1.871851E02
$$ 1.000000E02, 1.897987E02
$$ 1.000000E02, 1.924177E02
$$ 1.000000E02, 1.950421E02
$$ 1.000000E02, 1.976719E02
$$ 1.000000E02, 2.003071E02
$$ 1.000000E02, 2.029477E02
$$ 1.000000E02, 2.055937E02
$$ 1.000000E02, 2.082451E02
$$ 1.000000E02, 2.109019E02
$$ 1.000000E02, 2.135641E02
$$ 1.000000E02, 2.162317E02
$$ 1.000000E02, 2.189047E02
$$ 1.000000E02, 2.215831E02
$$ 1.000000E02, 2.242669E02
$$ 1.000000E02, 2.269561E02
$$ 1.000000E02, 2.296507E02
$$ 1.000000E02, 2.323507E02
$$ 1.000000E02, 2.350561E02
$$ 1.000000E02, 2.377669E02
$$ 1.000000E02, 2.404831E02
$$ 1.000000E02, 2.432047E02
$$ 1.000000E02, 2.459317E02
$$ 1.000000E02, 2.486641E02
$$ 1.000000E02, 2.514019E02
$$ 1.000000E02, 2.541451E02
$$ 1.000000E02, 2.568937E02
$$ 1.000000E02, 2.596477E02
$$ 1.000000E02, 2.624071E02
$$ 1.000000E02, 2.651719E02
$$ 1.000000E02, 2.679421E02
$$ 1.000000E02, 2.707177E02
$$ 1.000000E02, 2.734987E02
$$ 1.000000E02, 2.762851E02
$$ 1.000000E02, 2.790769E02
$$ 1.000000E02, 2.818741E02
$$ 1.000000E02, 2.846767E02
$$ 1.000000E02, 2.874847E02
$$ 1.000000E02, 2.902981E02
$$ 1.000000E02, 2.931169E02
$$ 1.000000E02, 2.959411E02
$$ 1.000000E02, 2.987707E02
$$ 1.000000E02, 3.016057E02
$$ 1.000000E02, 3.044461E02
$$ 1.000000E02, 3.072919E02
$$ 1.000000E02, 3.101431E02
$$ 1.000000E02, 3.129997E02
$$ 1.000000E02, 3.158617E02
$$ 1.000000E02, 3.187291E02
$$ 1.000000E02, 3.216019E02
$$ 1.000000E02, 3.244801E02
$$ 1.000000E02, 3.273637E02
$$ 1.000000E02, 3.302527E02
$$ 1.000000E02, 3.331471E02
$$ 1.000000E02, 3.360469E02
$$ 1.000000E02, 3.389521E02
$$ 1.000000E02, 3.418627E02
$$ 1.000000E02, 3.447787E02
$$ 1.000000E02, 3.477001E02
$$ 1.000000E02, 3.506269E02
$$ 1.000000E02, 3.535591E02
$$ 1.000000E02, 3.564967E02
$$ 1.000000E02, 3.594397E02
$$ 1.000000E02, 2.388075E00
$$ 1.000000E02, 5.341875E00
$$ 1.000000E02, 8.301075E00
$$ 1.000000E02, 1.126567E01
$$ 1.000000E02, 1.423568E01
$$ 1.000000E02, 1.721107E01
$$ 1.000000E02, 2.019187E01
$$ 1.000000E02, 2.317807E01
$$ 1.000000E02, 2.616967E01
$$ 1.000000E02, 2.916667E01
$$ 1.000000E02, 3.216908E01
$$ 1.000000E02, 3.517687E01
$$ 1.000000E02, 3.819007E01
$$ 1.000000E02, 4.120867E01
$$ 1.000000E02, 4.423267E01
$$ 1.000000E02, 4.726207E01
$$ 1.000000E02, 5.029688E01
$$ 1.000000E02, 5.333708E01
$$ 1.000000E02, 5.638267E01
$$ 1.000000E02, 5.943367E01
$$ 1.000000E02, 6.249007E01
$$ 1.000000E02, 6.555187E01
$$ 1.000000E02, 6.861908E01
$$ 1.000000E02, 7.169167E01
$$ 1.000000E02, 7.476967E01
$$ 1.000000E02, 7.785307E01
$$ 1.000000E02, 8.094188E01
$$ 1.000000E02, 8.403608E01
$$ 1.000000E02, 8.713567E01
$$ 1.000000E02, 9.024067E01
$$ 1.000000E02, 9.335107E01
$$ 1.000000E02, 9.646687E01
$$ 1.000000E02, 9.958808E01
$$ 1.000000E02, 1.027147E02
$$ 1.000000E02, 1.058467E02
$$ 1.000000E02, 1.089841E02
$$ 1.000000E02, 1.121269E02
$$ 1.000000E02, 1.152751E02
$$ 1.000000E02, 1.184287E02
$$ 1.000000E02, 1.215877E02
$$ 1.000000E02, 1.247521E02
$$ 1.000000E02, 1.279219E02
$$ 1.000000E02, 1.310971E02
$$ 1.000000E02, 1.342777E02
$$ 1.000000E02, 1.374637E02
$$ 1.000000E02, 1.406551E02
$$ 1.000000E02, 1.438519E02
$$ 1.000000E02, 1.470541E02
$$ 1.000000E02, 1.502617E02
$$ 1.000000E02, 1.534747E02
$$ 1.000000E02, 1.566931E02
$$ 1.000000E02, 1.599169E02
$$ 1.000000E02, 1.631461E02
$$ 1.000000E02, 1.663807E02
$$ 1.000000E02, 1.696207E02
$$ 9.999923E01, 1.728661E02
$$ 9.999690E01, 1.761169E02
$$ 9.999303E01, 1.793731E02
$$ 9.998760E01, 1.826347E02
$$ 9.998063E01, 1.859017E02
$$ 9.997210E01, 1.891741E02
$$ 9.996203E01, 1.924519E02
$$ 9.995041E01, 1.957351E02
$$ 9.993724E01, 1.990237E02
$$ 9.992252E01, 2.023177E02
$$ 9.990625E01, 2.056171E02
$$ 9.988843E01, 2.089219E02
$$ 9.986906E01, 2.122321E02
$$ 9.984815E01, 2.155477E02
$$ 9.982569E01, 2.188687E02
$$ 9.980168E01, 2.221951E02
$$ 9.977613E01, 2.255269E02
$$ 9.974903E01, 2.288641E02
$$ 9.972038E01, 2.322067E02
$$ 9.969019E01, 2.355547E02
$$ 9.965845E01, 2.389081E02
$$ 9.962517E01, 2.422669E02
$$ 9.959034E01, 2.456311E02
$$ 9.955397E01, 2.490007E02
$$ 9.951606E01, 2.523757E02
$$ 9.947660E01, 2.557561E02
$$ 9.943561E01, 2.591419E02
$$ 9.939307E01, 2.625331E02
$$ 9.934899E01, 2.659297E02
$$ 9.930337E01, 2.693317E02
$$ 9.925621E01, 2.727391E02
$$ 9.920752E01, 2.761519E02
$$ 9.915728E01, 2.795701E02
$$ 9.910551E01, 2.829937E02
$$ 9.905221E01, 2.864227E02
$$ 9.899737E01, 2.898571E02
$$ 9.894099E01, 2.932969E02
$$ 9.888308E01, 2.967421E02
$$ 9.882364E01, 3.001927E02
$$ 9.876267E01, 3.036487E02
$$ 9.870016E01, 3.071101E02
$$ 9.863613E01, 3.105769E02
$$ 9.857057E01, 3.140491E02
$$ 9.850348E01, 3.175267E02
$$ 9.843486E01, 3.210097E02
$$ 9.836472E01, 3.244981E02
$$ 9.829305E01, 3.279919E02
$$ 9.821986E01, 3.314911E02
$$ 9.814515E01, 3.349957E02
$$ 9.806892E01, 3.385057E02
$$ 9.799116E01, 3.420211E02
$$ 9.791189E01, 3.455419E02
$$ 9.783110E01, 3.490681E02
$$ 9.774879E01, 3.525997E02
$$ 9.766497E01, 3.561367E02
$$ 9.757964E01, 3.596791E02
$$ 9.749279E01, 3.226875E00
$$ 9.740443E01, 6.780075E00
$$ 9.731457E01, 1.033867E01
$$ 9.722319E01, 1.390267E01
$$ 9.713031E01, 1.747207E01
$$ 9.703592E01, 2.104688E01
$$ 9.694003E01, 2.462707E01
$$ 9.684263E01, 2.821267E01
$$ 9.674374E01, 3.180367E01
$$ 9.664334E01, 3.540008E01
$$ 9.654145E01, 3.900188E01
$$ 9.643806E01, 4.260907E01
$$ 9.633318E01, 4.622167E01
$$ 9.622680E01, 4.983967E01
$$ 9.611893E01, 5.346308E01
$$ 9.600957E01, 5.709187E01
$$ 9.589873E01, 6.072607E01
$$ 9.578640E01, 6.436568E01
$$ 9.567258E01, 6.801067E01
$$ 9.555728E01, 7.166107E01
$$ 9.544050E01, 7.531687E01
$$ 9.532224E01, 7.897807E01
$$ 9.520250E01, 8.264468E01
$$ 9.508129E01, 8.631668E01
$$ 9.495861E01, 8.999407E01
$$ 9.483445E01, 9.367687E01
$$ 9.470882E01, 9.736507E01
$$ 9.458172E01, 1.010587E02
$$ 9.445316E01, 1.047577E02
$$ 9.432314E01, 1.084621E02
$$ 9.419165E01, 1.121719E02
$$ 9.405870E01, 1.158871E02
$$ 9.392430E01, 1.196077E02
$$ 9.378844E01, 1.233337E02
$$ 9.365112E01, 1.270651E02
$$ 9.351236E01, 1.308019E02
$$ 9.337214E01, 1.345441E02
$$ 9.323048E01, 1.382917E02
$$ 9.308737E01, 1.420447E02
$$ 9.294283E01, 1.458031E02
$$ 9.279684E01, 1.495669E02
$$ 9.264941E01, 1.533361E02
$$ 9.250054E01, 1.571107E02
$$ 9.235024E01, 1.608907E02
$$ 9.219852E01, 1.646761E02
$$ 9.204536E01, 1.684669E02
$$ 9.189077E01, 1.722631E02
$$ 9.173476E01, 1.760647E02
$$ 9.157733E01, 1.798717E02
$$ 9.141848E01, 1.836841E02
$$ 9.125822E01, 1.875019E02
$$ 9.109653E01, 1.913251E02
$$ 9.093344E01, 1.951537E02
$$ 9.076894E01, 1.989877E02
$$ 9.060303E01, 2.028271E02
$$ 9.043572E01, 2.066719E02
$$ 9.026700E01, 2.105221E02
$$ 9.009689E01, 2.143777E02
$$ 8.992538E01, 2.182387E02
$$ 8.975247E01, 2.221051E02
$$ 8.957818E01, 2.259769E02
$$ 8.940249E01, 2.298541E02
$$ 8.922542E01, 2.337367E02
$$ 8.904697E01, 2.376247E02
$$ 8.886714E01, 2.415181E02
$$ 8.868593E01, 2.454169E02
$$ 8.850335E01, 2.493211E02
$$ 8.831939E01, 2.532307E02
$$ 8.813407E01, 2.571457E02
$$ 8.794738E01, 2.610661E02
$$ 8.775932E01, 2.649919E02
$$ 8.756991E01, 2.689231E02
$$ 8.737914E01, 2.728597E02
$$ 8.718701E01, 2.768017E02
$$ 8.699354E01, 2.807491E02
$$ 8.679871E01, 2.847019E02
$$ 8.660254E01, 2.886601E02
$$ 8.640503E01, 2.926237E02
$$ 8.620618E01, 2.965927E02
$$ 8.600599E01, 3.005671E02
$$ 8.580447E01, 3.045469E02
$$ 8.560162E01, 3.085321E02
$$ 8.539744E01, 3.125227E02
$$ 8.519194E01, 3.165187E02
$$ 8.498512E01, 3.205201E02
$$ 8.477698E01, 3.245269E02
$$ 8.456753E01, 3.285391E02
$$ 8.435677E01, 3.325567E02
$$ 8.414470E01, 3.365797E02
$$ 8.393132E01, 3.406081E02
$$ 8.371665E01, 3.446419E02
$$ 8.350068E01, 3.486811E02
$$ 8.328341E01, 3.527257E02
$$ 8.306485E01, 3.567757E02
$$ 8.284501E01, 8.310750E-01
$$ 8.262388E01, 4.891875E00
$$ 8.240147E01, 8.958075E00
$$ 8.217778E01, 1.302967E01
$$ 8.195282E01, 1.710667E01
$$ 8.172659E01, 2.118908E01
$$ 8.149909E01, 2.527687E01
$$ 8.127033E01, 2.937007E01
$$ 8.104031E01, 3.346867E01
$$ 8.080904E01, 3.757267E01
$$ 8.057651E01, 4.168207E01
$$ 8.034273E01, 4.579688E01
$$ 8.010771E01, 4.991708E01
$$ 7.987145E01, 5.404267E01
$$ 7.963395E01, 5.817368E01
$$ 7.939521E01, 6.231007E01
$$ 7.915524E01, 6.645187E01
$$ 7.891405E01, 7.059908E01
$$ 7.867163E01, 7.475167E01
$$ 7.842800E01, 7.890967E01
$$ 7.818315E01, 8.307307E01
$$ 7.793709E01, 8.724187E01
$$ 7.768981E01, 9.141607E01
$$ 7.744134E01, 9.559567E01
$$ 7.719167E01, 9.978067E01
$$ 7.694079E01, 1.039711E02
$$ 7.668873E01, 1.081669E02
$$ 7.643548E01, 1.123681E02
$$ 7.618104E01, 1.165747E02
$$ 7.592542E01, 1.207867E02
$$ 7.566863E01, 1.250041E02
$$ 7.541066E01, 1.292269E02
$$ 7.515152E01, 1.334551E02
$$ 7.489122E01, 1.376887E02
$$ 7.462976E01, 1.419277E02
$$ 7.436714E01, 1.461721E02
$$ 7.410337E01, 1.504219E02
$$ 7.383845E01, 1.546771E02
$$ 7.357239E01, 1.589377E02
$$ 7.330519E01, 1.632037E02
$$ 7.303685E01, 1.674751E02
$$ 7.276738E01, 1.717519E02
$$ 7.249678E01, 1.760341E02
$$ 7.222505E01, 1.803217E02
$$ 7.195221E01, 1.846147E02
$$ 7.167825E01, 1.889131E02
$$ 7.140318E01, 1.932169E02
$$ 7.112701E01, 1.975261E02
$$ 7.084973E01, 2.018407E02
$$ 7.057135E01, 2.061607E02
$$ 7.029188E01, 2.104861E02
$$ 7.001132E01, 2.148169E02
$$ 6.972968E01, 2.191531E02
$$ 6.944696E01, 2.234947E02
$$ 6.916315E01, 2.278417E02
$$ 6.887828E01, 2.321941E02
$$ 6.859234E01, 2.365519E02
$$ 6.830534E01, 2.409151E02
$$ 6.801727E01, 2.452837E02
$$ 6.772816E01, 2.496577E02
$$ 6.743799E01, 2.540371E02
$$ 6.714678E01, 2.584219E02
$$ 6.685453E01, 2.628121E02
$$ 6.656124E01, 2.672077E02
$$ 6.626692E01, 2.716087E02
$$ 6.597157E01, 2.760151E02
$$ 6.567520E01, 2.804269E02
$$ 6.537782E01, 2.848441E02
$$ 6.507941E01, 2.892667E02
$$ 6.478001E01, 2.936947E02
$$ 6.447959E01, 2.981281E02
$$ 6.417818E01, 3.025669E02
$$ 6.387577E01, 3.070111E02
$$ 6.357237E01, 3.114607E02
$$ 6.326799E01, 3.159157E02
$$ 6.296263E01, 3.203761E02
$$ 6.265629E01, 3.248419E02
$$ 6.234898E01, 3.293131E02
$$ 6.204070E01, 3.337897E02
$$ 6.173147E01, 3.382717E02
$$ 6.142127E01, 3.427591E02
$$ 6.111012E01, 3.472519E02
$$ 6.079803E01, 3.517501E02
$$ 6.048499E01, 3.562537E02
$$ 6.017102E01, 7.626750E-01
$$ 5.985612E01, 5.277075E00
$$ 5.954028E01, 9.796875E00
$$ 5.922353E01, 1.432207E01
$$ 5.890585E01, 1.885268E01
$$ 5.858726E01, 2.338867E01
$$ 5.826777E01, 2.793007E01
$$ 5.794737E01, 3.247687E01
$$ 5.762607E01, 3.702907E01
$$ 5.730388E01, 4.158668E01
$$ 5.698081E01, 4.614968E01
$$ 5.665684E01, 5.071807E01
$$ 5.633201E01, 5.529187E01
$$ 5.600629E01, 5.987107E01
$$ 5.567971E01, 6.445567E01
$$ 5.535227E01, 6.904567E01
$$ 5.502397E01, 7.364107E01
$$ 5.469482E01, 7.824187E01
$$ 5.436481E01, 8.284807E01
$$ 5.403397E01, 8.745968E01
$$ 5.370229E01, 9.207667E01
$$ 5.336978E01, 9.669908E01
$$ 5.303643E01, 1.013269E02
$$ 5.270227E01, 1.059601E02
$$ 5.236729E01, 1.105987E02
$$ 5.203150E01, 1.152427E02
$$ 5.169490E01, 1.198921E02
$$ 5.135750E01, 1.245469E02
$$ 5.101931E01, 1.292071E02
$$ 5.068032E01, 1.338727E02
$$ 5.034055E01, 1.385437E02
$$ 5.000000E01, 1.432201E02
$$ 4.965867E01, 1.479019E02
$$ 4.931658E01, 1.525891E02
$$ 4.897372E01, 1.572817E02
$$ 4.863010E01, 1.619797E02
$$ 4.828573E01, 1.666831E02
$$ 4.794060E01, 1.713919E02
$$ 4.759474E01, 1.761061E02
$$ 4.724814E01, 1.808257E02
$$ 4.690080E01, 1.855507E02
$$ 4.655274E01, 1.902811E02
$$ 4.620396E01, 1.950169E02
$$ 4.585446E01, 1.997581E02
$$ 4.550425E01, 2.045047E02
$$ 4.515334E01, 2.092567E02
$$ 4.480172E01, 2.140141E02
$$ 4.444941E01, 2.187769E02
$$ 4.409641E01, 2.235451E02
$$ 4.374273E01, 2.283187E02
$$ 4.338837E01, 2.330977E02
$$ 4.303334E01, 2.378821E02
$$ 4.267764E01, 2.426719E02
$$ 4.232128E01, 2.474671E02
$$ 4.196427E01, 2.522677E02
$$ 4.160660E01, 2.570737E02
$$ 4.124829E01, 2.618851E02
$$ 4.088934E01, 2.667019E02
$$ 4.052975E01, 2.715241E02
$$ 4.016954E01, 2.763517E02
$$ 3.980871E01, 2.811847E02
$$ 3.944726E01, 2.860231E02
$$ 3.908519E01, 2.908669E02
$$ 3.872252E01, 2.957161E02
$$ 3.835925E01, 3.005707E02
$$ 3.799539E01, 3.054307E02
$$ 3.763094E01, 3.102961E02
$$ 3.726590E01, 3.151669E02
$$ 3.690029E01, 3.200431E02
$$ 3.653410E01, 3.249247E02
$$ 3.616735E01, 3.298117E02
$$ 3.580004E01, 3.347041E02
$$ 3.543217E01, 3.396019E02
$$ 3.506376E01, 3.445051E02
$$ 3.469480E01, 3.494137E02
$$ 3.432530E01, 3.543277E02
$$ 3.395527E01, 3.592471E02
$$ 3.358471E01, 4.171875E00
$$ 3.321364E01, 9.102075E00
$$ 3.284205E01, 1.403768E01
$$ 3.246995E01, 1.897867E01
$$ 3.209734E01, 2.392508E01
$$ 3.172424E01, 2.887687E01
$$ 3.135065E01, 3.383407E01
$$ 3.097657E01, 3.879668E01
$$ 3.060201E01, 4.376467E01
$$ 3.022698E01, 4.873808E01
$$ 2.985148E01, 5.371687E01
$$ 2.947552E01, 5.870107E01
$$ 2.909910E01, 6.369067E01
$$ 2.872223E01, 6.868567E01
$$ 2.834491E01, 7.368607E01
$$ 2.796715E01, 7.869187E01
$$ 2.758896E01, 8.370307E01
$$ 2.721035E01, 8.871967E01
$$ 2.683131E01, 9.374168E01
$$ 2.645185E01, 9.876907E01
$$ 2.607199E01, 1.038019E02
$$ 2.569172E01, 1.088401E02
$$ 2.531105E01, 1.138837E02
$$ 2.492999E01, 1.189327E02
$$ 2.454855E01, 1.239871E02
$$ 2.416672E01, 1.290469E02
$$ 2.378452E01, 1.341121E02
$$ 2.340195E01, 1.391827E02
$$ 2.301902E01, 1.442587E02
$$ 2.263573E01, 1.493401E02
$$ 2.225209E01, 1.544269E02
$$ 2.186811E01, 1.595191E02
$$ 2.148379E01, 1.646167E02
$$ 2.109913E01, 1.697197E02
$$ 2.071415E01, 1.748281E02
$$ 2.032884E01, 1.799419E02
$$ 1.994322E01, 1.850611E02
$$ 1.955729E01, 1.901857E02
$$ 1.917106E01, 1.953157E02
$$ 1.878453E01, 2.004511E02
$$ 1.839771E01, 2.055919E02
$$ 1.801061E01, 2.107381E02
$$ 1.762323E01, 2.158897E02
$$ 1.723557E01, 2.210467E02
$$ 1.684764E01, 2.262091E02
$$ 1.645946E01, 2.313769E02
$$ 1.607102E01, 2.365501E02
$$ 1.568233E01, 2.417287E02
$$ 1.529340E01, 2.469127E02
$$ 1.490423E01, 2.521021E02
$$ 1.451483E01, 2.572969E02
$$ 1.412520E01, 2.624971E02
$$ 1.373536E01, 2.677027E02
$$ 1.334530E01, 2.729137E02
$$ 1.295503E01, 2.781301E02
$$ 1.256457E01, 2.833519E02
$$ 1.217391E01, 2.885791E02
$$ 1.178306E01, 2.938117E02
$$ 1.139203E01, 2.990497E02
$$ 1.100082E01, 3.042931E02
$$ 1.060944E01, 3.095419E02
$$ 1.021790E01, 3.147961E02
$$ 9.826200E00, 3.200557E02
$$ 9.434347E00, 3.253207E02
$$ 9.042348E00, 3.305911E02
$$ 8.650208E00, 3.358669E02
$$ 8.257935E00, 3.411481E02
$$ 7.865533E00, 3.464347E02
$$ 7.473009E00, 3.517267E02
$$ 7.080370E00, 3.570241E02
$$ 6.687621E00, 2.326875E00
$$ 6.294768E00, 7.635075E00
$$ 5.901818E00, 1.294867E01
$$ 5.508776E00, 1.826768E01
$$ 5.115649E00, 2.359208E01
$$ 4.722442E00, 2.892187E01
$$ 4.329163E00, 3.425707E01
$$ 3.935816E00, 3.959767E01
$$ 3.542408E00, 4.494368E01
$$ 3.148946E00, 5.029508E01
$$ 2.755434E00, 5.565187E01
$$ 2.361880E00, 6.101408E01
$$ 1.968289E00, 6.638167E01
$$ 1.574668E00, 7.175467E01
$$ 1.181022E00, 7.713307E01
$$ 7.873584E-01, 8.251687E01
$$ 3.936823E-01, 8.790607E01
$$ 0.000000E00, 9.330067E01
$$ 0.000000E00, 1.833013E02
$$ 7.893367E-01, 1.779122E02
$$ 1.578624E00, 1.725338E02
$$ 2.367813E00, 1.671662E02
$$ 3.156855E00, 1.618093E02
$$ 3.945700E00, 1.564633E02
$$ 4.734299E00, 1.511282E02
$$ 5.522603E00, 1.458037E02
$$ 6.310563E00, 1.404901E02
$$ 7.098130E00, 1.351873E02
$$ 7.885255E00, 1.298954E02
$$ 8.671888E00, 1.246142E02
$$ 9.457981E00, 1.193437E02
$$ 1.024348E01, 1.140841E02
$$ 1.102835E01, 1.088353E02
$$ 1.181253E01, 1.035973E02
$$ 1.259597E01, 9.837015E01
$$ 1.337863E01, 9.315375E01
$$ 1.416045E01, 8.794815E01
$$ 1.494139E01, 8.275335E01
$$ 1.572140E01, 7.756935E01
$$ 1.650044E01, 7.239615E01
$$ 1.727844E01, 6.723375E01
$$ 1.805537E01, 6.208215E01
$$ 1.883117E01, 5.694135E01
$$ 1.960579E01, 5.181135E01
$$ 2.037920E01, 4.669215E01
$$ 2.115134E01, 4.158375E01
$$ 2.192216E01, 3.648615E01
$$ 2.269161E01, 3.139935E01
$$ 2.345965E01, 2.632335E01
$$ 2.422623E01, 2.125815E01
$$ 2.499130E01, 1.620375E01
$$ 2.575481E01, 1.116015E01
$$ 2.651671E01, 6.127350E00
$$ 2.727697E01, 1.105350E00
$$ 2.803552E01, 3.560941E02
$$ 2.879233E01, 3.510937E02
$$ 2.954734E01, 3.461042E02
$$ 3.030052E01, 3.411253E02
$$ 3.105180E01, 3.361573E02
$$ 3.180115E01, 3.312001E02
$$ 3.254852E01, 3.262537E02
$$ 3.329386E01, 3.213182E02
$$ 3.403713E01, 3.163933E02
$$ 3.477828E01, 3.114793E02
$$ 3.551726E01, 3.065761E02
$$ 3.625402E01, 3.016837E02
$$ 3.698853E01, 2.968021E02
$$ 3.772073E01, 2.919314E02
$$ 3.845058E01, 2.870713E02
$$ 3.917804E01, 2.822221E02
$$ 3.990306E01, 2.773837E02
$$ 4.062559E01, 2.725561E02
$$ 4.134558E01, 2.677394E02
$$ 4.206301E01, 2.629333E02
$$ 4.277781E01, 2.581382E02
$$ 4.348994E01, 2.533537E02
$$ 4.419937E01, 2.485802E02
$$ 4.490604E01, 2.438174E02
$$ 4.560992E01, 2.390654E02
$$ 4.631095E01, 2.343241E02
$$ 4.700910E01, 2.295937E02
$$ 4.770431E01, 2.248741E02
$$ 4.839656E01, 2.201653E02
$$ 4.908579E01, 2.154674E02
$$ 4.977196E01, 2.107801E02
$$ 5.045503E01, 2.061038E02
$$ 5.113496E01, 2.014381E02
$$ 5.181170E01, 1.967834E02
$$ 5.248522E01, 1.921393E02
$$ 5.315546E01, 1.875062E02
$$ 5.382239E01, 1.828837E02
$$ 5.448597E01, 1.782721E02
$$ 5.514615E01, 1.736713E02
$$ 5.580290E01, 1.690813E02
$$ 5.645617E01, 1.645021E02
$$ 5.710592E01, 1.599337E02
$$ 5.775212E01, 1.553761E02
$$ 5.839471E01, 1.508293E02
$$ 5.903367E01, 1.462934E02
$$ 5.966895E01, 1.417682E02
$$ 6.030051E01, 1.372537E02
$$ 6.092832E01, 1.327501E02
$$ 6.155232E01, 1.282573E02
$$ 6.217250E01, 1.237754E02
$$ 6.278880E01, 1.193041E02
$$ 6.340118E01, 1.148438E02
$$ 6.400962E01, 1.103941E02
$$ 6.461407E01, 1.059553E02
$$ 6.521449E01, 1.015274E02
$$ 6.581085E01, 9.711015E01
$$ 6.640311E01, 9.270375E01
$$ 6.699124E01, 8.830815E01
$$ 6.757518E01, 8.392335E01
$$ 6.815492E01, 7.954935E01
$$ 6.873041E01, 7.518615E01
$$ 6.930162E01, 7.083375E01
$$ 6.986851E01, 6.649215E01
$$ 7.043105E01, 6.216135E01
$$ 7.098920E01, 5.784135E01
$$ 7.154293E01, 5.353215E01
$$ 7.209220E01, 4.923375E01
$$ 7.263698E01, 4.494615E01
$$ 7.317723E01, 4.066935E01
$$ 7.371292E01, 3.640335E01
$$ 7.424402E01, 3.214815E01
$$ 7.477049E01, 2.790375E01
$$ 7.529231E01, 2.367015E01
$$ 7.580943E01, 1.944735E01
$$ 7.632183E01, 1.523535E01
$$ 7.682948E01, 1.103415E01
$$ 7.733233E01, 6.843750E00
$$ 7.783037E01, 2.664150E00
$$ 7.832356E01, 3.584954E02
$$ 7.881187E01, 3.543373E02
$$ 7.929527E01, 3.501902E02
$$ 7.977373E01, 3.460537E02
$$ 8.024722E01, 3.419282E02
$$ 8.071571E01, 3.378133E02
$$ 8.117917E01, 3.337094E02
$$ 8.163757E01, 3.296161E02
$$ 8.209089E01, 3.255337E02
$$ 8.253909E01, 3.214621E02
$$ 8.298215E01, 3.174013E02
$$ 8.342003E01, 3.133514E02
$$ 8.385272E01, 3.093122E02
$$ 8.428019E01, 3.052837E02
$$ 8.470240E01, 3.012662E02
$$ 8.511934E01, 2.972593E02
$$ 8.553097E01, 2.932634E02
$$ 8.593728E01, 2.892781E02
$$ 8.633823E01, 2.853038E02
$$ 8.673380E01, 2.813401E02
$$ 8.712396E01, 2.773873E02
$$ 8.750870E01, 2.734453E02
$$ 8.788799E01, 2.695142E02
$$ 8.826180E01, 2.655938E02
$$ 8.863011E01, 2.616842E02
$$ 8.899290E01, 2.577854E02
$$ 8.935014E01, 2.538973E02
$$ 8.970182E01, 2.500202E02
$$ 9.004790E01, 2.461537E02
$$ 9.038838E01, 2.422981E02
$$ 9.072323E01, 2.384533E02
$$ 9.105242E01, 2.346193E02
$$ 9.137594E01, 2.307962E02
$$ 9.169376E01, 2.269838E02
$$ 9.200588E01, 2.231821E02
$$ 9.231226E01, 2.193914E02
$$ 9.261288E01, 2.156114E02
$$ 9.290774E01, 2.118421E02
$$ 9.319681E01, 2.080838E02
$$ 9.348008E01, 2.043361E02
$$ 9.375751E01, 2.005993E02
$$ 9.402911E01, 1.968733E02
$$ 9.429485E01, 1.931581E02
$$ 9.455471E01, 1.894537E02
$$ 9.480868E01, 1.857602E02
$$ 9.505675E01, 1.820774E02
$$ 9.529889E01, 1.784053E02
$$ 9.553510E01, 1.747442E02
$$ 9.576535E01, 1.710937E02
$$ 9.598963E01, 1.674542E02
$$ 9.620794E01, 1.638253E02
$$ 9.642025E01, 1.602074E02
$$ 9.662655E01, 1.566001E02
$$ 9.682683E01, 1.530037E02
$$ 9.702108E01, 1.494181E02
$$ 9.720928E01, 1.458434E02
$$ 9.739143E01, 1.422794E02
$$ 9.756751E01, 1.387261E02
$$ 9.773751E01, 1.351837E02
$$ 9.790142E01, 1.316521E02
$$ 9.805923E01, 1.281314E02
$$ 9.821093E01, 1.246213E02
$$ 9.835651E01, 1.211222E02
$$ 9.849597E01, 1.176337E02
$$ 9.862928E01, 1.141562E02
$$ 9.875646E01, 1.106893E02
$$ 9.887747E01, 1.072333E02
$$ 9.899233E01, 1.037881E02
$$ 9.910102E01, 1.003537E02
$$ 9.920354E01, 9.693015E01
$$ 9.929987E01, 9.351735E01
$$ 9.939002E01, 9.011535E01
$$ 9.947397E01, 8.672415E01
$$ 9.955173E01, 8.334375E01
$$ 9.962328E01, 7.997415E01
$$ 9.968863E01, 7.661535E01
$$ 9.974776E01, 7.326735E01
$$ 9.980069E01, 6.993015E01
$$ 9.984739E01, 6.660375E01
$$ 9.988787E01, 6.328815E01
$$ 9.992213E01, 5.998335E01
$$ 9.995016E01, 5.668935E01
$$ 9.997196E01, 5.340615E01
$$ 9.998754E01, 5.013375E01
$$ 9.999688E01, 4.687215E01
$$ 1.000000E02, 4.362135E01
$$ 1.000000E02, 4.038135E01
$$ 1.000000E02, 3.715215E01
$$ 1.000000E02, 3.393375E01
$$ 1.000000E02, 3.072615E01
$$ 1.000000E02, 2.752935E01
$$ 1.000000E02, 2.434335E01
$$ 1.000000E02, 2.116815E01
$$ 1.000000E02, 1.800375E01
$$ 1.000000E02, 1.485015E01
$$ 1.000000E02, 1.170735E01
$$ 1.000000E02, 8.575350E00
$$ 1.000000E02, 5.454150E00
$$ 1.000000E02, 2.343750E00
$$ 1.000000E02, 3.592442E02
$$ 1.000000E02, 3.561554E02
$$ 1.000000E02, 3.530773E02
$$ 1.000000E02, 3.500102E02
$$ 1.000000E02, 3.469537E02
$$ 1.000000E02, 3.439082E02
$$ 1.000000E02, 3.408734E02
$$ 1.000000E02, 3.378493E02
$$ 1.000000E02, 3.348362E02
$$ 1.000000E02, 3.318337E02
$$ 1.000000E02, 3.288422E02
$$ 1.000000E02, 3.258613E02
$$ 1.000000E02, 3.228914E02
$$ 1.000000E02, 3.199322E02
$$ 1.000000E02, 3.169838E02
$$ 1.000000E02, 3.140461E02
$$ 1.000000E02, 3.111193E02
$$ 1.000000E02, 3.082033E02
$$ 1.000000E02, 3.052981E02
$$ 1.000000E02, 3.024038E02
$$ 1.000000E02, 2.995201E02
$$ 1.000000E02, 2.966474E02
$$ 1.000000E02, 2.937853E02
$$ 1.000000E02, 2.909342E02
$$ 1.000000E02, 2.880937E02
$$ 1.000000E02, 2.852642E02
$$ 1.000000E02, 2.824453E02
$$ 1.000000E02, 2.796373E02
$$ 1.000000E02, 2.768402E02
$$ 1.000000E02, 2.740537E02
$$ 1.000000E02, 2.712782E02
$$ 1.000000E02, 2.685133E02
$$ 1.000000E02, 2.657594E02
$$ 1.000000E02, 2.630161E02
$$ 1.000000E02, 2.602838E02
$$ 1.000000E02, 2.575622E02
$$ 1.000000E02, 2.548513E02
$$ 1.000000E02, 2.521513E02
$$ 1.000000E02, 2.494621E02
$$ 1.000000E02, 2.467838E02
$$ 1.000000E02, 2.441161E02
$$ 1.000000E02, 2.414593E02
$$ 1.000000E02, 2.388133E02
$$ 1.000000E02, 2.361781E02
$$ 1.000000E02, 2.335537E02
$$ 1.000000E02, 2.309401E02
$$ 1.000000E02, 2.283374E02
$$ 1.000000E02, 2.257454E02
$$ 1.000000E02, 2.231642E02
$$ 1.000000E02, 2.205938E02
$$ 1.000000E02, 2.180342E02
$$ 1.000000E02, 2.154853E02
$$ 1.000000E02, 2.129473E02
$$ 1.000000E02, 2.104201E02
$$ 1.000000E02, 2.079038E02
$$ 1.000000E02, 2.053982E02
$$ 1.000000E02, 2.029034E02
$$ 1.000000E02, 2.004194E02
$$ 1.000000E02, 1.979462E02
$$ 1.000000E02, 1.954838E02
$$ 1.000000E02, 1.930322E02
$$ 1.000000E02, 1.905913E02
$$ 1.000000E02, 1.881613E02
$$ 1.000000E02, 1.857421E02
$$ 1.000000E02, 1.833337E02
$$ 1.000000E02, 1.809362E02
$$ 1.000000E02, 1.785494E02
$$ 1.000000E02, 1.761733E02
$$ 1.000000E02, 1.738082E02
$$ 1.000000E02, 1.714538E02
$$ 1.000000E02, 1.691101E02
$$ 1.000000E02, 1.667773E02
$$ 1.000000E02, 1.644553E02
$$ 1.000000E02, 1.621441E02
$$ 1.000000E02, 1.598437E02
$$ 1.000000E02, 1.575542E02
$$ 1.000000E02, 1.552753E02
$$ 1.000000E02, 1.530073E02
$$ 1.000000E02, 1.507502E02
$$ 1.000000E02, 1.485038E02
$$ 1.000000E02, 1.462681E02
$$ 1.000000E02, 1.440433E02
$$ 1.000000E02, 1.418293E02
$$ 1.000000E02, 1.396261E02
$$ 1.000000E02, 1.374338E02
$$ 1.000000E02, 1.352521E02
$$ 1.000000E02, 1.330814E02
$$ 1.000000E02, 1.309214E02
$$ 1.000000E02, 1.287722E02
$$ 1.000000E02, 1.266337E02
$$ 1.000000E02, 1.245061E02
$$ 1.000000E02, 1.223893E02
$$ 1.000000E02, 1.202833E02
$$ 1.000000E02, 1.181881E02
$$ 1.000000E02, 1.161037E02
$$ 1.000000E02, 1.140301E02
$$ 1.000000E02, 1.119673E02
$$ 1.000000E02, 1.099154E02
$$ 1.000000E02, 1.078741E02
$$ 1.000000E02, 1.058438E02
$$ 1.000000E02, 1.038241E02
$$ 1.000000E02, 1.018153E02
$$ 1.000000E02, 9.981735E01
$$ 1.000000E02, 9.783015E01
$$ 1.000000E02, 9.585375E01
$$ 1.000000E02, 9.388815E01
$$ 1.000000E02, 9.193335E01
$$ 1.000000E02, 8.998935E01
$$ 1.000000E02, 8.805615E01
$$ 1.000000E02, 8.613375E01
$$ 1.000000E02, 8.422215E01
$$ 1.000000E02, 8.232135E01
$$ 1.000000E02, 8.043135E01
$$ 1.000000E02, 7.855215E01
$$ 1.000000E02, 7.668375E01
$$ 1.000000E02, 7.482615E01
$$ 1.000000E02, 7.297935E01
$$ 1.000000E02, 7.114335E01
$$ 1.000000E02, 6.931815E01
$$ 1.000000E02, 6.750375E01
$$ 1.000000E02, 6.570015E01
$$ 1.000000E02, 6.390735E01
$$ 1.000000E02, 6.212535E01
$$ 1.000000E02, 6.035415E01
$$ 1.000000E02, 5.859375E01
$$ 1.000000E02, 5.684415E01
$$ 1.000000E02, 5.510535E01
$$ 1.000000E02, 5.337735E01
$$ 1.000000E02, 5.166015E01
$$ 1.000000E02, 4.995375E01
$$ 1.000000E02, 4.825815E01
$$ 1.000000E02, 4.657335E01
$$ 1.000000E02, 4.489935E01
$$ 1.000000E02, 4.323615E01
$$ 1.000000E02, 4.158375E01
$$ 1.000000E02, 3.994215E01
$$ 1.000000E02, 3.831135E01
$$ 1.000000E02, 3.669135E01
$$ 1.000000E02, 3.508215E01
$$ 1.000000E02, 3.348375E01
$$ 1.000000E02, 3.189615E01
$$ 1.000000E02, 3.031935E01
$$ 1.000000E02, 2.875335E01
$$ 1.000000E02, 2.719815E01
$$ 1.000000E02, 2.565375E01
$$ 1.000000E02, 2.412015E01
$$ 1.000000E02, 2.259735E01
$$ 1.000000E02, 2.108535E01
$$ 1.000000E02, 1.958415E01
$$ 1.000000E02, 1.809375E01
$$ 1.000000E02, 1.661415E01
$$ 1.000000E02, 1.514535E01
$$ 1.000000E02, 1.368735E01
$$ 1.000000E02, 1.224015E01
$$ 1.000000E02, 1.080375E01
$$ 1.000000E02, 9.378150E00
$$ 1.000000E02, 7.963350E00
$$ 1.000000E02, 6.559350E00
$$ 1.000000E02, 5.166150E00
$$ 1.000000E02, 3.783750E00
$$ 1.000000E02, 2.412150E00
$$ 1.000000E02, 1.051350E00
$$ 1.000000E02, 3.597014E02
$$ 1.000000E02, 3.583622E02
$$ 1.000000E02, 3.570338E02
$$ 1.000000E02, 3.557161E02
$$ 1.000000E02, 3.544094E02
$$ 1.000000E02, 3.531133E02
$$ 1.000000E02, 3.518282E02
$$ 1.000000E02, 3.505538E02
$$ 1.000000E02, 3.492902E02
$$ 1.000000E02, 3.480373E02
$$ 1.000000E02, 3.467954E02
$$ 1.000000E02, 3.455642E02
$$ 1.000000E02, 3.443438E02
$$ 1.000000E02, 3.431342E02
$$ 1.000000E02, 3.419353E02
$$ 1.000000E02, 3.407474E02
$$ 1.000000E02, 3.395702E02
$$ 1.000000E02, 3.384038E02
$$ 1.000000E02, 3.372482E02
$$ 1.000000E02, 3.361034E02
$$ 1.000000E02, 3.349693E02
$$ 1.000000E02, 3.338461E02
$$ 1.000000E02, 3.327338E02
$$ 1.000000E02, 3.316322E02
$$ 1.000000E02, 3.305413E02
$$ 1.000000E02, 3.294614E02
$$ 1.000000E02, 3.283922E02
$$ 1.000000E02, 3.273338E02
$$ 1.000000E02, 3.262862E02
$$ 1.000000E02, 3.252494E02
$$ 1.000000E02, 3.242234E02
$$ 1.000000E02, 3.232082E02
$$ 1.000000E02, 3.222038E02
$$ 1.000000E02, 3.212102E02
$$ 1.000000E02, 3.202274E02
$$ 1.000000E02, 3.192554E02
$$ 1.000000E02, 3.182942E02
$$ 1.000000E02, 3.173438E02
$$ 1.000000E02, 3.164042E02
$$ 1.000000E02, 3.154754E02
$$ 1.000000E02, 3.145574E02
$$ 1.000000E02, 3.136502E02
$$ 1.000000E02, 3.127537E02
$$ 1.000000E02, 3.118682E02
$$ 1.000000E02, 3.109933E02
$$ 1.000000E02, 3.101294E02
$$ 1.000000E02, 3.092762E02
$$ 1.000000E02, 3.084338E02
$$ 1.000000E02, 3.076022E02
$$ 1.000000E02, 3.067814E02
$$ 1.000000E02, 3.059714E02
$$ 1.000000E02, 3.051722E02
$$ 1.000000E02, 3.043838E02
$$ 1.000000E02, 3.036062E02
$$ 1.000000E02, 3.028393E02
$$ 1.000000E02, 3.020834E02
$$ 1.000000E02, 3.013382E02
$$ 1.000000E02, 3.006038E02
$$ 1.000000E02, 2.998802E02
$$ 1.000000E02, 2.991674E02
$$ 1.000000E02, 2.984654E02
$$ 1.000000E02, 2.977742E02
$$ 1.000000E02, 2.970938E02
$$ 1.000000E02, 2.964242E02
$$ 1.000000E02, 2.957654E02
$$ 1.000000E02, 2.951174E02
$$ 1.000000E02, 2.944802E02
$$ 1.000000E02, 2.938538E02
$$ 1.000000E02, 2.932382E02
$$ 1.000000E02, 2.926334E02
$$ 1.000000E02, 2.920394E02
$$ 1.000000E02, 2.914562E02
$$ 1.000000E02, 2.908837E02
$$ 1.000000E02, 2.903221E02
$$ 1.000000E02, 2.897714E02
$$ 1.000000E02, 2.892314E02
$$ 1.000000E02, 2.887022E02
$$ 1.000000E02, 2.881838E02
$$ 1.000000E02, 2.876762E02
$$ 1.000000E02, 2.871794E02
$$ 1.000000E02, 2.866934E02
$$ 1.000000E02, 2.862182E02
$$ 1.000000E02, 2.857537E02
$$ 1.000000E02, 2.853002E02
$$ 1.000000E02, 2.848574E02
$$ 1.000000E02, 2.844254E02
$$ 1.000000E02, 2.840042E02
$$ 1.000000E02, 2.835938E02
$$ 1.000000E02, 2.831942E02
$$ 1.000000E02, 2.828054E02
$$ 1.000000E02, 2.824274E02
$$ 1.000000E02, 2.820602E02
$$ 1.000000E02, 2.817038E02
$$ 1.000000E02, 2.813582E02
$$ 1.000000E02, 2.810234E02
$$ 1.000000E02, 2.806994E02
$$ 1.000000E02, 2.803862E02
$$ 1.000000E02, 2.800838E02
$$ 1.000000E02, 2.797922E02
$$ 1.000000E02, 2.795114E02
$$ 1.000000E02, 2.792414E02
$$ 1.000000E02, 2.789822E02
$$ 1.000000E02, 2.787338E02
$$ 1.000000E02, 2.784962E02
$$ 1.000000E02, 2.782694E02
$$ 1.000000E02, 2.780534E02
$$ 1.000000E02, 2.778482E02
$$ 1.000000E02, 2.776538E02
$$ 1.000000E02, 2.774702E02
$$ 1.000000E02, 2.772974E02
$$ 1.000000E02, 2.771354E02
$$ 1.000000E02, 2.769842E02
$$ 1.000000E02, 2.768438E02
$$ 1.000000E02, 2.767142E02
$$ 1.000000E02, 2.765954E02
$$ 1.000000E02, 2.764874E02
$$ 1.000000E02, 2.763902E02
$$ 1.000000E02, 2.763038E02
$$ 1.000000E02, 2.762282E02
$$ 1.000000E02, 2.761634E02
$$ 1.000000E02, 2.761094E02
$$ 1.000000E02, 2.760662E02
$$ 1.000000E02, 2.760338E02
$$ 1.000000E02, 2.760122E02
$$ 1.000000E02, 2.760014E02
$$ 1.000000E02, 2.760014E02
$$ 1.000000E02, 2.760122E02
$$ 1.000000E02, 2.760338E02
$$ 1.000000E02, 2.760662E02
$$ 1.000000E02, 2.761094E02
$$ 1.000000E02, 2.761634E02
$$ 1.000000E02, 2.762282E02
$$ 1.000000E02, 2.763038E02
$$ 1.000000E02, 2.763902E02
$$ 1.000000E02, 2.764874E02
$$ 1.000000E02, 2.765954E02
$$ 1.000000E02, 2.767142E02
$$ 1.000000E02, 2.768438E02
$$ 1.000000E02, 2.769842E02
$$ 1.000000E02, 2.771354E02
$$ 1.000000E02, 2.772974E02
$$ 1.000000E02, 2.774702E02
$$ 1.000000E02, 2.776538E02
$$ 1.000000E02, 2.778482E02
$$ 1.000000E02, 2.780534E02
$$ 1.000000E02, 2.782694E02
$$ 1.000000E02, 2.784962E02
$$ 1.000000E02, 2.787338E02
$$ 1.000000E02, 2.789822E02
$$ 1.000000E02, 2.792414E02
$$ 1.000000E02, 2.795114E02
$$ 1.000000E02, 2.797922E02
$$ 1.000000E02, 2.800838E02
$$ 1.000000E02, 2.803862E02
$$ 1.000000E02, 2.806994E02
$$ 1.000000E02, 2.810234E02
$$ 1.000000E02, 2.813582E02
$$ 1.000000E02, 2.817038E02
$$ 1.000000E02, 2.820602E02
$$ 1.000000E02, 2.824274E02
$$ 1.000000E02, 2.828054E02
$$ 1.000000E02, 2.831942E02
$$ 1.000000E02, 2.835938E02
$$ 1.000000E02, 2.840042E02
$$ 1.000000E02, 2.844254E02
$$ 1.000000E02, 2.848574E02
$$ 1.000000E02, 2.853002E02
$$ 1.000000E02, 2.857537E02
$$ 1.000000E02, 2.862182E02
$$ 1.000000E02, 2.866934E02
$$ 1.000000E02, 2.871794E02
$$ 1.000000E02, 2.876762E02
$$ 1.000000E02, 2.881838E02
$$ 1.000000E02, 2.887022E02
$$ 1.000000E02, 2.892314E02
$$ 1.000000E02, 2.897714E02
$$ 1.000000E02, 2.903221E02
$$ 1.000000E02, 2.908837E02
$$ 1.000000E02, 2.914562E02
$$ 1.000000E02, 2.920394E02
$$ 1.000000E02, 2.926334E02
$$ 1.000000E02, 2.932382E02
$$ 1.000000E02, 2.938538E02
$$ 1.000000E02, 2.944802E02
$$ 1.000000E02, 2.951174E02
$$ 1.000000E02, 2.957654E02
$$ 1.000000E02, 2.964242E02
$$ 1.000000E02, 2.970938E02
$$ 1.000000E02, 2.977742E02
$$ 1.000000E02, 2.984654E02
$$ 1.000000E02, 2.991674E02
$$ 1.000000E02, 2.998802E02
$$ 1.000000E02, 3.006038E02
$$ 1.000000E02, 3.013382E02
$$ 1.000000E02, 3.020834E02
$$ 1.000000E02, 3.028393E02
$$ 1.000000E02, 3.036062E02
$$ 1.000000E02, 3.043838E02
$$ 1.000000E02, 3.051722E02
$$ 1.000000E02, 3.059714E02
$$ 1.000000E02, 3.067814E02
$$ 1.000000E02, 3.076022E02
$$ 1.000000E02, 3.084338E02
$$ 1.000000E02, 3.092762E02
$$ 1.000000E02, 3.101294E02
$$ 1.000000E02, 3.109933E02
$$ 1.000000E02, 3.118682E02
$$ 1.000000E02, 3.127537E02
$$ 1.000000E02, 3.136502E02
$$ 1.000000E02, 3.145574E02
$$ 1.000000E02, 3.154754E02
$$ 1.000000E02, 3.164042E02
$$ 1.000000E02, 3.173438E02
$$ 1.000000E02, 3.182942E02
$$ 1.000000E02, 3.192554E02
$$ 1.000000E02, 3.202274E02
$$ 1.000000E02, 3.212102E02
$$ 1.000000E02, 3.222038E02
$$ 1.000000E02, 3.232082E02
$$ 1.000000E02, 3.242234E02
$$ 1.000000E02, 3.252494E02
$$ 1.000000E02, 3.262862E02
$$ 1.000000E02, 3.273338E02
$$ 1.000000E02, 3.283922E02
$$ 1.000000E02, 3.294614E02
$$ 1.000000E02, 3.305413E02
$$ 1.000000E02, 3.316322E02
$$ 1.000000E02, 3.327338E02
$$ 1.000000E02, 3.338461E02
$$ 1.000000E02, 3.349693E02
$$ 1.000000E02, 3.361034E02
$$ 1.000000E02, 3.372482E02
$$ 1.000000E02, 3.384038E02
$$ 1.000000E02, 3.395702E02
$$ 1.000000E02, 3.407474E02
$$ 1.000000E02, 3.419353E02
$$ 1.000000E02, 3.431342E02
$$ 1.000000E02, 3.443438E02
$$ 1.000000E02, 3.455642E02
$$ 1.000000E02, 3.467954E02
$$ 1.000000E02, 3.480373E02
$$ 1.000000E02, 3.492902E02
$$ 1.000000E02, 3.505538E02
$$ 1.000000E02, 3.518282E02
$$ 1.000000E02, 3.531133E02
$$ 1.000000E02, 3.544094E02
$$ 1.000000E02, 3.557161E02
$$ 1.000000E02, 3.570338E02
$$ 1.000000E02, 3.583622E02
$$ 1.000000E02, 3.597014E02
$$ 1.000000E02, 1.051350E00
$$ 1.000000E02, 2.412150E00
$$ 1.000000E02, 3.783750E00
$$ 1.000000E02, 5.166150E00
$$ 1.000000E02, 6.559350E00
$$ 1.000000E02, 7.963350E00
$$ 1.000000E02, 9.378150E00
$$ 1.000000E02, 1.080375E01
$$ 1.000000E02, 1.224015E01
$$ 1.000000E02, 1.368735E01
$$ 1.000000E02, 1.514535E01
$$ 1.000000E02, 1.661415E01
$$ 1.000000E02, 1.809375E01
$$ 1.000000E02, 1.958415E01
$$ 1.000000E02, 2.108535E01
$$ 1.000000E02, 2.259735E01
$$ 1.000000E02, 2.412015E01
$$ 1.000000E02, 2.565375E01
$$ 1.000000E02, 2.719815E01
$$ 1.000000E02, 2.875335E01
$$ 1.000000E02, 3.031935E01
$$ 1.000000E02, 3.189615E01
$$ 1.000000E02, 3.348375E01
$$ 1.000000E02, 3.508215E01
$$ 1.000000E02, 3.669135E01
$$ 1.000000E02, 3.831135E01
$$ 1.000000E02, 3.994215E01
$$ 1.000000E02, 4.158375E01
$$ 1.000000E02, 4.323615E01
$$ 1.000000E02, 4.489935E01
$$ 1.000000E02, 4.657335E01
$$ 1.000000E02, 4.825815E01
$$ 1.000000E02, 4.995375E01
$$ 1.000000E02, 5.166015E01
$$ 1.000000E02, 5.337735E01
$$ 1.000000E02, 5.510535E01
$$ 1.000000E02, 5.684415E01
$$ 1.000000E02, 5.859375E01
$$ 1.000000E02, 6.035415E01
$$ 1.000000E02, 6.212535E01
$$ 1.000000E02, 6.390735E01
$$ 1.000000E02, 6.570015E01
$$ 1.000000E02, 6.750375E01
$$ 1.000000E02, 6.931815E01
$$ 1.000000E02, 7.114335E01
$$ 1.000000E02, 7.297935E01
$$ 1.000000E02, 7.482615E01
$$ 1.000000E02, 7.668375E01
$$ 1.000000E02, 7.855215E01
$$ 1.000000E02, 8.043135E01
$$ 1.000000E02, 8.232135E01
$$ 1.000000E02, 8.422215E01
$$ 1.000000E02, 8.613375E01
$$ 1.000000E02, 8.805615E01
$$ 1.000000E02, 8.998935E01
$$ 1.000000E02, 9.193335E01
$$ 1.000000E02, 9.388815E01
$$ 1.000000E02, 9.585375E01
$$ 1.000000E02, 9.783015E01
$$ 1.000000E02, 9.981735E01
$$ 1.000000E02, 1.018153E02
$$ 1.000000E02, 1.038241E02
$$ 1.000000E02, 1.058438E02
$$ 1.000000E02, 1.078741E02
$$ 1.000000E02, 1.099154E02
$$ 1.000000E02, 1.119673E02
$$ 1.000000E02, 1.140301E02
$$ 1.000000E02, 1.161037E02
$$ 1.000000E02, 1.181881E02
$$ 1.000000E02, 1.202833E02
$$ 1.000000E02, 1.223893E02
$$ 1.000000E02, 1.245061E02
$$ 1.000000E02, 1.266337E02
$$ 1.000000E02, 1.287722E02
$$ 1.000000E02, 1.309214E02
$$ 1.000000E02, 1.330814E02
$$ 1.000000E02, 1.352521E02
$$ 1.000000E02, 1.374338E02
$$ 1.000000E02, 1.396261E02
$$ 1.000000E02, 1.418293E02
$$ 1.000000E02, 1.440433E02
$$ 1.000000E02, 1.462681E02
$$ 1.000000E02, 1.485038E02
$$ 1.000000E02, 1.507502E02
$$ 1.000000E02, 1.530073E02
$$ 1.000000E02, 1.552753E02
$$ 1.000000E02, 1.575542E02
$$ 1.000000E02, 1.598437E02
$$ 1.000000E02, 1.621441E02
$$ 1.000000E02, 1.644553E02
$$ 1.000000E02, 1.667773E02
$$ 1.000000E02, 1.691101E02
$$ 1.000000E02, 1.714538E02
$$ 1.000000E02, 1.738082E02
$$ 1.000000E02, 1.761733E02
$$ 1.000000E02, 1.785494E02
$$ 1.000000E02, 1.809362E02
$$ 1.000000E02, 1.833337E02
$$ 1.000000E02, 1.857421E02
$$ 1.000000E02, 1.881613E02
$$ 1.000000E02, 1.905913E02
$$ 1.000000E02, 1.930322E02
$$ 1.000000E02, 1.954838E02
$$ 1.000000E02, 1.979462E02
$$ 1.000000E02, 2.004194E02
$$ 1.000000E02, 2.029034E02
$$ 1.000000E02, 2.053982E02
$$ 1.000000E02, 2.079038E02
$$ 1.000000E02, 2.104201E02
$$ 1.000000E02, 2.129473E02
$$ 1.000000E02, 2.154853E02
$$ 1.000000E02, 2.180342E02
$$ 1.000000E02, 2.205938E02
$$ 1.000000E02, 2.231642E02
$$ 1.000000E02, 2.257454E02
$$ 1.000000E02, 2.283374E02
$$ 1.000000E02, 2.309401E02
$$ 1.000000E02, 2.335537E02
$$ 1.000000E02, 2.361781E02
$$ 1.000000E02, 2.388133E02
$$ 1.000000E02, 2.414593E02
$$ 1.000000E02, 2.441161E02
$$ 1.000000E02, 2.467838E02
$$ 1.000000E02, 2.494621E02
$$ 1.000000E02, 2.521513E02
$$ 1.000000E02, 2.548513E02
$$ 1.000000E02, 2.575622E02
$$ 1.000000E02, 2.602838E02
$$ 1.000000E02, 2.630161E02
$$ 1.000000E02, 2.657594E02
$$ 1.000000E02, 2.685133E02
$$ 1.000000E02, 2.712782E02
$$ 1.000000E02, 2.740537E02
$$ 1.000000E02, 2.768402E02
$$ 1.000000E02, 2.796373E02
$$ 1.000000E02, 2.824453E02
$$ 1.000000E02, 2.852642E02
$$ 1.000000E02, 2.880937E02
$$ 1.000000E02, 2.909342E02
$$ 1.000000E02, 2.937853E02
$$ 1.000000E02, 2.966474E02
$$ 1.000000E02, 2.995201E02
$$ 1.000000E02, 3.024038E02
$$ 1.000000E02, 3.052981E02
$$ 1.000000E02, 3.082033E02
$$ 1.000000E02, 3.111193E02
$$ 1.000000E02, 3.140461E02
$$ 1.000000E02, 3.169838E02
$$ 1.000000E02, 3.199322E02
$$ 1.000000E02, 3.228914E02
$$ 1.000000E02, 3.258613E02
$$ 1.000000E02, 3.288422E02
$$ 1.000000E02, 3.318337E02
$$ 1.000000E02, 3.348362E02
$$ 1.000000E02, 3.378493E02
$$ 1.000000E02, 3.408734E02
$$ 1.000000E02, 3.439082E02
$$ 1.000000E02, 3.469537E02
$$ 1.000000E02, 3.500102E02
$$ 1.000000E02, 3.530773E02
$$ 1.000000E02, 3.561554E02
$$ 1.000000E02, 3.592442E02
$$ 1.000000E02, 2.343750E00
$$ 1.000000E02, 5.454150E00
$$ 1.000000E02, 8.575350E00
$$ 1.000000E02, 1.170735E01
$$ 1.000000E02, 1.485015E01
$$ 1.000000E02, 1.800375E01
$$ 1.000000E02, 2.116815E01
$$ 1.000000E02, 2.434335E01
$$ 1.000000E02, 2.752935E01
$$ 1.000000E02, 3.072615E01
$$ 1.000000E02, 3.393375E01
$$ 1.000000E02, 3.715215E01
$$ 1.000000E02, 4.038135E01
$$ 1.000000E02, 4.362135E01
$$ 9.999688E01, 4.687215E01
$$ 9.998754E01, 5.013375E01
$$ 9.997196E01, 5.340615E01
$$ 9.995016E01, 5.668935E01
$$ 9.992213E01, 5.998335E01
$$ 9.988787E01, 6.328815E01
$$ 9.984739E01, 6.660375E01
$$ 9.980069E01, 6.993015E01
$$ 9.974776E01, 7.326735E01
$$ 9.968863E01, 7.661535E01
$$ 9.962328E01, 7.997415E01
$$ 9.955173E01, 8.334375E01
$$ 9.947397E01, 8.672415E01
$$ 9.939002E01, 9.011535E01
$$ 9.929987E01, 9.351735E01
$$ 9.920354E01, 9.693015E01
$$ 9.910102E01, 1.003537E02
$$ 9.899233E01, 1.037881E02
$$ 9.887747E01, 1.072333E02
$$ 9.875646E01, 1.106893E02
$$ 9.862928E01, 1.141562E02
$$ 9.849597E01, 1.176337E02
$$ 9.835651E01, 1.211222E02
$$ 9.821093E01, 1.246213E02
$$ 9.805923E01, 1.281314E02
$$ 9.790142E01, 1.316521E02
$$ 9.773751E01, 1.351837E02
$$ 9.756751E01, 1.387261E02
$$ 9.739143E01, 1.422794E02
$$ 9.720928E01, 1.458434E02
$$ 9.702108E01, 1.494181E02
$$ 9.682683E01, 1.530037E02
$$ 9.662655E01, 1.566001E02
$$ 9.642025E01, 1.602074E02
$$ 9.620794E01, 1.638253E02
$$ 9.598963E01, 1.674542E02
$$ 9.576535E01, 1.710937E02
$$ 9.553510E01, 1.747442E02
$$ 9.529889E01, 1.784053E02
$$ 9.505675E01, 1.820774E02
$$ 9.480868E01, 1.857602E02
$$ 9.455471E01, 1.894537E02
$$ 9.429485E01, 1.931581E02
$$ 9.402911E01, 1.968733E02
$$ 9.375751E01, 2.005993E02
$$ 9.348008E01, 2.043361E02
$$ 9.319681E01, 2.080838E02
$$ 9.290774E01, 2.118421E02
$$ 9.261288E01, 2.156114E02
$$ 9.231226E01, 2.193914E02
$$ 9.200588E01, 2.231821E02
$$ 9.169376E01, 2.269838E02
$$ 9.137594E01, 2.307962E02
$$ 9.105242E01, 2.346193E02
$$ 9.072323E01, 2.384533E02
$$ 9.038838E01, 2.422981E02
$$ 9.004790E01, 2.461537E02
$$ 8.970182E01, 2.500202E02
$$ 8.935014E01, 2.538973E02
$$ 8.899290E01, 2.577854E02
$$ 8.863011E01, 2.616842E02
$$ 8.826180E01, 2.655938E02
$$ 8.788799E01, 2.695142E02
$$ 8.750870E01, 2.734453E02
$$ 8.712396E01, 2.773873E02
$$ 8.673380E01, 2.813401E02
$$ 8.633823E01, 2.853038E02
$$ 8.593728E01, 2.892781E02
$$ 8.553097E01, 2.932634E02
$$ 8.511934E01, 2.972593E02
$$ 8.470240E01, 3.012662E02
$$ 8.428019E01, 3.052837E02
$$ 8.385272E01, 3.093122E02
$$ 8.342003E01, 3.133514E02
$$ 8.298215E01, 3.174013E02
$$ 8.253909E01, 3.214621E02
$$ 8.209089E01, 3.255337E02
$$ 8.163757E01, 3.296161E02
$$ 8.117917E01, 3.337094E02
$$ 8.071571E01, 3.378133E02
$$ 8.024722E01, 3.419282E02
$$ 7.977373E01, 3.460537E02
$$ 7.929527E01, 3.501902E02
$$ 7.881187E01, 3.543373E02
$$ 7.832356E01, 3.584954E02
$$ 7.783037E01, 2.664150E00
$$ 7.733233E01, 6.843750E00
$$ 7.682948E01, 1.103415E01
$$ 7.632183E01, 1.523535E01
$$ 7.580943E01, 1.944735E01
$$ 7.529231E01, 2.367015E01
$$ 7.477049E01, 2.790375E01
$$ 7.424402E01, 3.214815E01
$$ 7.371292E01, 3.640335E01
$$ 7.317723E01, 4.066935E01
$$ 7.263698E01, 4.494615E01
$$ 7.209220E01, 4.923375E01
$$ 7.154293E01, 5.353215E01
$$ 7.098920E01, 5.784135E01
$$ 7.043105E01, 6.216135E01
$$ 6.986851E01, 6.649215E01
$$ 6.930162E01, 7.083375E01
$$ 6.873041E01, 7.518615E01
$$ 6.815492E01, 7.954935E01
$$ 6.757518E01, 8.392335E01
$$ 6.699124E01, 8.830815E01
$$ 6.640311E01, 9.270375E01
$$ 6.581085E01, 9.711015E01
$$ 6.521449E01, 1.015274E02
$$ 6.461407E01, 1.059553E02
$$ 6.400962E01, 1.103941E02
$$ 6.340118E01, 1.148438E02
$$ 6.278880E01, 1.193041E02
$$ 6.217250E01, 1.237754E02
$$ 6.155232E01, 1.282573E02
$$ 6.092832E01, 1.327501E02
$$ 6.030051E01, 1.372537E02
$$ 5.966895E01, 1.417682E02
$$ 5.903367E01, 1.462934E02
$$ 5.839471E01, 1.508293E02
$$ 5.775212E01, 1.553761E02
$$ 5.710592E01, 1.599337E02
$$ 5.645617E01, 1.645021E02
$$ 5.580290E01, 1.690813E02
$$ 5.514615E01, 1.736713E02
$$ 5.448597E01, 1.782721E02
$$ 5.382239E01, 1.828837E02
$$ 5.315546E01, 1.875062E02
$$ 5.248522E01, 1.921393E02
$$ 5.181170E01, 1.967834E02
$$ 5.113496E01, 2.014381E02
$$ 5.045503E01, 2.061038E02
$$ 4.977196E01, 2.107801E02
$$ 4.908579E01, 2.154674E02
$$ 4.839656E01, 2.201653E02
$$ 4.770431E01, 2.248741E02
$$ 4.700910E01, 2.295937E02
$$ 4.631095E01, 2.343241E02
$$ 4.560992E01, 2.390654E02
$$ 4.490604E01, 2.438174E02
$$ 4.419937E01, 2.485802E02
$$ 4.348994E01, 2.533537E02
$$ 4.277781E01, 2.581382E02
$$ 4.206301E01, 2.629333E02
$$ 4.134558E01, 2.677394E02
$$ 4.062559E01, 2.725561E02
$$ 3.990306E01, 2.773837E02
$$ 3.917804E01, 2.822221E02
$$ 3.845058E01, 2.870713E02
$$ 3.772073E01, 2.919314E02
$$ 3.698853E01, 2.968021E02
$$ 3.625402E01, 3.016837E02
$$ 3.551726E01, 3.065761E02
$$ 3.477828E01, 3.114793E02
$$ 3.403713E01, 3.163933E02
$$ 3.329386E01, 3.213182E02
$$ 3.254852E01, 3.262537E02
$$ 3.180115E01, 3.312001E02
$$ 3.105180E01, 3.361573E02
$$ 3.030052E01, 3.411253E02
$$ 2.954734E01, 3.461042E02
$$ 2.879233E01, 3.510937E02
$$ 2.803552E01, 3.560941E02
$$ 2.727697E01, 1.105350E00
$$ 2.651671E01, 6.127350E00
$$ 2.575481E01, 1.116015E01
$$ 2.499130E01, 1.620375E01
$$ 2.422623E01, 2.125815E01
$$ 2.345965E01, 2.632335E01
$$ 2.269161E01, 3.139935E01
$$ 2.192216E01, 3.648615E01
$$ 2.115134E01, 4.158375E01
$$ 2.037920E01, 4.669215E01
$$ 1.960579E01, 5.181135E01
$$ 1.883117E01, 5.694135E01
$$ 1.805537E01, 6.208215E01
$$ 1.727844E01, 6.723375E01
$$ 1.650044E01, 7.239615E01
$$ 1.572140E01, 7.756935E01
$$ 1.494139E01, 8.275335E01
$$ 1.416045E01, 8.794815E01
$$ 1.337863E01, 9.315375E01
$$ 1.259597E01, 9.837015E01
$$ 1.181253E01, 1.035973E02
$$ 1.102835E01, 1.088353E02
$$ 1.024348E01, 1.140841E02
$$ 9.457981E00, 1.193437E02
$$ 8.671888E00, 1.246142E02
$$ 7.885255E00, 1.298954E02
$$ 7.098130E00, 1.351873E02
$$ 6.310563E00, 1.404901E02
$$ 5.522603E00, 1.458037E02
$$ 4.734299E00, 1.511282E02
$$ 3.945700E00, 1.564633E02
$$ 3.156855E00, 1.618093E02
$$ 2.367813E00, 1.671662E02
$$ 1.578624E00, 1.725338E02
$$ 7.893367E-01, 1.779122E02
$$ 0.000000E00, 1.833013E02
$$ ##END
##$RELAX= 
##$BRUKER FILE EXP=pulseprogram
$$ # 1 "/opt/topspin3.5pl7/exp/stan/nmr/lists/pp/deptsp135"
$$ ;deptsp135
$$ ;avance-version (14/10/09)
$$ ;dept polarization transfer
$$ ;with decoupling during acquisition
$$ ;using shaped pulse for 180degree pulse on f1 - channel
$$ ;with 135 degree read pulse to give XH, XH3 positive and XH2 negative
$$ ;
$$ ;$CLASS=HighRes
$$ ;$DIM=1D
$$ ;$TYPE=
$$ ;$SUBTYPE=
$$ ;$COMMENT=
$$ ;$RECOMMEND=y
$$ 
$$ 
$$ # 1 "/opt/topspin3.5pl7/exp/stan/nmr/lists/pp/Avance.incl" 1
$$ ;Avance3.incl
$$ ;   for AV III
$$ ;
$$ ;avance-version (13/06/17)
$$ ;
$$ ;$CLASS=HighRes Incl
$$ ;$COMMENT=
$$ # 169 "/opt/topspin3.5pl7/exp/stan/nmr/lists/pp/Avance.incl"
$$ ;$Id: Avance3.incl,v 1.10.2.2 2013/08/30 09:43:33 ber Exp $
$$ # 16 "/opt/topspin3.5pl7/exp/stan/nmr/lists/pp/deptsp135" 2
$$ 
$$ # 1 "/opt/topspin3.5pl7/exp/stan/nmr/lists/pp/Delay.incl" 1
$$ ;Delay.incl  -  include file for commonly used delays
$$ ;
$$ ;version (13/08/07)
$$ ;
$$ ;$CLASS=HighRes Incl
$$ ;$COMMENT=
$$ 
$$ # 9 "/opt/topspin3.5pl7/exp/stan/nmr/lists/pp/Delay.incl"
$$ ;general delays
$$ 
$$ define delay DELTA
$$ define delay DELTA1
$$ define delay DELTA2
$$ define delay DELTA3
$$ define delay DELTA4
$$ define delay DELTA5
$$ define delay DELTA6
$$ define delay DELTA7
$$ define delay DELTA8
$$ define delay DELTA9
$$ define delay DELTA10
$$ define delay DELTA11
$$ define delay DELTA12
$$ define delay DELTA13
$$ define delay DELTA14
$$ define delay DELTA15
$$ define delay DELTA16
$$ 
$$ define delay TAU
$$ define delay TAU1
$$ define delay TAU2
$$ define delay TAU3
$$ define delay TAU4
$$ define delay TAU5
$$ define delay TAU6
$$ define delay TAU7
$$ define delay TAU8
$$ define delay TAU9
$$ # 40 "/opt/topspin3.5pl7/exp/stan/nmr/lists/pp/Delay.incl"
$$ define delay INCR1
$$ define delay INCR2
$$ define delay INCR3
$$ define delay INCR4
$$ define delay INCR5
$$ define delay INCR6
$$ 
$$ 
$$ ;delays for centering pulses
$$ # 50 "/opt/topspin3.5pl7/exp/stan/nmr/lists/pp/Delay.incl"
$$ define delay CEN_HN1
$$ define delay CEN_HN2
$$ define delay CEN_HN3
$$ define delay CEN_HC1
$$ define delay CEN_HC2
$$ define delay CEN_HC3
$$ define delay CEN_HC4
$$ define delay CEN_HP1
$$ define delay CEN_HP2
$$ define delay CEN_CN1
$$ define delay CEN_CN2
$$ define delay CEN_CN3
$$ define delay CEN_CN4
$$ define delay CEN_CP1
$$ define delay CEN_CP2
$$ 
$$ 
$$ ;loop counters
$$ # 69 "/opt/topspin3.5pl7/exp/stan/nmr/lists/pp/Delay.incl"
$$ define loopcounter COUNTER
$$ define loopcounter SCALEF
$$ define loopcounter FACTOR1
$$ define loopcounter FACTOR2
$$ define loopcounter FACTOR3
$$ define loopcounter FACTOR4
$$ define loopcounter FACTOR5
$$ define loopcounter FACTOR6
$$ 
$$ 
$$ # 80 "/opt/topspin3.5pl7/exp/stan/nmr/lists/pp/Delay.incl"
$$ ;$Id: Delay.incl,v 1.14.2.1 2013/08/30 09:43:33 ber Exp $
$$ # 17 "/opt/topspin3.5pl7/exp/stan/nmr/lists/pp/deptsp135" 2
$$ 
$$ 
$$ # 20 "/opt/topspin3.5pl7/exp/stan/nmr/lists/pp/deptsp135"
$$ "p4=p3*2"
$$ "d2=1s/(cnst2*2)"
$$ "d12=20u"
$$ 
$$ 
$$ "DELTA=p1*4/PI"
$$ # 28 "/opt/topspin3.5pl7/exp/stan/nmr/lists/pp/deptsp135"
$$ "acqt0=-p1*2/PI"
$$ 
$$ 
$$ # 1 "mc_line 31 file /opt/topspin3.5pl7/exp/stan/nmr/lists/pp/deptsp135 exp. def. part of mc cmd. before ze"
$$ ; dimension 1D; AQ_mode 
$$ define delay MCWRK
$$ define delay MCREST
$$ "MCREST = 30m - 30m"
$$ "MCWRK = 0.333333*30m"
$$ 
$$     dccorr
$$ # 31 "/opt/topspin3.5pl7/exp/stan/nmr/lists/pp/deptsp135"
$$ 1 ze
$$ # 1 "mc_line 31 file /opt/topspin3.5pl7/exp/stan/nmr/lists/pp/deptsp135 exp. def. of mc cmd. after ze"
$$ # 32 "/opt/topspin3.5pl7/exp/stan/nmr/lists/pp/deptsp135"
$$ # 1 "mc_line 32 file /opt/topspin3.5pl7/exp/stan/nmr/lists/pp/deptsp135 exp. start label for mc cmd."
$$ 2 MCWRK  * 2 do:f2
$$ LBLF0, MCWRK 
$$   MCREST
$$ # 33 "/opt/topspin3.5pl7/exp/stan/nmr/lists/pp/deptsp135"
$$   d1
$$   d12 pl1:f1 pl2:f2
$$   (p3 ph1):f2
$$   d2
$$   (p4 ph2):f2 
$$   (p1 ph4):f1
$$   d2 pl0:f1
$$   (p3*1.5 ph3):f2 (p13:sp5 ph5):f1
$$   d2
$$   DELTA pl12:f2
$$   go=2 ph31 cpd2:f2
$$ # 1 "mc_line 44 file /opt/topspin3.5pl7/exp/stan/nmr/lists/pp/deptsp135 exp. mc cmd. in line"
$$   MCWRK do:f2 wr #0
$$   MCWRK zd
$$   lo to LBLF0 times td0
$$ 
$$ # 45 "/opt/topspin3.5pl7/exp/stan/nmr/lists/pp/deptsp135"
$$ exit
$$ # 48 "/opt/topspin3.5pl7/exp/stan/nmr/lists/pp/deptsp135"
$$ ph1=0
$$ ph2=0 2 1 3
$$ ph3=1 1 1 1 3 3 3 3
$$ ph4=0 0 0 0 0 0 0 0 1 1 1 1 1 1 1 1
$$     2 2 2 2 2 2 2 2 3 3 3 3 3 3 3 3
$$ ph5=0 2 0 2 0 2 0 2 1 3 1 3 1 3 1 3
$$ ph31=1 1 3 3 3 3 1 1 2 2 0 0 0 0 2 2
$$      3 3 1 1 1 1 3 3 0 0 2 2 2 2 0 0
$$ 
$$ 
$$ ;pl0 : 0W
$$ ;pl1 : f1 channel - power level for pulse (default)
$$ ;pl2 : f2 channel - power level for pulse (default)
$$ ;pl12: f2 channel - power level for CPD/BB decoupling
$$ ;sp5: f1 channel - shaped pulse (180degree)
$$ ;spnam5: Crp60comp.4
$$ ;p1 : f1 channel -  90 degree high power pulse
$$ ;p3 : f2 channel -  90 degree high power pulse
$$ ;p4 : f2 channel - 180 degree high power pulse
$$ ;p13: f1 channel - 180 degree shaped pulse
$$ ;     = 2msec for Crp60comp.4
$$ ;d1 : relaxation delay; 1-5 * T1
$$ ;d2 : 1/(2J(XH))
$$ ;d12: delay for power switching                      [20 usec]
$$ ;cnst2: = J(XH)
$$ ;ns: 4 * n, total number of scans: NS * TD0
$$ ;ds: 8
$$ ;cpd2: decoupling according to sequence defined by cpdprg2
$$ ;pcpd2: f2 channel - 90 degree pulse for decoupling sequence
$$ # 79 "/opt/topspin3.5pl7/exp/stan/nmr/lists/pp/deptsp135"
$$ ;DELTA: delay to compensate for chemical shift evolution during
$$ ;          RF pulse in order to give same phase correction as
$$ ;          for reference 1D spectrum
$$ 
$$ 
$$ # 85 "/opt/topspin3.5pl7/exp/stan/nmr/lists/pp/deptsp135"
$$ ;$Id: deptsp135,v 1.13.2.1 2014/10/10 09:21:10 ber Exp $
##$RELAX= 
##$BRUKER FILE EXP=shimvalues
$$ # Mon May 19 12:53:46 2025
$$ #$$PROBEIDENTIFIER=Z800701_0081
$$ #$$PROBENAME=PA BBO 500S2 BB-H-D-05 Z
$$ #$$SHIMID=292722
$$ #
$$ # Active Shim Gradients
$$ #
$$ Z           		376             
$$ Z2          		2143            
$$ Z3          		-1000           
$$ Z4          		3415            
$$ Z5          		-1716           
$$ Z6          		2909            
$$ Z7          		-973            
$$ Z8          		0               
$$ X           		1779            
$$ XZ          		-4951           
$$ XZ2         		1010            
$$ XZ3         		-6355           
$$ XZ4         		1379            
$$ XZ5         		10013           
$$ Y           		4193            
$$ YZ          		-10113          
$$ YZ2         		-4173           
$$ YZ3         		3481            
$$ YZ4         		-66             
$$ YZ5         		-12010          
$$ XY          		2927            
$$ XYZ         		-8055           
$$ XYZ2        		-6939           
$$ XYZ3        		-4244           
$$ XYZ4        		-2739           
$$ XYZ5        		0               
$$ (X2-Y2)     		11678           
$$ (X2-Y2)Z    		-10953          
$$ (X2-Y2)Z2   		1259            
$$ (X2-Y2)Z3   		6854            
$$ (X2-Y2)Z4   		1240            
$$ (X2-Y2)Z5   		0               
$$ X3          		2375            
$$ X3Z         		-6144           
$$ Y3          		4207            
$$ Y3Z         		6975            
$$ #
$$ # Lock Parameter
$$ #
$$ FIELD		5539.395
$$ LOCKPHASE		8.270   
$$ LOCKPOWER		-39.000 
$$ LOCKGAIN		118.200 
$$ LOCKDC		-75.000 
$$ LOCKSHIFT		4.700   
$$ LOOPGAIN		5.000   
$$ LOOPTIME		0.250   
$$ LOOPFILTER		500.000 
$$ #
$$ IEEE64_VERSION_CODE 1
$$ #
$$ # Shim currents 
$$ #
$$ SHIM_SETTING [1 ]  -167.81820967   
$$ SHIM_SETTING [2 ]  2033.85932766   
$$ SHIM_SETTING [3 ]  -1897.30817025  
$$ SHIM_SETTING [4 ]  -5341.62241238  
$$ SHIM_SETTING [5 ]  -3.15161115     
$$ SHIM_SETTING [6 ]  3298.16456322   
$$ SHIM_SETTING [7 ]  4539.71387591   
$$ SHIM_SETTING [8 ]  9957.38087744   
$$ SHIM_SETTING [9 ]  1602.73075734   
$$ SHIM_SETTING [10]  3768.10100355   
$$ SHIM_SETTING [11]  0.00000000      
$$ SHIM_SETTING [12]  -2767.60200000  
$$ SHIM_SETTING [13]  11181.60200000  
$$ SHIM_SETTING [14]  4131.70300000   
$$ SHIM_SETTING [15]  -3766.45806260  
$$ SHIM_SETTING [16]  10676.69904745  
$$ SHIM_SETTING [17]  5967.70409001   
$$ SHIM_SETTING [18]  -6472.01881215  
$$ SHIM_SETTING [19]  6240.92301527   
$$ SHIM_SETTING [20]  -3047.95052200  
$$ SHIM_SETTING [21]  3498.87400000   
$$ SHIM_SETTING [22]  15280.36800000  
$$ SHIM_SETTING [23]  -2539.12700000  
$$ SHIM_SETTING [24]  21570.70100000  
$$ SHIM_SETTING [25]  9539.37000000   
$$ SHIM_SETTING [26]  727.49000000    
$$ SHIM_SETTING [27]  -1827.95400000  
$$ SHIM_SETTING [28]  -11560.10469566 
$$ SHIM_SETTING [29]  -5065.22500000  
$$ SHIM_SETTING [30]  7022.84400000   
$$ SHIM_SETTING [31]  -4054.40317901  
$$ SHIM_SETTING [32]  10707.07605421  
$$ SHIM_SETTING [33]  -17506.44300000 
$$ SHIM_SETTING [34]  4873.22900000   
$$ SHIM_SETTING [35]  7752.75800000   
$$ SHIM_SETTING [36]  13742.15300000  
$$ SHIM_SETTING [37]  14542.55788911  
$$ SHIM_SETTING [38]  -8138.62860474  
$$ SHIM_SETTING [39]  17961.88763697  
$$ SHIM_SETTING [40]  0.00000000      
##$RELAX= 
##$BRUKER FILE EXP=uxnmr.par
$$ ##TITLE= Parameter file, TopSpin 3.5 pl 7
$$ ##JCAMPDX= 5.0
$$ ##DATATYPE= Parameter Values
$$ ##NPOINTS= 104	$$ modification sequence number
$$ ##ORIGIN= Bruker BioSpin GmbH
$$ ##OWNER= nmrsu
$$ $$ 2025-04-09 09:16:50.742 +0200  aci@chem-nmr500
$$ $$ /opt/topspin3.5pl7/conf/instr/spect/uxnmr.par
$$ $$ process /opt/topspin3.5pl7/prog/mod/cfserverav3
$$ ##$ACB= 0
$$ ##$ACBTAT= (0..23)
$$ 0 72 88 50 50 0 0 0 0 0 0 0 0 0 0 0 0 0 0 0 0 0 0 0
$$ ##$ACBTBA= (0..23)
$$ 0 0 0 0 0 0 0 0 0 0 0 0 0 0 0 0 0 0 0 0 0 0 0 0
$$ ##$ACBTBLK= (0..23)
$$ 0 34 33 36 1 0 0 0 0 0 0 0 0 0 0 0 0 0 0 0 0 0 0 0
$$ ##$ACBTCTL= (0..23)
$$ 0 6 6 6 6 0 0 0 0 0 0 0 0 0 0 0 0 0 0 0 0 0 0 0
$$ ##$ACBTDI= (0..23)
$$ 0 -1779670023 -1779670023 -1779670023 -1779670252 0 0 0 0 0 0 0 0 0 0 0
$$ 0 0 0 0 0 0 0 0
$$ ##$ACBTDM= (0..23)
$$ 0 25 6 10 10 0 0 0 0 0 0 0 0 0 0 0 0 0 0 0 0 0 0 0
$$ ##$ACBTFHI= (0..23)
$$ 0 600 365 92 78 0 0 0 0 0 0 0 0 0 0 0 0 0 0 0 0 0 0 0
$$ ##$ACBTFL= (0..23)
$$ 0 248 248 88 8 0 0 0 0 0 0 0 0 0 0 0 0 0 0 0 0 0 0 0
$$ ##$ACBTFLO= (0..23)
$$ 0 180 6 30 76 0 0 0 0 0 0 0 0 0 0 0 0 0 0 0 0 0 0 0
$$ ##$ACBTINP= (0..23)
$$ 0 2 1 4 0 0 0 0 0 0 0 0 0 0 0 0 0 0 0 0 0 0 0 0
$$ ##$ACBTOUT= (0..23)
$$ 0 1 2 3 1 0 0 0 0 0 0 0 0 0 0 0 0 0 0 0 0 0 0 0
$$ ##$ACBTPO= (0..23)
$$ 0 100000 500000 150000 5000 0 0 0 0 0 0 0 0 0 0 0 0 0 0 0 0 0 0 0
$$ ##$ACBTPW= (0..23)
$$ 0 100 60 5 1000 0 0 0 0 0 0 0 0 0 0 0 0 0 0 0 0 0 0 0
$$ ##$ACBTSB= (0..23)
$$ 0 103 99 16 0 0 0 0 0 0 0 0 0 0 0 0 0 0 0 0 0 0 0 0
$$ ##$ACBTSDT= (0..23)
$$ 0 2 2 2 2 0 0 0 0 0 0 0 0 0 0 0 0 0 0 0 0 0 0 0
$$ ##$ACBTY= <no>
$$ ##$AMPDFLT= no
$$ ##$AQSBDCH= (0..95)
$$ 0 0 0 0 0 0 0 0 0 0 255 255 255 255 255 255 255 255 255 255 255 255 255
$$ 255 255 255 255 255 255 255 255 255 255 255 255 255 255 255 255 255 255
$$ 255 255 255 255 255 255 255 255 255 255 255 255 255 255 255 255 255 255
$$ 255 255 255 255 255 255 255 255 255 255 255 255 255 255 255 255 255 255
$$ 255 255 255 255 255 255 255 255 255 255 255 255 255 255 255 255 255 255
$$ 255
$$ ##$AQSBDHW= (0..95)
$$ 5 1 0 0 0 0 0 0 0 0 255 255 255 255 255 255 255 255 255 255 255 255 255
$$ 255 255 255 255 255 255 255 255 255 255 255 255 255 255 255 255 255 255
$$ 255 255 255 255 255 255 255 255 255 255 255 255 255 255 255 255 255 255
$$ 255 255 255 255 255 255 255 255 255 255 255 255 255 255 255 255 255 255
$$ 255 255 255 255 255 255 255 255 255 255 255 255 255 255 255 255 255 255
$$ 255
$$ ##$AQSBDID= (0..95)
$$ 82 88 83 83 83 83 86 86 66 66 255 255 255 255 255 255 255 255 255 255 255
$$ 255 255 255 255 255 255 255 255 255 255 255 255 255 255 255 255 255 255
$$ 255 255 255 255 255 255 255 255 255 255 255 255 255 255 255 255 255 255
$$ 255 255 255 255 255 255 255 255 255 255 255 255 255 255 255 255 255 255
$$ 255 255 255 255 255 255 255 255 255 255 255 255 255 255 255 255 255 255
$$ 255 255 255
$$ ##$AQSBDNO= (0..95)
$$ 1 1 1 2 3 4 1 2 1 1 255 255 255 255 255 255 255 255 255 255 255 255 255
$$ 255 255 255 255 255 255 255 255 255 255 255 255 255 255 255 255 255 255
$$ 255 255 255 255 255 255 255 255 255 255 255 255 255 255 255 255 255 255
$$ 255 255 255 255 255 255 255 255 255 255 255 255 255 255 255 255 255 255
$$ 255 255 255 255 255 255 255 255 255 255 255 255 255 255 255 255 255 255
$$ 255
$$ ##$AQSBDSL= (0..95)
$$ 2 3 4 4 5 5 13 14 255 1 255 255 255 255 255 255 255 255 255 255 255 255
$$ 255 255 255 255 255 255 255 255 255 255 255 255 255 255 255 255 255 255
$$ 255 255 255 255 255 255 255 255 255 255 255 255 255 255 255 255 255 255
$$ 255 255 255 255 255 255 255 255 255 255 255 255 255 255 255 255 255 255
$$ 255 255 255 255 255 255 255 255 255 255 255 255 255 255 255 255 255 255
$$ 255 255
$$ ##$AQSBDTY= (0..95)
$$ 67 214 50 50 50 50 147 145 216 7 255 255 255 255 255 255 255 255 255 255
$$ 255 255 255 255 255 255 255 255 255 255 255 255 255 255 255 255 255 255
$$ 255 255 255 255 255 255 255 255 255 255 255 255 255 255 255 255 255 255
$$ 255 255 255 255 255 255 255 255 255 255 255 255 255 255 255 255 255 255
$$ 255 255 255 255 255 255 255 255 255 255 255 255 255 255 255 255 255 255
$$ 255 255 255 255
$$ ##$AQSBUAD= (0..95)
$$ 16 52 36 37 38 39 160 161 32 32 255 255 255 255 255 255 255 255 255 255
$$ 255 255 255 255 255 255 255 255 255 255 255 255 255 255 255 255 255 255
$$ 255 255 255 255 255 255 255 255 255 255 255 255 255 255 255 255 255 255
$$ 255 255 255 255 255 255 255 255 255 255 255 255 255 255 255 255 255 255
$$ 255 255 255 255 255 255 255 255 255 255 255 255 255 255 255 255 255 255
$$ 255 255 255 255
$$ ##$AQSECL= (0..95)
$$ 0 2 2 2 2 2 0 1 1 255 255 255 255 255 255 255 255 255 255 255 255 255 255
$$ 255 255 255 255 255 255 255 255 255 255 255 255 255 255 255 255 255 255
$$ 255 255 255 255 255 255 255 255 255 255 255 255 255 255 255 255 255 255
$$ 255 255 255 255 255 255 255 255 255 255 255 255 255 255 255 255 255 255
$$ 255 255 255 255 255 255 255 255 255 255 255 255 255 255 255 255 255 255
$$ 255
$$ ##$AQSECLS= (0..95)
$$ 2 0 2 2 2 2 1 2 1 255 255 255 255 255 255 255 255 255 255 255 255 255 255
$$ 255 255 255 255 255 255 255 255 255 255 255 255 255 255 255 255 255 255
$$ 255 255 255 255 255 255 255 255 255 255 255 255 255 255 255 255 255 255
$$ 255 255 255 255 255 255 255 255 255 255 255 255 255 255 255 255 255 255
$$ 255 255 255 255 255 255 255 255 255 255 255 255 255 255 255 255 255 255
$$ 255
$$ ##$AQSETH1= <no>
$$ ##$AQSETH2= <no>
$$ ##$AQSSPLT= no
$$ ##$ATT19F= (0..1)
$$ 0 0
$$ ##$ATT1H= (0..1)
$$ 0 0
$$ ##$ATT3H= (0..1)
$$ 0 0
$$ ##$ATTX= (0..1)
$$ 0 0
$$ ##$ATTY= (0..1)
$$ 0 0
$$ ##$ATTZ= (0..1)
$$ 0 0
$$ ##$BACSAIR= yes
$$ ##$BACSCAP= 0
$$ ##$BACSDEL= 1
$$ ##$BACSFCM= no
$$ ##$BACSOPT= <>
$$ ##$BACSTY= <no>
$$ ##$BARPTY= <no>
$$ ##$BFREQ= 500.25
$$ ##$BGAETH= (0..9)
$$ <no> <no> <no> <no> <no> <no> <no> <no> <no> <no>
$$ ##$BIRDS= yes
$$ ##$BMPC= 0
$$ ##$BMPCTY= <no>
$$ ##$BPSUTY= <no>
$$ ##$BSMS= 2
$$ ##$BSMS19FLock= no
$$ ##$BSMSETH= <149.236.99.20>
$$ ##$BSMSTY= <no>
$$ ##$BgaChFac2= (0..7)
$$ 0 0 0 0 0 0 0 0
$$ ##$BgaChMap= (0..7)
$$ 0 0 0 0 0 0 0 0
$$ ##$BgaChMaxv= (0..7)
$$ 0 0 0 0 0 0 0 0
$$ ##$BgaChRouting= (0..63)
$$ 0 0 0 0 0 0 0 0 0 0 0 0 0 0 0 0 0 0 0 0 0 0 0 0 0 0 0 0 0 0 0 0 0 0 0 0
$$ 0 0 0 0 0 0 0 0 0 0 0 0 0 0 0 0 0 0 0 0 0 0 0 0 0 0 0 0
$$ ##$BgaChShimMap= (0..7)
$$ 0 0 0 0 0 0 0 0
$$ ##$BgaChShimMaxv= (0..7)
$$ 0 0 0 0 0 0 0 0
$$ ##$Bla01Eth= <149.236.99.254>
$$ ##$Bla01Nam= <BLAXH2H500/100/150 E 200-600MHZ>
$$ ##$Bla01PN= <W1345099>
$$ ##$Bla01SN= <0190>
$$ ##$Bla02Eth= <149.236.99.20>
$$ ##$Bla02Nam= <BSMS/2 LOCK TRANSCEIVER 500>
$$ ##$Bla02PN= <Z109889>
$$ ##$Bla02SN= <00456>
$$ ##$Bla03Eth= <no>
$$ ##$Bla03Nam= <>
$$ ##$Bla03PN= <>
$$ ##$Bla03SN= <>
$$ ##$Bla04Eth= <no>
$$ ##$Bla04Nam= <>
$$ ##$Bla04PN= <>
$$ ##$Bla04SN= <>
$$ ##$Bla05Eth= <no>
$$ ##$Bla05Nam= <>
$$ ##$Bla05PN= <>
$$ ##$Bla05SN= <>
$$ ##$Bla06Eth= <no>
$$ ##$Bla06Nam= <>
$$ ##$Bla06PN= <>
$$ ##$Bla06SN= <>
$$ ##$Bla07Eth= <no>
$$ ##$Bla07Nam= <>
$$ ##$Bla07PN= <>
$$ ##$Bla07SN= <>
$$ ##$Bla08Eth= <no>
$$ ##$Bla08Nam= <>
$$ ##$Bla08PN= <>
$$ ##$Bla08SN= <>
$$ ##$BlaEth= (0..9)
$$ <149.236.99.249> <149.236.99.20> <no> <no> <no> <no> <no> <no> <> <>
$$ ##$BlaNam= (0..9)
$$ <BLAXH2H500/100/150 E 200-600MHZ > <BSMS/2 LOCK TRANSCEIVER 500> <> <>
$$ <> <> <> <> <> <>
$$ ##$BlaPN= (0..9)
$$ <W1345099> <Z109889> <> <> <> <> <> <> <> <>
$$ ##$BlaSN= (0..9)
$$ <0187> <00456> <> <> <> <> <> <> <> <>
$$ ##$BsmsAuxEth= <no>
$$ ##$CFASMOD= (0..7)
$$ 1 1 1 1 1 1 1 1
$$ ##$CFASMUL= (0..7)
$$ 1 1 1 1 1 1 1 1
$$ ##$CNFTXDR= (0..7)
$$ 6 6 6 0 0 0 0 0
$$ ##$COMDIG2= 0
$$ ##$CPDBTY= <no>
$$ ##$CRCOTY= <no>
$$ ##$CSW1= (0..31)
$$ 2 2 2 4 0 0 0 0 0 0 0 0 0 0 0 0 0 0 0 0 0 0 0 0 0 0 0 0 0 0 0 0
$$ ##$CSW2= (0..31)
$$ 1 1 1 0 0 0 0 0 0 0 0 0 0 0 0 0 0 0 0 0 0 0 0 0 0 0 0 0 0 0 0 0
$$ ##$CSWNUM= (0..7)
$$ 4 1 0 0 0 0 0 0
$$ ##$ConsolePnSn= <>
$$ ##$CryoProAccPnSn= <>
$$ ##$Ctb1Eth= <no>
$$ ##$CubeEth= (0..7)
$$ <no> <no> <no> <no> <no> <no> <no> <no>
$$ ##$CustRegisterNo= <>
$$ ##$DATSTAT= no
$$ ##$DIGI140= (0..7)
$$ 0 0 0 0 0 0 0 0
$$ ##$DIGIB12= (0..7)
$$ 0 0 0 0 0 0 0 0
$$ ##$DIGIB16= (0..7)
$$ 0 0 0 0 0 0 0 0
$$ ##$DIGIFA= (0..7)
$$ 0 0 0 0 0 0 0 0
$$ ##$DIGIFOURIER= 0
$$ ##$DIGIHA= (0..7)
$$ 0 0 0 0 0 0 0 0
$$ ##$DIGIHAF= (0..7)
$$ 0 0 0 0 0 0 0 0
$$ ##$DIGIHRD= (0..7)
$$ 0 0 0 0 0 0 0 0
$$ ##$DIGIIA= (0..7)
$$ 0 0 0 0 0 0 0 0
$$ ##$DIGIO16= (0..7)
$$ 0 0 0 0 0 0 0 0
$$ ##$DIGISA= (0..7)
$$ 0 0 0 0 0 0 0 0
$$ ##$DIGISAF= (0..7)
$$ 0 0 0 0 0 0 0 0
$$ ##$DIGISL= (0..7)
$$ 0 0 0 0 0 0 0 0
$$ ##$DIGITYI= (0..7)
$$ 0 0 0 0 0 0 0 0
$$ ##$DIGITYP= (0..7)
$$ 0 0 0 0 0 0 0 0
$$ ##$DIGITZ= 0
$$ ##$DPPFAC= 1
$$ ##$DRMSETH= <no>
$$ ##$DRU= yes
$$ ##$DRUETH= (0..33)
$$ <no> <149.236.99.89> <no> <no> <no> <no> <no> <no> <no> <no> <no> <no>
$$ <no> <no> <no> <no> <no> <no> <no> <no> <no> <no> <no> <no> <no> <no> <no>
$$ <no> <no> <no> <no> <no> <no> <>
$$ ##$Description= <AVHD500>
$$ ##$DppType= 0
$$ ##$FCUMEM= (0..7)
$$ 16777208 16777208 16777208 0 0 0 0 0
$$ ##$FCUPAL= (0..7)
$$ 0 0 0 0 0 0 0 0
$$ ##$FGSVTY= <no>
$$ ##$FQMIX= 0
$$ ##$FUNCMOD= <>
$$ ##$FourPeriBdEth= <no>
$$ ##$FourShimBdEth= <no>
$$ ##$FourierPicsCon= no
$$ ##$GCUTYPE= 10
$$ ##$GCUTYPE2= 0
$$ ##$GPREDEL= 0
$$ ##$GPSCUTY= <no>
$$ ##$GRADRES= 5
$$ ##$GTUTY= <no>
$$ ##$GcConn= (0..1)
$$ 1 0
$$ ##$GradAmpGain= (0..7)
$$ 0 0 0 0 0 0 0 0
$$ ##$GradAmpMaxCurX= (0..7)
$$ 0 0 0 0 0 0 0 0
$$ ##$GradAmpMaxCurY= (0..7)
$$ 0 0 0 0 0 0 0 0
$$ ##$GradAmpMaxCurZ= (0..7)
$$ 9.99999904632568 0 0 0 0 0 0 0
$$ ##$GradAmpName= (0..7)
$$ <GAB in BSMS> <> <> <> <> <> <> <>
$$ ##$GradAmpPN= (0..7)
$$ <> <> <> <> <> <> <> <>
$$ ##$GradAmpSN= (0..7)
$$ <> <> <> <> <> <> <> <>
$$ ##$GradAmpType= (0..7)
$$ 2 0 0 0 0 0 0 0
$$ ##$GradPowClkCtrl= 0
$$ ##$GradPowClkTime= 0
$$ ##$GradPowImax= 0
$$ ##$GradPowType= 0
$$ ##$GradPowVmax= 0
$$ ##$HDIETH= (0..5)
$$ <> <no> <no> <no> <no> <>
$$ ##$HFAC= 3
$$ ##$HPCU= 0
$$ ##$HPCUTY= <no>
$$ ##$HPTXLP= (0..3)
$$ -1 -1 -1 -1
$$ ##$HPTXPI= (0..3)
$$ 0 0 0 0
$$ ##$HPTXPO= (0..3)
$$ 0 0 0 0
$$ ##$HPTXTY= (0..3)
$$ 0 0 0 0
$$ ##$HpprCoverType= 2
$$ ##$IF451= 0
$$ ##$IFREQ= 1
$$ ##$INJPTY= <no>
$$ ##$INTFPR= 0
$$ ##$IPSOETH= <149.236.99.253>
$$ ##$IPSOTYPE= 1
$$ ##$LDUETH= (0..0)
$$ <no>
$$ ##$LOCKCONF= <DLM>
$$ ##$LOCKTY= <no>
$$ ##$LOCSWID= 0
$$ ##$LOCSWIF= 0
$$ ##$LVDSSPLITETH= (0..5)
$$ <> <no> <no> <no> <no> <>
$$ ##$Location= <Universitaet Zuerich Irchel>
$$ ##$M2FAC= 0
$$ ##$MAS= 2
$$ ##$MASETIME= 10
$$ ##$MASITIME= 10
$$ ##$MASTY= <tty01>
$$ ##$MAS_CT= 10
$$ ##$MAS_SG= 0
$$ ##$MAS_TO= 0
$$ ##$MEMPRM= 0
$$ ##$MHFAC= 0
$$ ##$MXFAC= 0
$$ ##$MagnCoilPnSn= <>
$$ ##$MagnDewarPnSn= <>
$$ ##$MasEth= <no>
$$ ##$NAMPD= (0..17)
$$ <> <HPLNA 19F1H> <2H> <XBB19F 2HP> <> <> <> <> <> <> <> <> <> <> <> <>
$$ <> <>
$$ ##$NFCU= 3
$$ ##$NFRED= 0
$$ ##$NMRCH= 2
$$ ##$NMRMEM= 16384
$$ ##$NPSGU= 0
$$ ##$NRCU= 1
$$ ##$NROUT= 0
$$ ##$NSGU= 4
$$ ##$OrderNo= <10088890>
$$ ##$PAMPF1= (0..15)
$$ 75 56 96 64 0 0 0 0 0 0 0 0 0 0 0 0
$$ ##$PAMPF2= (0..15)
$$ 0 0 0 0 0 0 0 0 0 0 0 0 0 0 0 0
$$ ##$PAMPF3= (0..15)
$$ 0 0 0 0 0 0 0 0 0 0 0 0 0 0 0 0
$$ ##$PAMPF4= (0..15)
$$ 0 0 0 0 0 0 0 0 0 0 0 0 0 0 0 0
$$ ##$PAMPF5= (0..15)
$$ 0 0 0 0 0 0 0 0 0 0 0 0 0 0 0 0
$$ ##$PAMPF6= (0..15)
$$ 0 0 0 0 0 0 0 0 0 0 0 0 0 0 0 0
$$ ##$PAMPF7= (0..15)
$$ 0 0 0 0 0 0 0 0 0 0 0 0 0 0 0 0
$$ ##$PAMPF8= (0..15)
$$ 0 0 0 0 0 0 0 0 0 0 0 0 0 0 0 0
$$ ##$PH4= 0
$$ ##$PHF4TY= <no>
$$ ##$POWCHK= yes
$$ ##$PRAMD1= (0..7)
$$ 6 0 0 1610612736 0 0 0 0
$$ ##$PRAMD10= (0..7)
$$ 0 0 0 0 0 0 0 0
$$ ##$PRAMD11= (0..7)
$$ 0 0 0 0 0 0 0 0
$$ ##$PRAMD12= (0..7)
$$ 0 0 0 0 0 0 0 0
$$ ##$PRAMD13= (0..7)
$$ 0 0 0 0 0 0 0 0
$$ ##$PRAMD14= (0..7)
$$ 0 0 0 0 0 0 0 0
$$ ##$PRAMD15= (0..7)
$$ 0 0 0 0 0 0 0 0
$$ ##$PRAMD16= (0..7)
$$ 0 0 0 0 0 0 0 0
$$ ##$PRAMD17= (0..7)
$$ 0 0 0 0 0 0 0 0
$$ ##$PRAMD18= (0..7)
$$ 0 0 0 0 0 0 0 0
$$ ##$PRAMD19= (0..7)
$$ 0 0 0 0 0 0 0 0
$$ ##$PRAMD2= (0..7)
$$ 0 1048576 0 536870912 0 1048576 0 536870912
$$ ##$PRAMD20= (0..7)
$$ 0 0 0 0 0 0 0 0
$$ ##$PRAMD21= (0..7)
$$ 0 0 0 0 0 0 0 0
$$ ##$PRAMD3= (0..7)
$$ 2147483644 2147483647 2147483647 603979775 0 0 0 0
$$ ##$PRAMD4= (0..7)
$$ 0 0 0 0 0 0 0 0
$$ ##$PRAMD5= (0..7)
$$ 0 0 0 0 0 0 0 0
$$ ##$PRAMD6= (0..7)
$$ 0 0 0 0 0 0 0 0
$$ ##$PRAMD7= (0..7)
$$ 0 0 0 0 0 0 0 0
$$ ##$PRAMD8= (0..7)
$$ 0 0 0 0 0 0 0 0
$$ ##$PRAMD9= (0..7)
$$ 0 0 0 0 0 0 0 0
$$ ##$PRAMLED= (0..1)
$$ 0 0
$$ ##$PRAMP= (0..9)
$$ <> <tty10> <no> <no> <no> <no> <no> <no> <no> <>
$$ ##$PRAMPTP= 1
$$ ##$PREEMPTYPE= 0
$$ ##$PREPTY= <no>
$$ ##$PREREC= (0..15)
$$ 0 1 1 1 0 0 0 0 0 0 0 0 0 0 0 0
$$ ##$PRESHLD= 0
$$ ##$PTS160= -1
$$ ##$PTSA2X= (0..7)
$$ 0 0 0 0 0 0 0 0
$$ ##$PTSF2X= (0..7)
$$ 0 0 0 0 0 0 0 0
$$ ##$PTSFMX= (0..19)
$$ 649.9 649.9 649.9 649.9 0 0 0 0 0 0 0 0 0 0 0 0 0 0 0 0
$$ ##$PULCHK= no
$$ ##$PerMagATempSens= no
$$ ##$PerMagEth= <no>
$$ ##$PerMagFluxSens= no
$$ ##$PerMagMTempSens= no
$$ ##$PramDutyCycPerc= (0..15)
$$ 4 2 2 0 0 0 0 0 0 0 0 0 0 0 0 0
$$ ##$PramPeakPowerW= (0..15)
$$ 4000 500 500 0 0 0 0 0 0 0 0 0 0 0 0 0
$$ ##$PramPowerSwitch= (0..15)
$$ 0 0 0 0 0 0 0 0 0 0 0 0 0 0 0 0
$$ ##$PramPulWidthMs= (0..15)
$$ 10 0.1 0.1 0 0 0 0 0 0 0 0 0 0 0 0 0
$$ ##$PreampMod01PN= <Z103204>
$$ ##$PreampMod01SN= <00273>
$$ ##$PreampMod02PN= <Z003472>
$$ ##$PreampMod02SN= <01157>
$$ ##$PreampMod03PN= <Z102026>
$$ ##$PreampMod03SN= <00013>
$$ ##$PreampMod04PN= <>
$$ ##$PreampMod04SN= <>
$$ ##$PreampMod05PN= <>
$$ ##$PreampMod05SN= <>
$$ ##$PreampMod06PN= <>
$$ ##$PreampMod06SN= <>
$$ ##$PreampMod07PN= <>
$$ ##$PreampMod07SN= <>
$$ ##$PreampMod08PN= <>
$$ ##$PreampMod08SN= <>
$$ ##$PreampMod09PN= <>
$$ ##$PreampMod09SN= <>
$$ ##$PreampMod10PN= <>
$$ ##$PreampMod10SN= <>
$$ ##$PreampMod11PN= <>
$$ ##$PreampMod11SN= <>
$$ ##$PreampMod12PN= <>
$$ ##$PreampMod12SN= <>
$$ ##$PreampMod13PN= <>
$$ ##$PreampMod13SN= <>
$$ ##$PreampMod14PN= <>
$$ ##$PreampMod14SN= <>
$$ ##$PreampMod15PN= <>
$$ ##$PreampMod15SN= <>
$$ ##$PreampMod16PN= <>
$$ ##$PreampMod16SN= <>
$$ ##$PreampModBisDat= (0..15)
$$ 20130502 20130412 20130626 0 0 0 0 0 0 0 0 0 0 0 0 0
$$ ##$PreampModPN= (0..17)
$$ <Z103204> <Z003472> <Z102026> <> <> <> <> <> <> <> <> <> <> <> <> <> <>
$$ <>
$$ ##$PreampModSN= (0..17)
$$ <00273> <01157> <00013> <> <> <> <> <> <> <> <> <> <> <> <> <> <> <>
$$ ##$ProdigyEth= <no>
$$ ##$RCUCDS= (0..7)
$$ 0 0 0 0 0 0 0 0
$$ ##$RCUCFS= (0..7)
$$ 0 0 0 0 0 0 0 0
$$ ##$RCUCSS= (0..7)
$$ 0 0 0 0 0 0 0 0
$$ ##$RCUI2C1= (0..7)
$$ 0 0 0 0 0 0 0 0
$$ ##$RCUI2C2= (0..7)
$$ 0 0 0 0 0 0 0 0
$$ ##$RCUI2C3= (0..7)
$$ 0 0 0 0 0 0 0 0
$$ ##$RCUI2C4= (0..7)
$$ 0 0 0 0 0 0 0 0
$$ ##$RCUI2C5= (0..7)
$$ 0 0 0 0 0 0 0 0
$$ ##$RCUI2C6= (0..7)
$$ 0 0 0 0 0 0 0 0
$$ ##$RCUI2C7= (0..7)
$$ 0 0 0 0 0 0 0 0
$$ ##$RCUI2C8= (0..7)
$$ 0 0 0 0 0 0 0 0
$$ ##$RDCU= 0
$$ ##$RFSINPUT= (0..1)
$$ 0 0
$$ ##$RFSVTY= <no>
$$ ##$RGTYPE= (0..31)
$$ 9 0 0 0 0 0 0 0 0 0 0 0 0 0 0 0 0 0 0 0 0 0 0 0 0 0 0 0 0 0 0 0
$$ ##$RG_max= (0..31)
$$ 203 -1 -1 -1 -1 -1 -1 -1 -1 -1 -1 -1 -1 -1 -1 -1 -1 -1 -1 -1 -1 -1 -1 -1
$$ -1 -1 -1 -1 -1 -1 -1 -1
$$ ##$RG_min= (0..31)
$$ 0.25 -1 -1 -1 -1 -1 -1 -1 -1 -1 -1 -1 -1 -1 -1 -1 -1 -1 -1 -1 -1 -1 -1
$$ -1 -1 -1 -1 -1 -1 -1 -1 -1
$$ ##$RG_tab1= (0..255)
$$ 0.25 0.28 0.32 0.35 0.4 0.44 0.5 0.56 0.64 0.7 0.8 0.89 1 1.12 1.28 1.4
$$ 1.6 1.78 2 2.25 2.56 2.8 3.2 3.56 4 4.5 5 5.6 6.35 7.12 8 9 10 11.3 12.7
$$ 14.2 16 18 20.2 22.6 25.4 28.5 32 36 40.3 45.2 50.8 57 64 71.8 80.6 90.5
$$ 101 114 128 144 161 181 203 -1 -1 -1 -1 -1 -1 -1 -1 -1 -1 -1 -1 -1 -1 -1
$$ -1 -1 -1 -1 -1 -1 -1 -1 -1 -1 -1 -1 -1 -1 -1 -1 -1 -1 -1 -1 -1 -1 -1 -1
$$ -1 -1 -1 -1 -1 -1 -1 -1 -1 -1 -1 -1 -1 -1 -1 -1 -1 -1 -1 -1 -1 -1 -1 -1
$$ -1 -1 -1 -1 -1 -1 -1 -1 -1 -1 -1 -1 -1 -1 -1 -1 -1 -1 -1 -1 -1 -1 -1 -1
$$ -1 -1 -1 -1 -1 -1 -1 -1 -1 -1 -1 -1 -1 -1 -1 -1 -1 -1 -1 -1 -1 -1 -1 -1
$$ -1 -1 -1 -1 -1 -1 -1 -1 -1 -1 -1 -1 -1 -1 -1 -1 -1 -1 -1 -1 -1 -1 -1 -1
$$ -1 -1 -1 -1 -1 -1 -1 -1 -1 -1 -1 -1 -1 -1 -1 -1 -1 -1 -1 -1 -1 -1 -1 -1
$$ -1 -1 -1 -1 -1 -1 -1 -1 -1 -1 -1 -1 -1 -1 -1 -1 -1 -1 -1 -1 -1 -1 -1 -1
$$ -1 -1 -1 -1 -1 -1 -1 -1 -1 -1 -1 -1 -1 -1
$$ ##$RG_tab2= (0..255)
$$ -1 -1 -1 -1 -1 -1 -1 -1 -1 -1 -1 -1 -1 -1 -1 -1 -1 -1 -1 -1 -1 -1 -1 -1
$$ -1 -1 -1 -1 -1 -1 -1 -1 -1 -1 -1 -1 -1 -1 -1 -1 -1 -1 -1 -1 -1 -1 -1 -1
$$ -1 -1 -1 -1 -1 -1 -1 -1 -1 -1 -1 -1 -1 -1 -1 -1 -1 -1 -1 -1 -1 -1 -1 -1
$$ -1 -1 -1 -1 -1 -1 -1 -1 -1 -1 -1 -1 -1 -1 -1 -1 -1 -1 -1 -1 -1 -1 -1 -1
$$ -1 -1 -1 -1 -1 -1 -1 -1 -1 -1 -1 -1 -1 -1 -1 -1 -1 -1 -1 -1 -1 -1 -1 -1
$$ -1 -1 -1 -1 -1 -1 -1 -1 -1 -1 -1 -1 -1 -1 -1 -1 -1 -1 -1 -1 -1 -1 -1 -1
$$ -1 -1 -1 -1 -1 -1 -1 -1 -1 -1 -1 -1 -1 -1 -1 -1 -1 -1 -1 -1 -1 -1 -1 -1
$$ -1 -1 -1 -1 -1 -1 -1 -1 -1 -1 -1 -1 -1 -1 -1 -1 -1 -1 -1 -1 -1 -1 -1 -1
$$ -1 -1 -1 -1 -1 -1 -1 -1 -1 -1 -1 -1 -1 -1 -1 -1 -1 -1 -1 -1 -1 -1 -1 -1
$$ -1 -1 -1 -1 -1 -1 -1 -1 -1 -1 -1 -1 -1 -1 -1 -1 -1 -1 -1 -1 -1 -1 -1 -1
$$ -1 -1 -1 -1 -1 -1 -1 -1 -1 -1 -1 -1 -1 -1 -1 -1
$$ ##$RG_tab3= (0..255)
$$ -1 -1 -1 -1 -1 -1 -1 -1 -1 -1 -1 -1 -1 -1 -1 -1 -1 -1 -1 -1 -1 -1 -1 -1
$$ -1 -1 -1 -1 -1 -1 -1 -1 -1 -1 -1 -1 -1 -1 -1 -1 -1 -1 -1 -1 -1 -1 -1 -1
$$ -1 -1 -1 -1 -1 -1 -1 -1 -1 -1 -1 -1 -1 -1 -1 -1 -1 -1 -1 -1 -1 -1 -1 -1
$$ -1 -1 -1 -1 -1 -1 -1 -1 -1 -1 -1 -1 -1 -1 -1 -1 -1 -1 -1 -1 -1 -1 -1 -1
$$ -1 -1 -1 -1 -1 -1 -1 -1 -1 -1 -1 -1 -1 -1 -1 -1 -1 -1 -1 -1 -1 -1 -1 -1
$$ -1 -1 -1 -1 -1 -1 -1 -1 -1 -1 -1 -1 -1 -1 -1 -1 -1 -1 -1 -1 -1 -1 -1 -1
$$ -1 -1 -1 -1 -1 -1 -1 -1 -1 -1 -1 -1 -1 -1 -1 -1 -1 -1 -1 -1 -1 -1 -1 -1
$$ -1 -1 -1 -1 -1 -1 -1 -1 -1 -1 -1 -1 -1 -1 -1 -1 -1 -1 -1 -1 -1 -1 -1 -1
$$ -1 -1 -1 -1 -1 -1 -1 -1 -1 -1 -1 -1 -1 -1 -1 -1 -1 -1 -1 -1 -1 -1 -1 -1
$$ -1 -1 -1 -1 -1 -1 -1 -1 -1 -1 -1 -1 -1 -1 -1 -1 -1 -1 -1 -1 -1 -1 -1 -1
$$ -1 -1 -1 -1 -1 -1 -1 -1 -1 -1 -1 -1 -1 -1 -1 -1
$$ ##$RG_tab4= (0..255)
$$ -1 -1 -1 -1 -1 -1 -1 -1 -1 -1 -1 -1 -1 -1 -1 -1 -1 -1 -1 -1 -1 -1 -1 -1
$$ -1 -1 -1 -1 -1 -1 -1 -1 -1 -1 -1 -1 -1 -1 -1 -1 -1 -1 -1 -1 -1 -1 -1 -1
$$ -1 -1 -1 -1 -1 -1 -1 -1 -1 -1 -1 -1 -1 -1 -1 -1 -1 -1 -1 -1 -1 -1 -1 -1
$$ -1 -1 -1 -1 -1 -1 -1 -1 -1 -1 -1 -1 -1 -1 -1 -1 -1 -1 -1 -1 -1 -1 -1 -1
$$ -1 -1 -1 -1 -1 -1 -1 -1 -1 -1 -1 -1 -1 -1 -1 -1 -1 -1 -1 -1 -1 -1 -1 -1
$$ -1 -1 -1 -1 -1 -1 -1 -1 -1 -1 -1 -1 -1 -1 -1 -1 -1 -1 -1 -1 -1 -1 -1 -1
$$ -1 -1 -1 -1 -1 -1 -1 -1 -1 -1 -1 -1 -1 -1 -1 -1 -1 -1 -1 -1 -1 -1 -1 -1
$$ -1 -1 -1 -1 -1 -1 -1 -1 -1 -1 -1 -1 -1 -1 -1 -1 -1 -1 -1 -1 -1 -1 -1 -1
$$ -1 -1 -1 -1 -1 -1 -1 -1 -1 -1 -1 -1 -1 -1 -1 -1 -1 -1 -1 -1 -1 -1 -1 -1
$$ -1 -1 -1 -1 -1 -1 -1 -1 -1 -1 -1 -1 -1 -1 -1 -1 -1 -1 -1 -1 -1 -1 -1 -1
$$ -1 -1 -1 -1 -1 -1 -1 -1 -1 -1 -1 -1 -1 -1 -1 -1
$$ ##$RG_tab5= (0..255)
$$ -1 -1 -1 -1 -1 -1 -1 -1 -1 -1 -1 -1 -1 -1 -1 -1 -1 -1 -1 -1 -1 -1 -1 -1
$$ -1 -1 -1 -1 -1 -1 -1 -1 -1 -1 -1 -1 -1 -1 -1 -1 -1 -1 -1 -1 -1 -1 -1 -1
$$ -1 -1 -1 -1 -1 -1 -1 -1 -1 -1 -1 -1 -1 -1 -1 -1 -1 -1 -1 -1 -1 -1 -1 -1
$$ -1 -1 -1 -1 -1 -1 -1 -1 -1 -1 -1 -1 -1 -1 -1 -1 -1 -1 -1 -1 -1 -1 -1 -1
$$ -1 -1 -1 -1 -1 -1 -1 -1 -1 -1 -1 -1 -1 -1 -1 -1 -1 -1 -1 -1 -1 -1 -1 -1
$$ -1 -1 -1 -1 -1 -1 -1 -1 -1 -1 -1 -1 -1 -1 -1 -1 -1 -1 -1 -1 -1 -1 -1 -1
$$ -1 -1 -1 -1 -1 -1 -1 -1 -1 -1 -1 -1 -1 -1 -1 -1 -1 -1 -1 -1 -1 -1 -1 -1
$$ -1 -1 -1 -1 -1 -1 -1 -1 -1 -1 -1 -1 -1 -1 -1 -1 -1 -1 -1 -1 -1 -1 -1 -1
$$ -1 -1 -1 -1 -1 -1 -1 -1 -1 -1 -1 -1 -1 -1 -1 -1 -1 -1 -1 -1 -1 -1 -1 -1
$$ -1 -1 -1 -1 -1 -1 -1 -1 -1 -1 -1 -1 -1 -1 -1 -1 -1 -1 -1 -1 -1 -1 -1 -1
$$ -1 -1 -1 -1 -1 -1 -1 -1 -1 -1 -1 -1 -1 -1 -1 -1
$$ ##$RG_tab6= (0..255)
$$ -1 -1 -1 -1 -1 -1 -1 -1 -1 -1 -1 -1 -1 -1 -1 -1 -1 -1 -1 -1 -1 -1 -1 -1
$$ -1 -1 -1 -1 -1 -1 -1 -1 -1 -1 -1 -1 -1 -1 -1 -1 -1 -1 -1 -1 -1 -1 -1 -1
$$ -1 -1 -1 -1 -1 -1 -1 -1 -1 -1 -1 -1 -1 -1 -1 -1 -1 -1 -1 -1 -1 -1 -1 -1
$$ -1 -1 -1 -1 -1 -1 -1 -1 -1 -1 -1 -1 -1 -1 -1 -1 -1 -1 -1 -1 -1 -1 -1 -1
$$ -1 -1 -1 -1 -1 -1 -1 -1 -1 -1 -1 -1 -1 -1 -1 -1 -1 -1 -1 -1 -1 -1 -1 -1
$$ -1 -1 -1 -1 -1 -1 -1 -1 -1 -1 -1 -1 -1 -1 -1 -1 -1 -1 -1 -1 -1 -1 -1 -1
$$ -1 -1 -1 -1 -1 -1 -1 -1 -1 -1 -1 -1 -1 -1 -1 -1 -1 -1 -1 -1 -1 -1 -1 -1
$$ -1 -1 -1 -1 -1 -1 -1 -1 -1 -1 -1 -1 -1 -1 -1 -1 -1 -1 -1 -1 -1 -1 -1 -1
$$ -1 -1 -1 -1 -1 -1 -1 -1 -1 -1 -1 -1 -1 -1 -1 -1 -1 -1 -1 -1 -1 -1 -1 -1
$$ -1 -1 -1 -1 -1 -1 -1 -1 -1 -1 -1 -1 -1 -1 -1 -1 -1 -1 -1 -1 -1 -1 -1 -1
$$ -1 -1 -1 -1 -1 -1 -1 -1 -1 -1 -1 -1 -1 -1 -1 -1
$$ ##$RG_tab7= (0..255)
$$ -1 -1 -1 -1 -1 -1 -1 -1 -1 -1 -1 -1 -1 -1 -1 -1 -1 -1 -1 -1 -1 -1 -1 -1
$$ -1 -1 -1 -1 -1 -1 -1 -1 -1 -1 -1 -1 -1 -1 -1 -1 -1 -1 -1 -1 -1 -1 -1 -1
$$ -1 -1 -1 -1 -1 -1 -1 -1 -1 -1 -1 -1 -1 -1 -1 -1 -1 -1 -1 -1 -1 -1 -1 -1
$$ -1 -1 -1 -1 -1 -1 -1 -1 -1 -1 -1 -1 -1 -1 -1 -1 -1 -1 -1 -1 -1 -1 -1 -1
$$ -1 -1 -1 -1 -1 -1 -1 -1 -1 -1 -1 -1 -1 -1 -1 -1 -1 -1 -1 -1 -1 -1 -1 -1
$$ -1 -1 -1 -1 -1 -1 -1 -1 -1 -1 -1 -1 -1 -1 -1 -1 -1 -1 -1 -1 -1 -1 -1 -1
$$ -1 -1 -1 -1 -1 -1 -1 -1 -1 -1 -1 -1 -1 -1 -1 -1 -1 -1 -1 -1 -1 -1 -1 -1
$$ -1 -1 -1 -1 -1 -1 -1 -1 -1 -1 -1 -1 -1 -1 -1 -1 -1 -1 -1 -1 -1 -1 -1 -1
$$ -1 -1 -1 -1 -1 -1 -1 -1 -1 -1 -1 -1 -1 -1 -1 -1 -1 -1 -1 -1 -1 -1 -1 -1
$$ -1 -1 -1 -1 -1 -1 -1 -1 -1 -1 -1 -1 -1 -1 -1 -1 -1 -1 -1 -1 -1 -1 -1 -1
$$ -1 -1 -1 -1 -1 -1 -1 -1 -1 -1 -1 -1 -1 -1 -1 -1
$$ ##$RG_tab8= (0..255)
$$ -1 -1 -1 -1 -1 -1 -1 -1 -1 -1 -1 -1 -1 -1 -1 -1 -1 -1 -1 -1 -1 -1 -1 -1
$$ -1 -1 -1 -1 -1 -1 -1 -1 -1 -1 -1 -1 -1 -1 -1 -1 -1 -1 -1 -1 -1 -1 -1 -1
$$ -1 -1 -1 -1 -1 -1 -1 -1 -1 -1 -1 -1 -1 -1 -1 -1 -1 -1 -1 -1 -1 -1 -1 -1
$$ -1 -1 -1 -1 -1 -1 -1 -1 -1 -1 -1 -1 -1 -1 -1 -1 -1 -1 -1 -1 -1 -1 -1 -1
$$ -1 -1 -1 -1 -1 -1 -1 -1 -1 -1 -1 -1 -1 -1 -1 -1 -1 -1 -1 -1 -1 -1 -1 -1
$$ -1 -1 -1 -1 -1 -1 -1 -1 -1 -1 -1 -1 -1 -1 -1 -1 -1 -1 -1 -1 -1 -1 -1 -1
$$ -1 -1 -1 -1 -1 -1 -1 -1 -1 -1 -1 -1 -1 -1 -1 -1 -1 -1 -1 -1 -1 -1 -1 -1
$$ -1 -1 -1 -1 -1 -1 -1 -1 -1 -1 -1 -1 -1 -1 -1 -1 -1 -1 -1 -1 -1 -1 -1 -1
$$ -1 -1 -1 -1 -1 -1 -1 -1 -1 -1 -1 -1 -1 -1 -1 -1 -1 -1 -1 -1 -1 -1 -1 -1
$$ -1 -1 -1 -1 -1 -1 -1 -1 -1 -1 -1 -1 -1 -1 -1 -1 -1 -1 -1 -1 -1 -1 -1 -1
$$ -1 -1 -1 -1 -1 -1 -1 -1 -1 -1 -1 -1 -1 -1 -1 -1
$$ ##$RG_tabA= (0..255)
$$ 0.25 0.28 0.32 0.35 0.4 0.44 0.5 0.56 0.64 0.7 0.8 0.89 1 1.12 1.28 1.4
$$ 1.6 1.78 2 2.25 2.56 2.8 3.2 3.56 4 4.5 5 5.6 6.35 7.12 8 9 10 11.3 12.7
$$ 14.2 16 18 20.2 22.6 25.4 28.5 32 36 40.3 45.2 50.8 57 64 71.8 80.6 90.5
$$ 101 114 128 144 161 181 203 -1 -1 -1 -1 -1 -1 -1 -1 -1 -1 -1 -1 -1 -1 -1
$$ -1 -1 -1 -1 -1 -1 -1 -1 -1 -1 -1 -1 -1 -1 -1 -1 -1 -1 -1 -1 -1 -1 -1 -1
$$ -1 -1 -1 -1 -1 -1 -1 -1 -1 -1 -1 -1 -1 -1 -1 -1 -1 -1 -1 -1 -1 -1 -1 -1
$$ -1 -1 -1 -1 -1 -1 -1 -1 -1 -1 -1 -1 -1 -1 -1 -1 -1 -1 -1 -1 -1 -1 -1 -1
$$ -1 -1 -1 -1 -1 -1 -1 -1 -1 -1 -1 -1 -1 -1 -1 -1 -1 -1 -1 -1 -1 -1 -1 -1
$$ -1 -1 -1 -1 -1 -1 -1 -1 -1 -1 -1 -1 -1 -1 -1 -1 -1 -1 -1 -1 -1 -1 -1 -1
$$ -1 -1 -1 -1 -1 -1 -1 -1 -1 -1 -1 -1 -1 -1 -1 -1 -1 -1 -1 -1 -1 -1 -1 -1
$$ -1 -1 -1 -1 -1 -1 -1 -1 -1 -1 -1 -1 -1 -1 -1 -1 -1 -1 -1 -1 -1 -1 -1 -1
$$ -1 -1 -1 -1 -1 -1 -1 -1 -1 -1 -1 -1 -1 -1
$$ ##$ROBOTTY= <no>
$$ ##$ROUT14= (0..7)
$$ 0 0 0 0 0 0 0 0
$$ ##$ROUTER= -1
$$ ##$RX22TY= <no>
$$ ##$RXFMAX= (0..7)
$$ 647.5 -1 -1 -1 -1 -1 -1 -1
$$ ##$RXFMIN= (0..7)
$$ 5 -1 -1 -1 -1 -1 -1 -1
$$ ##$RXINTLV= (0..7)
$$ 1 0 0 0 0 0 0 0
$$ ##$RXMSTY= <no>
$$ ##$RockSwitchEth= <no>
$$ ##$SCMTY= <no>
$$ ##$SGUC1= (0..15)
$$ 17 20 19 0 0 0 0 0 0 0 0 0 0 0 0 0
$$ ##$SGUC2= (0..15)
$$ 0 256 18 0 0 0 0 0 0 0 0 0 0 0 0 0
$$ ##$SLCBCONF= <SHNV>
$$ ##$SPECTR= 10
$$ ##$SY2FLAG= 0
$$ ##$SYNCTRIG= 11
$$ ##$SamChgEth= (0..3)
$$ <no> <no> <no> <no>
$$ ##$ServiceNo= <>
$$ ##$Sgu1PowerLevels= (0..7)
$$ 90 74 58 42 26 10 0 0
$$ ##$Sgu2PowerLevels= (0..7)
$$ 90 74 58 42 26 10 0 0
$$ ##$Sgu3PowerLevels= (0..7)
$$ 90 74 58 42 26 10 0 0
$$ ##$Sgu4PowerLevels= (0..7)
$$ 90 74 58 42 26 10 0 0
$$ ##$Sgu5PowerLevels= (0..7)
$$ 0 0 0 0 0 0 0 0
$$ ##$Sgu6PowerLevels= (0..7)
$$ 0 0 0 0 0 0 0 0
$$ ##$Sgu7PowerLevels= (0..7)
$$ 0 0 0 0 0 0 0 0
$$ ##$Sgu8PowerLevels= (0..7)
$$ 0 0 0 0 0 0 0 0
$$ ##$SguType= 3
$$ ##$ShimMaxVal= 32760
$$ ##$ShimPow1Ch2Sh= (0..38)
$$ 0 0 0 0 0 0 0 0 0 0 0 0 0 0 0 0 0 0 0 0 0 0 0 0 0 0 0 0 0 0 0 0 0 0 0 0
$$ 0 0 0
$$ ##$ShimPow1Imax= (0..38)
$$ 0 0 0 0 0 0 0 0 0 0 0 0 0 0 0 0 0 0 0 0 0 0 0 0 0 0 0 0 0 0 0 0 0 0 0 0
$$ 0 0 0
$$ ##$ShimPow1NChan= 0
$$ ##$ShimPow1TotIMax= 0
$$ ##$ShimPow1Vmax= (0..38)
$$ 0 0 0 0 0 0 0 0 0 0 0 0 0 0 0 0 0 0 0 0 0 0 0 0 0 0 0 0 0 0 0 0 0 0 0 0
$$ 0 0 0
$$ ##$ShimPow2Ch2Sh= (0..38)
$$ 0 0 0 0 0 0 0 0 0 0 0 0 0 0 0 0 0 0 0 0 0 0 0 0 0 0 0 0 0 0 0 0 0 0 0 0
$$ 0 0 0
$$ ##$ShimPow2Imax= (0..38)
$$ 0 0 0 0 0 0 0 0 0 0 0 0 0 0 0 0 0 0 0 0 0 0 0 0 0 0 0 0 0 0 0 0 0 0 0 0
$$ 0 0 0
$$ ##$ShimPow2NChan= 0
$$ ##$ShimPow2TotIMax= 0
$$ ##$ShimPow2Vmax= (0..38)
$$ 0 0 0 0 0 0 0 0 0 0 0 0 0 0 0 0 0 0 0 0 0 0 0 0 0 0 0 0 0 0 0 0 0 0 0 0
$$ 0 0 0
$$ ##$ShimPow3Ch2Sh= (0..38)
$$ 0 0 0 0 0 0 0 0 0 0 0 0 0 0 0 0 0 0 0 0 0 0 0 0 0 0 0 0 0 0 0 0 0 0 0 0
$$ 0 0 0
$$ ##$ShimPow3Imax= (0..38)
$$ 0 0 0 0 0 0 0 0 0 0 0 0 0 0 0 0 0 0 0 0 0 0 0 0 0 0 0 0 0 0 0 0 0 0 0 0
$$ 0 0 0
$$ ##$ShimPow3NChan= 0
$$ ##$ShimPow3TotIMax= 0
$$ ##$ShimPow3Vmax= (0..38)
$$ 0 0 0 0 0 0 0 0 0 0 0 0 0 0 0 0 0 0 0 0 0 0 0 0 0 0 0 0 0 0 0 0 0 0 0 0
$$ 0 0 0
$$ ##$ShimPow4Ch2Sh= (0..38)
$$ 0 0 0 0 0 0 0 0 0 0 0 0 0 0 0 0 0 0 0 0 0 0 0 0 0 0 0 0 0 0 0 0 0 0 0 0
$$ 0 0 0
$$ ##$ShimPow4Imax= (0..38)
$$ 0 0 0 0 0 0 0 0 0 0 0 0 0 0 0 0 0 0 0 0 0 0 0 0 0 0 0 0 0 0 0 0 0 0 0 0
$$ 0 0 0
$$ ##$ShimPow4NChan= 0
$$ ##$ShimPow4TotIMax= 0
$$ ##$ShimPow4Vmax= (0..38)
$$ 0 0 0 0 0 0 0 0 0 0 0 0 0 0 0 0 0 0 0 0 0 0 0 0 0 0 0 0 0 0 0 0 0 0 0 0
$$ 0 0 0
$$ ##$ShimPowMaxUA= (0..63)
$$ 130000 130000 130000 130000 130000 130000 130000 130000 130000 130000 130000
$$ 130000 130000 130000 130000 130000 130000 130000 130000 130000 130000 130000
$$ 130000 130000 130000 130000 130000 130000 130000 130000 130000 130000 130000
$$ 130000 130000 130000 130000 130000 130000 130000 0 0 0 0 0 0 0 0 0 0 0
$$ 0 0 0 0 0 0 0 0 0 0 0 0 0
$$ ##$ShimPowMaxUC= (0..63)
$$ 130000 130000 130000 130000 130000 130000 130000 130000 130000 130000 130000
$$ 130000 130000 130000 130000 130000 130000 130000 130000 130000 130000 130000
$$ 130000 130000 130000 130000 130000 130000 130000 130000 130000 130000 130000
$$ 130000 130000 130000 130000 130000 130000 130000 0 0 0 0 0 0 0 0 0 0 0
$$ 0 0 0 0 0 0 0 0 0 0 0 0 0
$$ ##$ShimPowMaxUG= (0..63)
$$ 1000000 1000000 1000000 1000000 1000000 1000000 1000000 1000000 1000000
$$ 1000000 1000000 1000000 1000000 1000000 1000000 1000000 1000000 1000000
$$ 1000000 1000000 1000000 1000000 1000000 1000000 1000000 1000000 1000000
$$ 1000000 1000000 1000000 1000000 1000000 1000000 1000000 1000000 1000000
$$ 1000000 1000000 1000000 0 0 0 0 0 0 0 0 0 0 0 0 0 0 0 0 0 0 0 0 0 0 0 0
$$ 0
$$ ##$ShimPowNum= 0
$$ ##$ShimPowRcbType= 3
$$ ##$ShimPowRes= (0..63)
$$ 1e-20 1e-20 1e-20 1e-20 1e-20 1e-20 1e-20 1e-20 1e-20 1e-20 1e-20 1e-20
$$ 1e-20 1e-20 1e-20 1e-20 1e-20 1e-20 1e-20 1e-20 1e-20 1e-20 1e-20 1e-20
$$ 1e-20 1e-20 1e-20 1e-20 1e-20 1e-20 1e-20 1e-20 1e-20 1e-20 1e-20 1e-20
$$ 1e-20 1e-20 1e-20 1e-20 0 0 0 0 0 0 0 0 0 0 0 0 0 0 0 0 0 0 0 0 0 0 0 0
$$ ##$ShimPowRng0= (0..63)
$$ 1 1 1 1 1 1 1 1 1 1 1 1 1 1 1 1 1 1 1 1 1 1 1 1 1 1 1 1 1 1 1 1 1 1 1 1
$$ 1 1 1 1 0 0 0 0 0 0 0 0 0 0 0 0 0 0 0 0 0 0 0 0 0 0 0 0
$$ ##$ShimPowRng1= (0..63)
$$ 1 1 1 1 1 1 1 1 1 1 1 1 1 1 1 1 1 1 1 1 1 1 1 1 1 1 1 1 1 1 1 1 1 1 1 1
$$ 1 1 1 1 0 0 0 0 0 0 0 0 0 0 0 0 0 0 0 0 0 0 0 0 0 0 0 0
$$ ##$ShimPowRng2= (0..63)
$$ 1 1 1 1 1 1 1 1 1 1 1 1 1 1 1 1 1 1 1 1 1 1 1 1 1 1 1 1 1 1 1 1 1 1 1 1
$$ 1 1 1 1 0 0 0 0 0 0 0 0 0 0 0 0 0 0 0 0 0 0 0 0 0 0 0 0
$$ ##$ShimPowRng3= (0..63)
$$ 1 1 1 1 1 1 1 1 1 1 1 1 1 1 1 1 1 1 1 1 1 1 1 1 1 1 1 1 1 1 1 1 1 1 1 1
$$ 1 1 1 1 0 0 0 0 0 0 0 0 0 0 0 0 0 0 0 0 0 0 0 0 0 0 0 0
$$ ##$ShimPowType1= 0
$$ ##$ShimPowType2= 0
$$ ##$ShimPowType3= 0
$$ ##$ShimPowType4= 0
$$ ##$ShimSysAngle= <>
$$ ##$ShimSysFunc= (0..63)
$$ 1 2 3 4 5 6 7 8 9 10 0 37 38 35 16 15 14 13 12 11 28 27 26 25 24 23 36
$$ 22 30 29 20 21 34 33 32 31 17 18 19 0 0 0 0 0 0 0 0 0 0 0 0 0 0 0 0 0 0
$$ 0 0 0 0 0 0 0
$$ ##$ShimSysMatId= <no>
$$ ##$ShimSysMatrix= 1
$$ ##$ShimSysOffset= <56mm>
$$ ##$ShimSysType= 4
$$ ##$ShimUnit= 0
$$ ##$TFXNUM= 0
$$ ##$TOSITY= <no>
$$ ##$TRIPLO2= 0
$$ ##$VTU= 2
$$ ##$VTUETH= <149.236.99.20>
$$ ##$VTUTY= <no>
$$ ##$WBREFAM= (0..15)
$$ 100 100 100 100 100 100 100 100 100 100 100 100 100 100 100 100
$$ ##$WBREFLM= (0..15)
$$ 1 0 0 0 0 0 0 0 0 0 0 0 0 0 0 0
$$ ##$WBREFPH= (0..15)
$$ 0.07 0 0 0 0 0 0 0 0 0 0 0 0 0 0 0
$$ ##$WBSGU= (0..15)
$$ 0 0 0 0 0 0 0 0 0 0 0 0 0 0 0 0
$$ ##$XFAC= 2
$$ ##END=
##$RELAX= 
$$ Bruker specific parameters
$$ --------------------------
##$DATPATH= </Users/matthias/Documents/NMR/NMR Spectra/Data Stuff>
##$EXPNO= 3
##$NAME= <Guvacine>
##$PROCNO= 1
##$ACQT0= -6.36619772367581
##$AMP= (0..31)
100 100 100 100 100 100 100 100 100 100 100 100 100 100 100 100 100 100
100 100 100 100 100 100 100 100 100 100 100 100 100 100
##$AMPCOIL= (0..32)
-1 0 0 0 0 0 0 0 0 0 0 0 0 0 0 0 0 0 0 0 0 0 0 0 0 0 0 0 0 0 0 0 0
##$AQSEQ= 0
##$AQ_mod= 3
##$AUNM= <au_zg>
##$AUTOPOS= <>
##$BF1= 125.787963
##$BF2= 500.25
##$BF3= 500.25
##$BF4= 500.25
##$BF5= 500.25
##$BF6= 500.25
##$BF7= 500.25
##$BF8= 500.25
##$BWFAC= (0..63)
0 0 0 0 0 0 0 0 0 0 0 0 0 0 0 0 0 0 0 0 0 0 0 0 0 0 0 0 0 0 0 0 0 0 0 0
0 0 0 0 0 0 0 0 0 0 0 0 0 0 0 0 0 0 0 0 0 0 0 0 0 0 0 0
##$BYTORDA= 0
##$CHANFCU= (0..24)
0 0 0 0 0 0 0 0 0 0 0 0 0 0 0 0 0 0 0 0 0 0 0 0 0
##$CHANREC= (0..24)
0 0 0 0 0 0 0 0 0 0 0 0 0 0 0 0 0 0 0 0 0 0 0 0 0
##$CHEMSTR= <none>
##$CNST= (0..63)
1 1 145 1 1 1 1 1 1 1 1 1 1 1 1 1 1 1 1 1 1 1 1 1 1 1 1 1 1 1 1 1 1 1 1
1 1 1 1 1 1 1 1 1 1 1 1 1 1 1 1 1 1 1 1 1 1 1 1 1 1 1 1 1
##$CPDPRG= (0..8)
<> <> <waltz16> <> <> <> <> <> <>
##$D= (0..63)
0 2 0.003448276 0 0 0 0 0 0 0 0 0 2e-05 0 0 0 0.0002 0 0 0 0 0 0 0 0 0
0 0 0 0 0 0 0 0 0 0 0 0 0 0 0 0 0 0 0 0 0 0 0 0 0 0 0 0 0 0 0 0 0 0 0 0
0 0
##$DATE= 1747652117
##$DATE_START= 0
##$DE= 10
##$DECIM= 640
##$DIGMOD= 1
##$DIGTYP= 12
##$DR= 21
##$DS= 4
##$DSPFIRM= 0
##$DSPFVS= 20
##$DTYPA= 0
##$EXP= <1_IfC_DEPT135>
##$ExpStatus= 0
##$FCUCHAN= (0..9)
0 1 3 0 0 0 0 0 0 0
##$FILCOR= 0
##$FL1= 0
##$FL2= 0
##$FL3= 0
##$FL4= 0
##$FN_INDIRECT= (0..7)
0 0 0 0 0 0 0 0
##$FOV= 0
##$FQ1LIST= <>
##$FQ2LIST= <>
##$FQ3LIST= <>
##$FQ4LIST= <>
##$FQ5LIST= <>
##$FQ6LIST= <>
##$FQ7LIST= <>
##$FQ8LIST= <>
##$FS= (0..7)
83 83 83 83 83 83 83 83
##$FW= 4032000
##$FnILOOP= 0
##$FnMODE= 0
##$FnTYPE= 0
##$GPNAM= (0..31)
<> <> <> <> <> <> <> <> <> <> <> <> <> <> <> <> <> <> <> <> <> <> <> <>
<> <> <> <> <> <> <> <>
##$GPX= (0..31)
0 0 0 0 0 0 0 0 0 0 0 0 0 0 0 0 0 0 0 0 0 0 0 0 0 0 0 0 0 0 0 0
##$GPY= (0..31)
0 0 0 0 0 0 0 0 0 0 0 0 0 0 0 0 0 0 0 0 0 0 0 0 0 0 0 0 0 0 0 0
##$GPZ= (0..31)
0 0 0 0 0 0 0 0 0 0 0 0 0 0 0 0 0 0 0 0 0 0 0 0 0 0 0 0 0 0 0 0
##$GRPDLY= 67.9837951660156
##$GrpdlyHandling= 0
##$HDDUTY= 20
##$HDRATE= 1
##$HOLDER= 0
##$HPMOD= (0..32)
0 0 0 0 0 0 0 0 0 0 0 0 0 0 0 0 0 0 0 0 0 0 0 0 0 0 0 0 0 0 0 0 0
##$IN= (0..63)
0 0 0 0 0 0 0 0 0 0 0 0 0 0 0 0 0 0 0 0 0 0 0 0 0 0 0 0 0 0 0 0 0 0 0 0
0 0 0 0 0 0 0 0 0 0 0 0 0 0 0 0 0 0 0 0 0 0 0 0 0 0 0 0
##$INF= (0..7)
0 0 0 0 0 0 0 0
##$INP= (0..63)
0 0 0 0 0 0 0 0 0 0 0 0 0 0 0 0 0 0 0 0 0 0 0 0 0 0 0 0 0 0 0 0 0 0 0 0
0 0 0 0 0 0 0 0 0 0 0 0 0 0 0 0 0 0 0 0 0 0 0 0 0 0 0 0
##$INSTRUM= <spect>
##$INTEGFAC= (0..63)
0 0 0 0 0 0 0 0 0 0 0 0 0 0 0 0 0 0 0 0 0 0 0 0 0 0 0 0 0 0 0 0 0 0 0 0
0 0 0 0 0 0 0 0 0 0 0 0 0 0 0 0 0 0 0 0 0 0 0 0 0 0 0 0
##$L= (0..31)
1 1 1 1 1 1 1 1 1 1 1 1 1 1 1 1 1 1 1 1 1 1 1 1 1 1 1 1 1 1 1 1
##$LFILTER= 500
##$LGAIN= 5
##$LINPSTP= 0
##$LOCKED= yes
##$LOCKFLD= 5539
##$LOCKGN= 118.199996948242
##$LOCKPOW= -39
##$LOCKPPM= 4.69999980926514
##$LOCNUC= <2H>
##$LOCPHAS= 8.269753
##$LOCSHFT= yes
##$LOCSW= 0
##$LTIME= 0.25
##$MASR= 4200
##$MULEXPNO= (0..15)
0 0 0 0 0 0 0 0 0 0 0 0 0 0 0 0
##$NBL= 1
##$NC= -5
##$NLOGCH= 3
##$NOVFLW= 0
##$NS= 44
##$NUC1= <13C>
##$NUC2= <1H>
##$NUC3= <off>
##$NUC4= <off>
##$NUC5= <off>
##$NUC6= <off>
##$NUC7= <off>
##$NUC8= <off>
##$NUCLEUS= <off>
##$NUSLIST= <automatic>
##$NusAMOUNT= 25
##$NusFPNZ= no
##$NusJSP= 0
##$NusSEED= 54321
##$NusSPTYPE= 0
##$NusT2= 1
##$NusTD= 0
##$O1= 14015.7000000016
##$O2= 1599.86
##$O3= 10061.99
##$O4= 10061.99
##$O5= 10061.99
##$O6= 10061.99
##$O7= 10061.99
##$O8= 10061.99
##$OVERFLW= 0
##$P= (0..63)
10 10 20 15.5 31 16.5 25 50 420 30 60 40000 40000 2000 0 0 1000 2000 500
600 2500 0 0 0 1000 0 500 10 0.1 2000 0 0 4440 0 0 0 80000 0 0 2040 4000
0 0 10000 888 0 40000 1260 2400 0 40000 0 0 0 0 0 0 0 0 0 0 0 0 1680
##$PACOIL= (0..32)
0 0 0 0 0 0 0 0 0 0 0 0 0 0 0 0 0 0 0 0 0 0 0 0 0 0 0 0 0 0 0 0 0
##$PARMODE= 0
##$PCPD= (0..9)
0 70 80 0 0 0 0 0 0 0
##$PEXSEL= (0..9)
1 1 1 1 1 1 1 1 1 1
##$PHCOR= (0..31)
0 0 0 0 0 0 0 0 0 0 0 0 0 0 0 0 0 0 0 0 0 0 0 0 0 0 0 0 0 0 0 0
##$PHLIST= <>
##$PH_ref= 0
##$PL= (0..63)
120 120 120 120 120 120 120 120 120 120 120 120 120 120 120 120 120 120
120 120 120 120 120 120 120 120 120 120 120 120 120 120 120 120 120 120
120 120 120 120 120 120 120 120 120 120 120 120 120 120 120 120 120 120
120 120 120 120 120 120 120 120 120 120
##$PLSTEP= 0.1
##$PLSTRT= -6
##$PLW= (0..63)
0 50.927 13.91 0 0 0 0 0 0 0 8.1483 0.32593 0.48904 0.24559 0 3.4776 0
0 50.927 1.0393 0 0.00012519 0 0 0.0020031 0 0.12226 0 0 8.1483 0.48904
1.9562 0 0 0 0 0 0 0 0 0 0 0 0 0 0 0 0 0 0 0 0 0 0 0 0 0 0 0 0 0 0 0 0
##$PLWMAX= (0..7)
452.7 102.8 0 0 0 0 0 0
##$PR= 1
##$PRECHAN= (0..32)
-1 2 -1 0 -1 1 -1 -1 -1 -1 -1 -1 -1 -1 -1 -1 -1 -1 -1 -1 -1 -1 -1 -1 -1
-1 -1 -1 -1 -1 -1 -1 -1
##$PROBHD= <Z800701_0081 (PA BBO 500S2 BB-H-D-05 Z)>
##$PROBINPUTS= (0..15)
<> <> <> <> <> <> <> <> <> <> <> <> <> <> <> <>
##$PULPROG= <deptsp135>
##$PW= 0
##$PYNM= <>
##$ProbeDescription= <>
##$ProjAngle= 0
##$RECCHAN= (0..9)
0 1 0 0 0 0 0 0 0 0
##$RECPH= 0
##$RECPRE= (0..24)
-1 2 -1 -1 -1 -1 -1 -1 -1 -1 -1 -1 -1 -1 -1 -1 -1 -1 -1 -1 -1 -1 -1 -1
-1
##$RECPRFX= (0..32)
1 0 0 0 0 0 0 0 0 0 0 0 0 0 0 0 -1 -1 -1 -1 -1 -1 -1 -1 -1 -1 -1 -1 -1
-1 -1 -1 -1
##$RG= 203
##$RO= 0
##$RSEL= (0..24)
0 1 0 2 0 0 0 0 0 0 0 0 0 0 0 0 0 0 0 0 0 0 0 0 0
##$SAMPLEID= <>
##$SFO1= 125.8019787
##$SFO2= 500.25159986
##$SFO3= 500.26006199
##$SFO4= 500.26006199
##$SFO5= 500.26006199
##$SFO6= 500.26006199
##$SFO7= 500.26006199
##$SFO8= 500.26006199
##$SOLVENT= <D2O>
##$SOLVOLD= <off>
##$SP= (0..63)
120 120 120 120 120 120 120 120 120 120 120 120 120 120 120 120 120 120
120 120 120 120 120 120 120 120 120 120 120 120 120 120 120 120 120 120
120 120 120 120 120 120 120 120 120 120 120 120 120 120 120 120 120 120
120 120 120 120 120 120 120 120 120 120
##$SPECTR= 0
##$SPINCNT= 0
##$SPNAM= (0..63)
<> <Q5.1000> <Q3_surbop.1> <0.0> <Eburp2tr.1000> <Crp60comp.4> <Crp60,0.5,20.1>
<Sinc1.1000> <Crp60,0.5,20.1> <> <Crp60comp.4> <Crp60comp.4> <> <> <Eburp2.1000>
<> <> <> <0.0> <Q5tr_sebop.1> <Q5tr_sebop.1> <Q5tr_sebop.1> <Q5tr_sebop.1>
<> <> <> <Gaus1_180r.1000> <> <> <Q5tr.1000> <Q3_surbop.1> <Reburp.1000>
<Q3.1000> <> <Q3_surbop.1> <Q3_surbop.1> <Q5.1000> <> <> <> <Q3_surbop.1>
<Crp60,0.5,20.1> <> <> <> <> <> <> <> <> <> <> <> <> <> <> <> <> <> <>
<> <> <> <>
##$SPOAL= (0..63)
0.5 1 0.5 0.5 0 0.5 0.5 0.5 0.5 0.5 0.5 0.5 0.5 0.5 1 0.5 0.5 0.5 0.5 0
0 0 0 0.5 0.5 0.5 0.5 0.5 0.5 0 0.5 0.5 0.5 0.5 0.5 0.5 1 0.5 0.5 0.5 0.5
0.5 0.5 0.5 0.5 0.5 0.5 0.5 0.5 0.5 0.5 0.5 0.5 0.5 0.5 0.5 0.5 0.5 0.5
0.5 0.5 0.5 0.5 0.5
##$SPOFFS= (0..63)
0 0 0 0 0 0 0 0 0 0 0 0 0 0 0 0 0 0 0 0 0 0 0 0 0 0 0 0 0 0 0 0 0 0 0 0
0 0 0 0 0 0 0 0 0 0 0 0 0 0 0 0 0 0 0 0 0 0 0 0 0 0 0 0
##$SPPEX= (0..63)
0 0 0 0 0 0 0 0 0 0 0 0 0 0 0 0 0 0 0 0 0 0 0 0 0 0 0 0 0 0 0 0 0 0 0 0
0 0 0 0 0 0 0 0 0 0 0 0 0 0 0 0 0 0 0 0 0 0 0 0 0 0 0 0
##$SPW= (0..63)
0 0.0010712 0.00087704 0 0.20192 7.781 0 0.0090249 7.781 0 7.781 7.781
0 0 0.20192 0 0 0 0 10.5295 16.36776 7.642584 41.21582 0 0 0 1.1548e-05
0 0 0.086942 1.7796 0.69638 0.005456 0 0.88389 0.00087704 0.29756 0 0 0
0.00087704 7.781 0 0 0 0 0 0 0 0 0 0 0 0 0 0 0 0 0 0 0 0 0 0
##$SUBNAM= (0..9)
<> <> <> <> <> <> <> <> <> <>
##$SW= 248.40626771477
##$SWIBOX= (0..32)
0 1 3 0 0 0 0 0 0 0 0 0 0 0 0 0 0 0 0 0 0 0 0 0 0 0 0 0 0 0 0 0 0
##$SW_h= 31250
##$SWfinal= 0
##$SigLockShift= 0
##$TD= 87496
##$TD0= 1
##$TD_INDIRECT= (0..7)
0 0 0 0 0 0 0 0
##$TDav= 1
##$TE= 298.0067
##$TE1= 298.0067
##$TE2= 0
##$TE3= 0
##$TE4= 0
##$TEG= 300
##$TE_MAGNET= 0
##$TE_PIDX= 1
##$TE_RAW= 300
##$TE_STAB= (0..9)
2 2 0 0 0 0 0 0 0 0
##$TOTROT= (0..63)
0 0 0 0 0 0 0 0 0 0 0 0 0 0 0 0 0 0 0 0 0 0 0 0 0 0 0 0 0 0 0 0 0 0 0 0
0 0 0 0 0 0 0 0 0 0 0 0 0 0 0 0 0 0 0 0 0 0 0 0 0 0 0 0
##$TUBE_TYPE= <>
##$USERA1= <>
##$USERA10= <>
##$USERA2= <>
##$USERA3= <>
##$USERA4= <>
##$USERA5= <>
##$USERA6= <>
##$USERA7= <>
##$USERA8= <>
##$USERA9= <>
##$UUID= <>
##$VALIDCODE= -1
##$VALIST= <>
##$VCLIST= <>
##$VDLIST= <>
##$VPLIST= <>
##$VTLIST= <>
##$VtChillPowType= 0
##$VtChillPowVal= 0
##$VtChillType= 0
##$VtGasFlow= 0
##$WAVEMAKER= (0..7)
<> <> <> <> <> <> <> <>
##$WBST= 1024
##$WBSW= (0..7)
4 10 10 10 10 10 10 10
##$XL= 0
##$YL= 0
##$YMAX_a= 12383
##$YMIN_a= -13367
##$ZGOPTNS= <>
##$scaledByNS= no
##$scaledByRG= no
##$shimCoilTempK= 300
##$ABSF1= 235.640193966744
##$ABSF2= -12.7937519744904
##$ABSG= 5
##$ABSL= 3
##$ALPHA= 0
##$AQORDER= 0
##$ASSFAC= 0
##$ASSFACI= 0
##$ASSFACX= 0
##$ASSWID= 0
##$AUNMP= <proc_1d>
##$AXLEFT= 0
##$AXNAME= <>
##$AXNUC= <13C>
##$AXRIGHT= 0
##$AXTYPE= 0
##$AXUNIT= <>
##$AZFE= 0.1
##$AZFW= 0.5
##$BCFW= 0
##$BC_mod= 0
##$BYTORDP= 0
##$COROFFS= 0
##$CY= 15
##$DATMOD= 1
##$DC= 0
##$DFILT= <>
##$DTYPP= 0
##$ERETIC= no
##$F1P= 240
##$F2P= -10
##$FCOR= 1
##$FTSIZE= 65536
##$FT_mod= 6
##$GAMMA= 0
##$GB= 0
##$INTBC= 1
##$INTSCL= 1
##$ISEN= 30
##$LB= 1
##$LEV0= 0
##$LPBIN= 0
##$MAXI= 10000
##$MC2= 0
##$MEAN= 0
##$ME_mod= 0
##$MI= 0
##$MddCEXP= no
##$MddCT_SP= no
##$MddF180= no
##$MddLAMBDA= 0
##$MddMEMORY= 0
##$MddMERGE= 0
##$MddNCOMP= 0
##$MddNITER= 0
##$MddNOISE= 0
##$MddPHASE= 0
##$MddSEED= 0
##$MddSRSIZE= 0
##$Mdd_CsALG= 0
##$Mdd_CsLAMBDA= 0
##$Mdd_CsNITER= 0
##$Mdd_CsNORM= 0
##$Mdd_CsVE= no
##$Mdd_CsZF= 0
##$Mdd_LrLAMBDA= 0
##$Mdd_LrNITER= 0
##$Mdd_LrRANK= 0
##$Mdd_LrZF= 0
##$Mdd_mod= 0
##$NCOEF= 0
##$NC_proc= -10
##$NLEV= 6
##$NOISF1= 0
##$NOISF2= 0
##$NSP= 0
##$NTH_PI= 0
##$NZP= 0
##$OFFSET= 235.640193966744
##$PC= 1.4
##$PHC0= 273.774579215537
##$PHC1= -156.999200224404
##$PH_mod= 1
##$PKNL= yes
##$PPARMOD= 0
##$PPDIAG= 0
##$PPIPTYP= 0
##$PPMPNUM= 2147483647
##$PPRESOL= 1
##$PSCAL= 4
##$PSIGN= 2
##$PYNMP= <proc.py>
##$RDF1= 0
##$RDF2= 0
##$RDFWHM= 0
##$RDINT= 0
##$RDPOS= 0
##$REVERSE= no
##$SF= 125.787963
##$SI= 65536
##$SIGF1= 0
##$SIGF2= 0
##$SINO= 0
##$SIOLD= 65536
##$SPECTYP= <>
##$SREF_mod= 1
##$SREGLST= <13C.CDCl3>
##$SSB= 0
##$STSI= 65536
##$STSR= 0
##$SW_p= 31250
##$SYMM= 0
##$S_DEV= 0
##$TDeff= 87496
##$TDoff= 0
##$TI= <>
##$TILT= no
##$TM1= 0
##$TM2= 0
##$TOPLEV= 0
##$USERP1= <>
##$USERP10= <>
##$USERP2= <>
##$USERP3= <>
##$USERP4= <>
##$USERP5= <>
##$USERP6= <>
##$USERP7= <>
##$USERP8= <>
##$USERP9= <>
##$WDW= 1
##$XDIM= 65536
##$YMAX_p= 551003044
##$YMIN_p= -334063320
##$CURPLOT= <C280>
##$CURPRIN= <$C280>
##$DFORMAT= <normdp>
##$LAYOUT= <+/1D_X.xwp>
##$LFORMAT= <normlp>
##$PFORMAT= <normpl>
$$ End of Bruker specific parameters
$$ ---------------------------------
##XUNITS= HZ
##YUNITS= ARBITRARY UNITS
##XFACTOR= 0.476837158203125
##YFACTOR= 1
##DELTAX= -0.476837158203125
##NPOINTS= 65536
##FIRSTX= 31249.5231628418
##FIRSTY= 4687512
##LASTX= 0
##MAXY= 551003044
##MINY= -334063320
##XYDATA= (X++(Y..Y))
65535D687512A376798i7209A384100L51802p25914K311754J764466L11134j74063
65526E223279j504658A131786C30825A06555m0233M28696K717649k67722j372836
65517A572109g0130A11799L481379K346910k14806m14812n23789J288110J379901
65508G454692k249473j302373Q91987j267659j306762q10557a209471e58279H53489
65498A564953J343953K268769j301036B08299b907752j162755R31182K80024p7321
65489b936622r1984L46404a301727B152717J258607G00738O93882J028402k57266
65480B165756G93698a170013d04021H83644O78364p43355l1776L1917H5976a292457
65469c387436O15385h40633E5895J446950N26213h0691o39794o58059M8112p78071
65459b108503j548991M00879a383414n91071k92610N38448J63500j62245j490740
65450c218132j90415P88075L37086k81586L85531e43841n65292k041473j213104
65441d363710q4520o69474N95124K242304k22743n66839a422956C74699L225700
65432C600399n758b56591j851768K9948O241a05078A243009c94711q06215d07068
65421a050616j817380p8960j608617p22427J956733J645188k66713a03924C1461
65411a168008j823770k51297N39214J282522n35695o38695q98406j401092J326635
65402c568592a442565a7970j532267j460777j510745j104523J985137f06243G93155
65392D10197j12880f90828f0354A680400k3845C48224c24250G09702Q12348k61387
65382A260663o24771l6273J878740Q89405j146217A62963d56361J95561j291489
65373a552289L21889n22134j502495q95900k64447J298965O38873O79096r655
65364a808097a0917B27068C0085b506362J95417O69082o37058j99415q80529a374995
65353f8530D84551J64421b797E84328f00688k084353N69293d61441j96164E81577
65342A245435J12176o4892C02945K941728R85965j43599p97048j436903D02782
65332a463131N05706E16169K309044j254186D210c84508k03170q57799M33856
65323a011621k403623n42226J926188e79476A449507O75187P20957A401778p6854
65314A324924l60430h9661p63498D1020J071634A28634R55552c20486j71551A723441
65303A367911k0266l98048a056088k160653l21574J193130h10588l2519K63591
65294e79516A368503J097678N43805l34196A91421a038651k51554j834250l6552
65285c161007J061518K77634j550705j463877K022669P04850J030254J82320E7892
65275I35275A89081J63252P95332b183762p47770A92287K491437K66139r33281
65266B016582P9159L66989m42587O625J741326K015555k192549a59018j869217
65257b028235L01606N02905k66123I96659r4496f33811n80462j463483o98679
65248c376435N35845J393236L23931j486893k231927R29265J438142f09385A358753
65238A494919J41340M56210D07221a785641K63896f32712b80531B84739M21827
65229G06566O07513J274341I30521a077437J29023j004313m78603e1021k61259
65220c12280j039088L35177H28907J610982j141468D88953J047172J516576l45855
65211B706846A24880a862629j244153L7040J498394K88557A191681O89540b7210
65201A062351j27940a129909j83838k34485k485742J074723g19746A946041K234359
65192D180400O22130j396360C70663a327398H20651J9008A24282K01018M52849
65183G78149N69263B86126a822471M04532D70673b165716j386390j366393J231976
65174c686523a278539D36344e07754H96572f36825j434770j231246k314031K33600
65165e383272k26568Q4239J347381M29273K34254r64344l18174b178983B004349
65155C784800A753833g82885B17305J401411O33213j013823a441574J81879C29266
65145B084197N053655j35503B184094a517994p16327j31496N43705A81643d8039
65135a795140c6222A338403c63285k238371a135909A037902l77760i00763k151582
65126c052345a279360E31951K309748M64143j257242m55357J480419A37777a859371
65116F09500K301395A440152F72070j19737a270662f21389D11679a933651J74886
65107a758765j245459J194747B096759J975573K03543A538962a207843L9093H52300
65097A04112b505438q86985K36908a238509B685611l03747L69607E40098J84891
65088G24989J918103m98921o56206e93721r60342I53497K039114m02187H11532
65078A498282N88714l44095A23379g65194j277740K70866M50494c2498I85087
65068g37012k397469j123035P07597g89635A897575M11138j18278k97472g05912
65058a890382h58280B42135e18237A20889J085628K090501o10093j343353J202026
65049B545598l83265b4792j864034L82190I4651K37294d02324c9538G18717a60145
65038b994224j05793o90006l24051j667662N21471a497853N62110A13424a052874
65028b663455r55909J174331N92293N99302k966893J389831C45427a242142j577683
65019b819825O38976i15646c26644I38123B76110d37739l54824c63698p68328
65010a132026p513C7137M78589g05693K23425B694838K794896o98261k087565
65001B703908A171517L17435K125098J065873j079060O99121j853746a45714p31717
64992h77431M8662n65322j913704j829219J070950a631716D52072e62941A350716
64982B564624j276683K718290L875282j924065C53763a105188A58193b47667l240103
64973c487770l19821C35772K984450r91646j083998J267828A052148b520694j632157
64964d152851J189556J240375j442742N07285e35315b63331F20658c82257k005681
64955b387938i08704p95866j043968m41196j83253m124402j326645L289501b111507
64945b760704j612817J618334i61385m24165q32798e93363B61824a247419k415058
64936c662477a343384H3300k3677K301635I84795k3168B66906a076769j221968
64927b298737c46040B387906K038929N9157B203847g69624j860157i44943E58697
64917a897911j447729j97685G6845K63858J339491l34220f37906j486862Q58338
64908a266430I9683O21830b997953j433899J273357J335562F8243a28810k115072
64899b243882a99680G78010b96277o45705b038j14900j664023j183254Q84673
64890b079542j731752O33280l97544P93043J041278J96931O43846C23913h60034
64880b334153j130544L49735M98409d96427B100456A005049a813642o46857Q43240
64871a617259a36011E4219a826859p39338N79928e85534E37230M94684J191491
64862B223405J069223J367959m70521E92062a96480A557267l34172a227346e51085
64852A933450J54635J378512J84095j437592N31759J736544O4603j458539j518111
64843A569356J340152L290327k218032k31774j018695A49483J61534J67215A32220
64833B525988J773116O63613j101345j372460C31666L73371Q96087K37973k76851
64824A562246a465291n35384g37734L09924A258242B8508b614906m32566K99793
64815b747679J3101K75481c35016r34750A309058J27247C12142i76738n47003
64806a523741j49023g53224j80440o88706O20020j69693L18723A276901P93860
64797B070761k53587o109B37883a849310l20990A02879K64390K340902K005276
64788D713447B173084a37577k779551J037487Q4232l579671j313521K700289F3146
64778B916940M16173J56651M86256k52718m262j212882A167161j48770D43179
64768H69824b91362k226827j000074a25775C922188K960566K065814k008042j585907
64759E354619j004270p19891p75206A147410Q41413o1380E78792B25850J53531
64750C79381K889043N48095A181001h67112k16105c47783D68664f80403k561377
64741c241780N05904i24843C618794P03245j846853N45038D29652c665392p88865
64732d454257g20608B749817A310734e43498I38137a74085k180286r43744R62906
64723b335209a011854n25479A136138J974397M033498k968443j235379O70491
64715C610702A270209K65335Q55472E77680b888131l237505K400911R13048k804390
64706e616067M78741M69066B99720K856463j381712K16862k73352F69216b715754
64696d073821i11198F37208A99168m5798J29199i10662L80292k334714l046553
64687e911637K347885E30083j19406g63467p00495b31398D80788a759268P03945
64678a055323A559424K937935p36121h14936j983897d53675A826069o82779O35054
64669A778344b36222k69415j042521L20177c77304I57617L7520J136271k10031
64660A921377D61056c72970F43468J790012j192853c73882L5220B024850J539594
64651C564444L11527j049030A130376J900799o12878B79081l0528J499724J068028
64642B816305k49427K39533j113760a415766m30110o64007j782558M56013J917412
64633a919016f83317A814147h44151j624208N05816j41846A863492J837366J453411
64624E154269K95806j502733j563077E86062i96954L81960O9095A153479k767
64615A150712b711779r00816R86390K67742R36072B157408J838771j104360b54694
64605a394039k209499J640192R15861k533229R28236c67054D94329g4809B469395
64595B459625H62644M35736L287080k278210A073703a51272C81074d69302l131531
64586c600833k752038j099903K422837a510453N07368F07284K093186q20949e3571
64576a68122e1999F81945d96246k110339J049960O24627j452917N27338h72412
64566b975808K28227n40149j051635R59141A820379R42509p29710l05734l62755
64557A364689f50580j175539j312784k482958k75605K274505C91908J131144N18363
64548B041415m31204n54607d12565j009383c15544A613130J408656M38353H38953
64538c454088j581466b023366c84259G66337M71855a445954j850484J383814J9766
64529a892858j00591m2493M84303k70354M34077K18307d40488j923697j79969
64520b544154H8428J640359M19910G31190E7956Q38480r7747b171241o35697h11037
64509a846661j259775a021553G79359J084657D61919b444649j268028n44286a634770
64499a047613c51641l307813r39586J336283O230D75855G3026b214481e07118
64489I63343J79902K5815b80066A19973Q85236C33736e10282H90549K231907P2684
64479C195140K48639A665745M65770A47031L70612i86768m96095J72860A074318
64469C302519J866113r882I61207i23715E02680R66680f28516j945916P87152
64460a787280A017556K432360j64831o62134O73240P3862A271816M49960d37185
64450i73824C073299L49299j394256J92227D98517f93458p97932l386609l205006
64441h083005r62719J734245R37934Q51954K658150a084044B5776J2596h20053
64431i68159c06155h713k088093k241652m93020k24047Q96125k447185K212000
64422d394585g09490c10828k652528p79245J32644o96375N44326J664612o32885
64413b730279o48221a671912l19720O94247H38677K724125K360941k815136a539239
64403a212543M32786j266380m406805m00662K324026Q68432J240338N04536C33383
64393B529472q63996b70759A060823L344259K427884B656841j317502b498900
64384c996654J280517P88816n409394j707056M283350Q45508e86310E33944a507259
64374b969187k717863n42441j094534O73431b443394P34348C45553R94871a93723
64364b015865E34059M846707J947436k348806C92788J216256n88250c386297k278231
64355e664528K489514r59631K64281o07756a884870I34614j89456k56255a417763
64345c022278q93045q31480k618846j57247b552473a204873H99679c00686M1826
64336b58860I10764b120348j587602K8733k38385m04555j417932j038260k39077
64327g017426j121788K672740J801208k70154I62288L623774J905543l46411l75935
64318E769259j048125B323863F38004a752182k933049J785394J405710H9619a117959
64308D96134J590427J799644Q03637Q49522j942463j323674Q83964J381463j483171
64299C055483A069228j01109n7785l54977F8327g21973j798463k068173O65323
64290c923286a530072r67393k345561M26117J286207h06487B077040p81485f97611
64280a519846N60797j213006k813804J156605i12421l36245A085771J285900j36033
64271B235638p0793E87304g30071E62079J325202N5204K555633J088598B023416
64261B37167b31388I33161b1732j583013E4897K421119Q01367m59034K108886
64252D927235B411853b750304j183971a45451A984690N55143G65777b090564Q70638
64243a219926A235120n97461a953073M42048k971472Q18962F81105J40782j97223
64234F24664K25510L15332K670709l03617A238792d6205B631641I92829i48384
64224A434055J754538P89487A075072a447368m63571j220354a370180N88827k09875
64215i91228D63613K11190J107047J951805o32276E81502e03961D09370Q55440
64206A264810K366976K64276K44259N35935j460170l36379O85230j300118B23781
64196E05750g96878j522505h02249c35458q07167I22509K024766a99743j114803
64187a314546M10965H16736J821887J741531A560930E41305J618378l20421c657855
64177d367770f37072B198600K91316P41256J249612A414114g13363j464560k88018
64168b465941N61372j54655A656256K852646A834920a939178o0437f48971r2079
64159g41050l112016r12440E85226K386888E02832c64493j170812b05255j872290
64150b077545k960690j390221P43220b224793O81322k239555k270892K521255
64142c532663q11585j736030M33981N82995j004811j811953L70567L577402R12864
64133c019233m45110J248636j096591O24524O73994j318013n48146O0951N57859
64124c261129J110442o50480J087659j018737j613113k60740P55491j059876J3190
64115d897293R95689J259715J041379j28513k230316k135931N74358J378178P40854
64106c401880a063876J3241k145745a236637I65123J375169P61670L26267j047625
64097B380604j147334g38524j732422J190429L46384j494411R67043M09030k213156
64088c265627P65669O35235j970946k64137a842239k75755D76210Q79128J049342
64079B404680D33219d922580j596407b488452A228958Q035E86986J63324H457
64069A463560K348354o1070j809110J031764K292430j56792b0155l908784J457751
64060b471188k488995j760442J362653O23447a6425F006159k184644j755699I34672
64050A715795P65624r82581a559363L8409n69520a011122A73178N60416a611335
64040b551736J092853I29397e02179l755980l6250J918765k16629j077701j153632
64031d823606M80017P00205a563779g63936A87444J433907L7999d29730A966456
64021B290467D37372J152931J894235o76120r50933l40822B23635a75534o56631
64012h32165p61752d18643E50252K54294J498178m1137J040472q28629R1748M05327
64002B970505B53204e32868Q3882q9445j416270j695388j452070j056722P5551
63993f083330J638583a534797j823577l063911k724869K694648b699390J092158
63985a607232j767701N47415J408020k006549a556308B760249c49908j614532
63977a964440j733569j284389K26079a292356A98183k8685K298380E96906b490473
63967a724670k73752L32944A013557J574461J039951J29674A69935a790324C69260
63957E89303c250909K82625k168903J012619i20075i8948j562948j000118o94302
63948c356316L73189J48961O47250c93113D41196c74859p75159j628540k045602
63939d824160n18428K614954I4670N47104a536864l150804k035419M59712b938347
63929d255724j401587n57972K924022a75067G47947J446307j085912a59614I9513
63919f28012J74233k837235L11869M24559Q58515e63349l608301J182309k139983
63910e129324j428233J77180b523705j559255J71572A552308a47903j680562B52847
63900A880871J190312A402711a396205r83113L96497r777k383131J185530A657041
63890B722318e2894j196000j772032J71534J61167q32097O48279M77253d29656
63880a429775l24998e23638C37083f92500o65826b96675l52879F99940O56129
63871A356069n22624b52877B004647k67072c26927A980825J406291j667187m81093
63862A238836N37150L12305j91983B78953j478K647732J218878r19766K1472q02919
63852B442872A043461a561749n08785m12592l26964K02726m12666d49449C542237
63842I00715a241385o52940L69338n63398j987759l485471j050762d074803b015687
63832g73104c69975r67720j04326o17815p47572l14214P82983e56521G56103j04336
63822F51767f50856A053822K406902L56844k00402r06811C39498f65130F25960
63812c17091m192125k149542b172770d72284p23231b93210m9526A654661K215672
63803C870333H71612b180023n8201L29869k874775K35679e76782J37583j113481
63794a552680J75901K83051j973697P71837o21925k746845K554451A007207j87744
63785H19463B54782Q92884P68004b87194k862897a492257F0649b763047P31957
63776b031090a5772A949807d11191m535569K136754b98105p12795A183312C18795
63766C30373R14609m18079c1345r65022c35901k83728A147557L261971R42401
63757E351929k590846J428124Q59626j051166j057802e21266j220495E54600c09780
63747b467672G84838K699113j309800J41490J5881o42123a076831A025343h48854
63737c413155j626095a998706c24120A246408J729910k61889a76075k468975r47928
63728c592978f80609B09779A02806K082076K306043j575671A442535k40590q976
63719A192969c88576n63617m22004j951289j053539J189336j15634l64706j267510
63710d937539j808101K1916p26200O98510a804513F648014K805047k406710j795481
63701E250870Q03279L14431J675793k274567j228630J884873Q97574l115153A194164
63691B308512K190748r94694d90658k481207k387917j204267L83943j6236m94564
63682f690906J146358Q4637a483085G10434A77467d796386k736532m6331M25832
63673g153417K331559Q65670a413553B9771a267568A240786J942305r35169a488450
63663b912903N34326k64665l590017j153971J785838j8333k607q66504J984107
63654d504729Q89311l979a2263I6019O67773J987640A140617J722322K237842
63645E100781A603283K04740J026285A368361a753799j369170c46586G70949L360872
63636D131821K524977J869274l392100I82222l74524K63483K948358K733352K78966
63627F831857o02036J542428O58574l858930j686961J365381J839005J161260
63619G250578K020591o00655P13393l95915j34748m047548k017562J3814j159677
63610A642271B35708a446987L22826D5727b119660j192366M39660r93564a291927
63600B19898d25610j4715I38087K61949a17794p92746m13356J77243l82681l29648
63590a858982e24373B303965J309378N27391H17214c565804L15567P73093A120324
63580F62023e76474j708633O15628e18270D58949j89149h17258j310487d24949
63570B153583L46398r2140E27102a422013j66503j451674j970683J937496F2204
63560C954326o07140j377774P15252j278642c773637j499635J220874a147502
63551B325825L17916A150284A11136N50985b399587J010225j93723q67984M76231
63542a974838j475625J227751B091271p7115O5000a897588m84764i18961A326605
63532D656925k104459A046075L022843J77569j986728c5889A420395o22782a304829
63522b152672L70078l410296j054963k345729J129768J752601b535282B015066
63513B350256f25068q97125e64841k490561j516301L21651j44683j169923L0070
63504e534588r38790p09479c483792B34234a169463k694055P210k266944l303321
63495i426573J364041c054867D69445p1516c03607n04014j606154j046480R07915
63486b552340a007516K10507l170787j671392b726618D77458H7088b51021A53099
63476G6523Q8470c38351n56750k40783m51956l092509l396586J162906c317065
63466A349920K757634k013160b35387F48175a644842o43240j902493J952811A09425
63456a371245O29387C993812J00485E05499M76909R43271a103692l552872O15183
63447d041381B371509N572975j911105A102548B54078M35041d94409f0215j317527
63438a377742A62387b14013k046549Q06747b83470h0030j789809j022173n01291
63429c393303L21321f18758A02375a207325l929630J023160B219719p12687c572
63419A77270J442447A86183a877737l75775k804727J611935k91532l80352n57672
63410d675860m74880k14502l52588j4845j240959L89562b416296C91148N19195
63401I10343m05136N92263P96054R46655P40207n50964J077985q11640J261450
63392D557217o22705A701264J899396n74411b14358l592210J412650a112161n31108
63383a643269j224519a070633I48269g93346k139007j801520L66088m59349b032404
63373B391497A074022H0291K882663m47978B67197a718892J71266j087367k15013
63364b850006C07425K843213p99075M80770k05816R13371j0144K652888J44332
63355F326964j86086J070587k124659j037275J524753j330210F37692b49291k193254
63346b442545j510559a750008C344113J178651j387679A15070b579545J62383
63338b417162l739240j984027L216616a132258C10489a175793C77611K138440
63330B516051A069677A73935M47789K426190K482594A561885G32081a275647j184191
63321b459838f83379A894255o89707J42931K006545L132022C067256j494126g08465
63311a296956b98121m63695j560016a064727I66671P08962q10445K99520n74785
63302E89923J589897J035039o30498p67997K102422K132002j467119j872186K46929
63293B958412K113882K203487R30835k27834k482518B094956A78708f42641H9772
63283A784083C15300c61570a30589j179973n96167h91463B25632K700252q16357
63274B109527a423267K56800j075003d8786j656488D5485L613096J38178j321592
63265B475167j196084R78018G14676c052104j697925l33798j6796j469793j327283
63256g897699L528393a465323d06605r9322m97503I7971P70564C05688j17519
63247A88169K68174g0340j795449l5992c50943E85588k79622P90627c65484k390989
63237b756473A101770K59220a593373g88575h464k400156j028590O32087P27950
63228b077173q36789R99106j808074J260281f17017j261528q40197J256648M17534
63219a044560j067446j314392k908633M43588J55679L21773P6797J574228J41615
63210c621351k4200a784609A696884J576358R28685J286935L67989j987940k50284
63201C618627i56924j554932J209568A136126M93364b806934j286443r37921K122919
63192b908379l226435J456831a941902Q12089d08232j722314K98290n48243R91742
63183a388757j581771l31232j640044J398794J753374d42666m83667I10702L76151
63174A286853N15922J648488j99693K42825m22924A425893Q93097M38012K22604
63165B979606J798192j280030p85872K456709j492474K5966J135867L71288A269309
63155h83569d08574j137324k409786n9793a710160e32679K32783p158I57627a530282
63144d307551l945901J217708b338784A412119K097368n04207r20293j15406m60401
63135A509180b05224F52435M67951c99077A874053D62018a184806l60648a78825
63125F18781a057065n41410A332936K134595A438029d13744j42624l58921j098045
63116b013334Q43629A151624A00490a06724I48996M61557l54541a001975k370833
63107c372808L96343J162378F72381C34187a054592q18073j37524r24772j20915
63098c055876j368351j774330q90254J409110b588538J237783M16593j308415
63090b242577n18601A877L31382i80631j549928n71687P69667q92851M35552k178584
63080d968462j365728J864491J065153J692439B056766l99987e78218j942946
63072b521164M29477A744621N530950J581034k394173G55826b70151C344477L557713
63063F902190R89096j287874k558376A106891l09127a411069k937240O60124g57744
63053A834875a163154j674591N78780l981929n13583J085945j336509J19786J549304
63044e335951a011347C730183j114503H82717P66280A34764J05782L42239a365559
63034c573249F64735P75031J61697M384792K54849B786803L13634j257375a928814
63024e366571J929864f20995b97446H31463L04006J02501M632676Q95595L3559
63015F799800J809733j688679k177559j213768I80240c758725k11847a603016
63006A563810j16946a974094k577597J449223A995964J565275j119318r12228
62998A529693a537990r65469a069959A19837L264130J141932q11261F74273b875975
62988e540799J023884n49348J83556K164748A346699N77080K131542J268763n18807
62979D805277A299148b297461j019744c03814C596181J184770j976506g26447
62970a361549N34099D77682i45517j430321N90471D812019M707223j445293l353271
62961D720678J518862K6345P00826J517437j838346j317069l0067m90621j010094
62952C797951A144358a476572B83603P04017c086231k645093Q6631k390516Q90903
62943g144306K857859J126814M51223J059155j254267l362016m76955K577574
62935d164919J040145o07492f74453C805643A590068a59053j618649r71030J033706
62926a715026d25831m234749j895886J700709R00595a925025C71890J066933a902620
62916e572521j208573J549413J655433Q65020j48850l6478H99218M485257n02350
62907D882125j276945N1380l45042H71374b658448q45225J251298R45138m62362
62898a769599f11294A469500K945160K413572k785107a256184j274496o92306
62890c222986j165106j705324j268316N55318c114220J018706k45486n60119J208065
62881a693054C33268K334608n2325J26584B6502c90390j578131Q5671C49861e97689
62870a391074L87919j910928O51952A116035N125575m62053A721048h33648G4219
62860B108349M31785R36353j9391j539826c38527k640128e11084j581640r83581
62851c076305H55066O1322j90279A7366e46414L1564A248512J362166J517723
62842D128401J60657h46679J09689A614697m95510e58720p24942j954376j086335
62833d324373a987445J69141j407958m96610J542822E30648J583154J082056L89190
62824C585048j162357J228652A625971d88664K42084A60590J643027o8762a663274
62814b300499c84353A449858J677399o73010a23668j213746j306967j044847J96473
62805c492755k449291k27365O92636l30590K062552H57827K355676J78585K69262
62796C661350j46060n11218m55669P55113m78754J439762Q71627A150863h25009
62786B52656a254203j181837n02637p8390a012496B734915R01865r8845K165962
62777E703897j808610m9753P10228j639841r70618H37574b389444j45803j41729
62768b676976j969783N50311J330663Q53883K31827m5759l41680A049708P53271
62759A802979R71345M45548L24436j117727J936574K041444k158159L20035j325500
62750C240975j455441k37490B11823J32246g18063j568267j168427R78922a081630
62740A088016b52811C39486J67758a429963F95115O06104J31013J257176p32872
62731A956536b456514j981928L5185b122148P39431K10474A575671J739785E24981
62721a643255k426163k62518e72042D722709K169646k251038A835233O89330n4040
62712B470523D03345a654815b33108l70876E08875A17740J461997f99109j265376
62703a964485k21441j702827J564461A33831J0216a94214j832518j477506P89709
62694b714529a064072q38225e78164I91461i9851j857285p06109e20694H3581
62684b4201j471219Q7993d53086k587387P92188D08161c88070k365831j709994
62675d463895j088059K654136C01345J365177J341541n36403K569114k141539
62667B899235b456615o88692l20650a048628L495G0341L03425J16844J5477h34541
62656b422671a086492A727323f08081j282576m161944K320374J558121B221874
62647D962758j950411B01231O86407J362179E34168b948139a350056c18593j037807
62638a356400l449k979406a223627C028826Q41621A629157K60427J719313N33557
62629D142454R43362J286472p59024A175068a260279M70971l9105J70460j531490
62620b189443j349988j543635O31049b038114o0250j434650k73321J900444l96224
62611b302115k111997o69972r64555J328469J840857g5375B333444L086707k155668
62602C264483b026650o35032j94548f11664j128371j377634j707523q17996j57926
62593e801114O00999J121854D5085J440185a397342j585248H50265K259137j005379
62584B104023a250132K78197B401655E08525d22671A836775J993113M43649K574056
62575F847593j62097o40626k218743A471172D60078A47163J023989K23008f51173
62565a753612P8705O01717J30103a09800B792417J67310J135670A929844B42964
62555A176542L743636o26397j638917b53974j179092O71233H13362J711079r96437
62546A528004a358395j407091j750046g05066a81721k078428o5201m35222m39444
62537c200016k028494J485145R50262a219877N1609e1363j276143j315553J261733
62528a381326A982056J311291K27741J752977J571379K375334k408971q3512M94365
62519G222660j567197p38008K747479l38406r43818j001291L26731j320798j939118
62510B448234E98096J253671J341315N70792A017432a925789l84509C73797L085381
62501C459178j177301J62336A123473b460107n35964M96600j360369k926473m28784
62492g215097J132728b506976C144511j017500i89999r8207A148135P94393G97075
62482b36930j97225K1531j409676j319708a273977k8879c2351A329273H8154g4371
62471F91868J006098A7212R53551a859709k463612O16405a699392E93148b378877
62461e939179q51772P469J099388J534395M69503k819898j701396m30602L120954
62452e511138b391761h34751j502473p4499M08156L47464J62200n82428l504373
62443e580704j575925K557967b47416B044626r75690c223105m077079l821319
62435a1121503J924352P73782o14153c240100A922402Q92963j383620E65435a338177
62425b522982Q50810k7072j753834q0252k609772L47946m56401b959700j792367
62416d752067O45536J029846J092211A589271m85638a222766E53188b06476l785557
62407c992033L54944A70557a796851k283570M87545K49760J193804A088759N43390
62398A632149b458075k306966L60570J866273L06475l57759C46745a107938l436994
62389d544932k40689b116243e367H88392L002647A693609a533701j225922m04337
62380c163960j01704d79629B084922K708980L485372k872008C52744M17331J162457
62371A932532K440049N20410B95374a263053F43204a783430q54534B412147J169732
62362C581879D25386J79174A89435a609026n1419A683872n06683c27783k170037
62353b497820k927463j220366J486069L25777i43407A946649h53999j557593j318867
62344c730459Q10018h01502A42114b253193m129604J327636J018971K69647k331360
62335f097903K37825J297228N47840q43247k056807K450851A953558L731105n04601
62326E180062r0553k371177a11717m515929n049957K865510a453401A702953A79135
62316a524658o37201j611029N53324C51947K813718A503540K96291q93626c672369
62306b666801B904833a174136l595971k289210P7175J724187K327078K41772k573884
62297e262989K455297B118986p35130B88980K432639l12660M25134L15769j25673
62288C024189j356806c3590j333507j607904P33832J074367A219749L32331o03276
62279I48804J560685K55378H82496c49752I24714D633a657087j161131n21875
62270c340093P04973A400000K14816a064907j700896R71958B181230K943417j57003
62261D967644k280290m32538p70446b323913j291210J571739N73574k422612l201684
62252g094106J092288K709470a55912F0937R49171e80471l021474a677128j84953
62243a862081A602145K179471j5540j528812j23223o15429a843087O06361r1012
62234a327738H1583a272465j610094m58185k67174j805938k73730o4685Q1287
62225e670984m20934j867781j08936M14472K133507b363952A67495M91533l0763
62216F28265a092609k13421r54232l92432j298754N46390j1040J00253K52847
62207c062998Q5457M52869k190105k561962J248396J676154a965749p03812M29004
62198b240557N68428d92128E94074J50701K34788a106406l67529k81873g63748
62188B280188J293362b7853q98296G72314o0874i54915K51983E53036L732961
62179D285997A158280b052809C5722O89321P09980R14002O3807K227245J427590
62170F067667B157365B95458J695539L00753B18981a338965j821312k474950f86126
62160B599527a116713c24717p60326m643345j581230k100870J060746Q1990K512991
62151e754761K811493I92007L32610e0300l285938j281139J67373K190916k03281
62142b462369l98870Q41172a535D07619O03512k61802L173484Q52589E30818c720223
62131c269990L98408Q86274h34716n39202j564254L78352C042341L973963j550268
62122E466036A639691a203019e51154B836536J097812j774126q50652J6179R86811
62113B312560p97117L855449K122860J84527o51090l084336D42384a431929C182979
62103C494727g29898j577177k366259R11608c71700m70505l527358J525723A733761
62093a616228K86847A587198L37737j53405a59279C42977P67293c406501j277923
62084d684424j445961b436907B53957J12675I5975a729584o77421o14719l216582
62075f238306k790630J152559c329794H37765b10317A533286M28342E40693i69559
62065A387239L667071J161849k519235N84772A344589k35621L482961k250434
62057B341495i5316j267190p33651a004635j896595O68223m30502d02565B920704
62047D252147B109653J06717r82184K6766N61524K14909p55134m05815B81561
62037b482146o77785a015203b10492B106129Q59946A140611g21860F29466r7003
62028E32463a821676j569205j625428r93882K236778c2669A254790a40354l822246
62019c962600l583644P17893J072965J414199P11967Q34811a50380C290724L338784
62010F629508j777878k107014I0209b500230P40052a24248j139206j280254p73492
62001c317200J512982A600936b307317k876177J073160J147406L75171M68397
61993b119360A382125d34660k807092p78898j308127j421636O82208a067044C3245
61983c060227J156114A476638J341862f7732m41875j702321j594744J322808N1786
61974b432078j672336a997717i08123o92474f99511r99013r8745e24467B3864
61964a221543m94379k924441j643536b614870d21159Q6071B18284a712933m27214
61955b140147e47861d1665l50217j441004j464801N02085m01348j121810J568587
61946b750173a293422B89625a785471j587005K34399n50080K60782a115013G1969
61936B442616O97845j367591J75842K963849J326554q81886A500646L50953C67131
61926b343206E41198J671184J101150j502748b273395l032034P29537J567280
61918c008612a195753A350335L543194m07078r30328j488138D09024O55001K283541
61909C347566R81734A850071B63573K455776J436270j314638H3656M16156R12496
61900A412308l33394B95564K36774L886158O77213I85542d0441o63762O9028A660564
61889B865396n64767o20043D90071A27585K664567A6298c094462F1963K040671
61880B102634J306206J546709k07081j37236j162332E85199P87231L37743j73615
61871A536558J759627L162175K758051j689560k336303l98407J521579j678970
61863D634750A138188a384357j602033j546993J01445J43759J036027K99906i38668
61853b998934k010386J486450L76899m561463K119354J254895a527596A865627
61844E69391c27681k0442p90745b89447B84384j18074R30672c3054p03356j645082
61834b381492n47659I03528K386468Q93307M54425k4994K08123l91141l05007
61825D124709A205746c36641q99645H80725L565383J294026j781772j290385A015282
61815A094330K44748O52043G46486J866864L586515L035931j64972l293828A285110
61805a720411q39134M95894j63631R38546A492549M47434a468972j270164i67020
61795C030085N16698b613318m1015b83642I01612a075274k375128j35485P02988
61786b882899E36100L738922K775735J138326k275110k151305D54518b672802
61777b620947j646374l27852J507531J433204j929938k317728l73653n09846K676354
61768d109249Q86619R29713J85193k143626L87884h68288C090793K924168k106251
61759C908710g09423B71441L445655M190329J158947m054655A37627a258134j398057
61750b656191j523838l36796J192375R4095j388511J212668F20834e46790k010953
61741b557743c01245F12423i77998k998207j513325K377349a10516m00463j114163
61732a625142I85872J427740K713107J26662c97001m090045n83070J718710a313494
61722a995D729132N21444k505008r09665Q03342f21571E79250a817855q33626
61713b651481a322183a9049B779841l94958a795404k959788J390882Q27790A23660
61703b822602m284135q8292K084298M39988J627181a105211H95590J55852a9618
61693a042314M5092I07619P61682l55396E09509a31791j20280k82004B55651c28906
61682a718957L42070A166889L416207J414353A182615b887587J284534H18996
61673A362522k44511j89974m31891c15003j660349j730160J064894g22238b31470
61663b140390R09369B880275J108315o71971n18760C88289a990724Q31708C06636
61653B689239j056010i90893m3265B93931L8127b040034j487739L93564q57654
61644c991863l801049J380150h92389A436085c64296j493794l82676A873315K656962
61635D530277j136649n41859e27377j412355m51626j89719M85772g99547c35262
61625A363497K613197r58143a727546k498728J006593P3096j438543J746743A02563
61615c443118K4627C34120K972581l04999j448421J107682L20915P55805p52267
61606B985416A286600B98744A00952a382937M15937j319356L61082h60511M11831
61597d48680A061056A82671c40818C12756b651145l180545m99958J309433A876571
61587E628116J14174A044124a978541i37500A316342i9165B116365l64312n48887
61578A203166j021C48823c205149g71026l46835E60686j79393a081049B71709
61568A757648B60325A647a18394A839793N67154A069508k96531a850614k548469
61559d399083Q9408K47664a740821a39727A890736J319732j234903a675375j101523
61550b776898J280784F30543a98935A99355J270884o31347q7389b32891l688351
61541c921242m073307K459482J935121F40149K473990K838068n14995k452959
61533B984253e61976k248406N74915j091803K43319h58168A540043Q15884A109681
61523c29385J33628j757637l107203K212249Q82602h00251A015068K464549L32345
61514C811962A011551d80128G82691J404213o15403F81898g55541k51749B92340
61504A06959J397284J135724J231279L584011L47437K87684L8589k909693j499473
61495C719801m32089A449493k40670N45220O03583L06915k36539J467659C72495
61485b884022h05843l80983A077437J503461b81729n168719l90283a874437K53884
61476a620553F40700L711679J539336j839339m26485K061046j344462c38802o197052
61467f535854J314614A340522M393620R13728k987820g08750k443546j445654
61459d597950M73988j779318k864746M20056M57085J201127P12170J010795K109586
61450b857207J038804A483693D27525b844661L07403j728495k531777j440409
61442h237939J185436p85401O39208K183797K360729J176894n11230p2213H31907
61432A954954R77522M42139j074566C93359b079625K34832a27892B455129L24393
61423B779522l6517J414690j080725j453069b76371B583663J661638o60885A743273
61413a268388k59053l98930M11329J6894O80288L28919A006591N44050K754632
61404D305273p65687j267170L28346J808212A027688h06864B83765J655620N2199
61395A991584p07096B3601c22124K9776j58281a16039o28828B179044J343587
61386C522631A571339A11154J075823l69422c010010a160950M75865m192397j898751
61377f776233j472520K741156c06647M9200l494945n23992a849212B311727N052314
61368G364041j644988B715952I86442P90155J286047q43486j063881e14864B10128
61358a455727o46735N63916q71094j913060Q31976h26919j384480j093426R22960
61349b381865L27727k433330l011795k058184J753999L507868M0835c33434B537661
61339A09802J13634b30095j819467o76521k259946m13406o47207K600503C42559
61329A294895g300j338202C51184K234074A209100e27457j508135G78509K31091
61320A009600l58856O99778J59561j94276C19024o8272L15004c213r74643k548255
61310c526111l85718l65019J065454L31177g19278B979629M950793J427792o12573
61301H745641J196936O51775l437059C134701H35076h80795q57999j761669O32967
61292b867496o63059l666268L393937e14875B235145B11619c949964k114249J133182
61283d931031a547426A862706K883657o52693J214819Q78817j241067L70733J578551
61274F895523j674091j777569n2043H04862N92871M14464m28601C65205f63853
61264i22023A622377e3297l32414A274763f12242I91629l28728b221625m139388
61255f361013k56619K068932a745446A655623c20845m473298J521058f11605M9501
61246e62104j764023k430692l42676j306147J858238J782205j529471J70488b81194
61236C46013b442002j052372Q8197l91531l395165p0809J728954J488394n56045
61227d602379J200066H58588J768292p68064q11428J096043B29849O72712J475958
61218B378519G19786J210293M40804D33485J545929J089869L105375J585577K15672
61209G975907j550172B191251r05399L431530j498597j338446p86349P51411J509524
61200C354925K78904J40575L88717j878125b629647o2585m78847O29320b66796
61190B661423a259577j639482j428305P3261a193022C54652a379691j759336h88111
61180B450734j084478M4252J545123I39677b021406q20164J96878F21783N53741
61171A175524l9366A56759c49793j197161C656457n66441c487448J0054a061102
61161B146672J508903o12194A258126J955660K244836k523105c18336l19356k11048
61152h48740j44904q85305j58284l536408j741413J708838b300377p19655p85991
61143c806023a063776B63761K383692O01379J588224k93736n38094L4923p87116
61134C253033A385991K857747J086344j197333j459463j291148J471132O12380
61126C465650j507279f69562p87910p76181K72740M35007p05108r98792m95617
61117c725423O76578O32039M00301A606333K201313k56395M49720j355705j315414
61108A329852n87393J157985l62687L67536L49438P46284j75417J715303O96184
61099E237085A990565j64976c19531m357900P44454A65665K591915R76544R20074
61090D654198A606661b325011j282141E3743P31237b38458I47441b377027p95865
61081c172892R04719k79664J056229j234186J087011D727803n54446g46981D03449
61071C394005A376147b596510k477567j177462k220160k710152J01597M634437
61063f445817K130276P65553A88306c23849j268238r05656n18440P63417J14072
61054b138694d88545E227415L15975B546749g9472k78851G26322b98009A215174
61044A458663O5440L005921n76912A634667A99987a318572j916343A374648K763652
61035D138300j717726c528j380692G1472O24263J904882A191325b085272j682648
61026c767920J647216E45218j52442e09581K43320k519017K39810A98840L145657
61017C344497a331312m187752J574020J486282L32748k450364l375466o3535J100569
61008f914810L5890J069372K152467K78436M98734J275418K00307m84874e9819
60998B22394P69305h11771m240251r54960k81370J945061J641291a342391k09261
60989a551652l36221j509799J538771D021702K854967B691871b795600j040516
60981c836116k32254J294524A887590K874377r30155B84954b715134k10465O78176
60972b247423h15365C10486A08612a267227a33144k128137j185862a407890J5816
60963a392074A224646C09862a11386H38430N34770F2319N03552R56043K181640
60954C703554J791392Q88326l031397j177393k21493K385849j729301I13312g08578
60944d648172L22089J764151j67340J71122g41321B11881c493269k302394J361076
60935d434587b181572k11267N64443k44788i43456b06493Q458A139690g1662l395298
60925c466960n32392m71885j527234j009070J092918b673683a211482c25154G2174
60915B394826P97766q55133A037464a469335j770190J392473j107644j564008
60907d518704P65350J659212q06173j397648q35476J287818O50363J099247k47494
60898b343505l42802k26713Q37821E04627K676892G26930A88664b1591j807246
60889a828837l11566g75086B431944B88241c325587J98181J547770l08504m2021
60880a930161h89868B753811K491708A793091c009820K53107g08886A249792K473458
60871C723250K132166J287830q5618j769866k416670n75740J088878m57111A035239
60861A259111h73296j059055d06575B915500A263712b929899m99213J256449k087847
60852d260510j34274P08610a443277A216253L78094e90632A070453j85861k36503
60843F48089A03056c043193m25334J397305k086885j136772J334491N56645j69949
60834c573692k43231M98441M864j90527a693899d66988k04037j788107D98904
60824C168156L685358M99573k242081A963934o79361J354465A082709a536062
60815b361944J002932L19691B91092j43090d81322j550761l86795i59536A461258
60805B465103k49159r70586b528634j321214J882764B434770M50663P51834P3462
60796C710729q81363j58606K137876Q47526j295662k136420o16411J778640A448624
60786A040240Q78640J667516c46002m529582i57365B852141o46891P55764K94275
60777C255289Q92428L26133j253896L82120J321775j017890A510216L48130o72530
60768A185816n19148R50183Q95862K423839k189943a33660C945b93057j78657
60759d71714k891362k746003r413b436144M30628j571125g45311A064471c52045
60749d012778a037604M78534k031245P48889f70772b15130m57815o01143C42039
60739A704290L970046K420400j931812C15908a159941A246378Q37678L39922e44374
60729e13051a52506p90346q45378j429236n37019j802897l369006n91970c959326
60719A917405J852595R62549K35879j981015C9321c403190J172800O24128a99540
60709a946394j222113k530807K127410P57020a57427F27746O71922F35955c326529
60699a453131A922927D78632J82986r2277R1149k1182a70175j48148D35622a03699
60688a165820o22830A427320n38226L43981K329997J546670J550987k176278j969717
60679B514734q44918b406690j574862h36463B997969K545097B753426F16673j09322
60670E07351J121917m41664J50026a797883g10092A556712F61074J276937b05353
60660a802199n61649C42952J406729M39156K929527j479146A71895b583811n9687
60651b643498J277788j400242N56857C21104J298318J0376a687669O97278E67656
60641I69761c65360j59024H59954M25882B52721K304177K07672H82569b09058
60631c336763J15090A28682P0056b363677L62210A619783L061307Q25020B528747
60621E36999K715470P00995Q53765l34553K1572J875971k05959P84580j025621
60612E923219R04174k801089D2386J276369K912665p61100o36469c68273m189635
60603d557908r01857J151258K050127F4147a432166j403799E47515M055866K378233
60594F981614j223803d24181j997103e18013C419540j402795k75517M0013G11799
60584C33963a276630N92927k026060Q28851J0938j271895a003059B282367P26757
60575C009124a00138l49241C077691R14936A520581p09713D03650l3251r3314
60566B77085A4155J106036K325327K148921J719709k941164D15053f0506A051465
60556B471729N86105A436160F4536K93179K800660K705467K264274j895327B407842
60546a69571q17751j831243a282141K9559j556943k766147k43515b838880o20577
60537c459457j170579o0013Q50956m3243j083693K34293a462078H11102O49130
60528A460232A30834i67928F59248d63134b10239L6782k238170e22349A285204
60518B301729a707865c33524A206936Q07074R75989J559824l86941n45008M64643
60509D082517K07412r92623D36308a02640A821188J532714K836629M34587A381880
60499a601567L0528n3303j105370i61516A586552K640413p91099K0430j207162
60490B249134o46427J495199J120165r62540G89823L39845L269532K487757k253011
60481D633946k218674J121332R35129J286320A890141b232054k262144P13070
60473c781128a137201M08410j227940p45806E41692M573434L52169B012664r53579
60464A059085e87929A701543J597358p58216a378589k329706R8296O63023L90948
60455b556028a033209c59817l717649l383869K847708b298138J046323o52332
60447a904147P04059B551905J818696j070795A535197m32894P41169J92589F8216
60437a14813B71759P03613J05355J219531l65311p36259a156664l951940j60089
60428e268693i88331j170204k465594j678011m44685J893126a172093r48281l211750
60419e332124k707180p63690J270136j247476L425356g0259C344119P65343j834893
60410B274569G54878R25024J565004j032442H59009J34177b016245j156911R90125
60401b183031F55067L344946J238257Q06472L250614M56132l522519j403588L21796
60392E147177B305151b448049o80514b74052A375858C63358b925060n71116k3541
60383c519717a560545k04902j555176P68874n94006J132177A031816K133272K287824
60374E452912o98526q43332A250558g92242o22640A227388J071467J877499K477077
60365F653431k042083E60419f58131r94067j730771J426398q89079R29379k7859
60356a944130k029322k173129l68584J250873j87859J611672J728476k228905
60348d340908p77608J684510q20708Q84419J627725j120893j678537n61151b333834
60338b774122m70873g64117A057747J866739L386151j077338B071886e12528H56714
60328A906285Q76897K13480I06970e6733G47046f11684r47367q57757r40643j722710
60318e080161J337696G45319L985500m55665F76858O04760Q22253k06121b877342
60308a541577a09749C70797a342605l199797r25512b486819h72095m70214e27232
60298b1585j227646l096314l40081J946250B891336L355954q91715J005070B903632
60288h57959G0979b19512A817646K20246b031434l131774b119905b91804j148729
60279a440533q5290A017664M66940L77683G04320L03015D67832g96387I33724
60269E991167M230362R98454N4067k645989l805984A855962c47788l455349R63075
60260b840062K27613L61089K47085K48790k924521m88722j447999J2432K866955
60251c737340n98566k8208K07382q94598j413006k578032k511110J261306d640266
60241a897284f65075A425258P38709r85252J401719p48787a98789r15199J47981
60232i66007j210031k111267R4279a367989l11255N60082E55670L98858h50501
60222a828548d22612A525019b141088j53008n10154j341811f98511f1247l31844
60213c93091I72350j53795c19023n07295p7920b14020A303830N67776B93770b924707
60202c592170M85861i53385A599573c56118G1508N11982i23528b0245k894227
60193b914472l717389o14521k93028j128351K526650J432640K93500J837070k61391
60184b839292J090790D6679N192g14761n69868G04462O99231j12493L93857D61944
60173i48914q83891h47095b25438B429723J991200L517123R76756j348590j36721
60164G429491k28177j603476A913078k09626D34297N04567d54163l362034i05430
60154G63283O77638h44003l37212A033385l65830J467661L68534r83421f00237
60144a145891f0334B914444k51707M00727R34997J937141L198002k140101b50696
60134b955795k20907P38267H75356J400037a35109m28780B083324L97479r38161
60125A542642D25590a363761k510032M62309A718399J222622a300679l503297
60117d803976L56013g28510A205566L9642A30986O90743a48160E11944n6901a442679
60106a76922C147382l75054E35216N41797P56438N57344K799465l81879j672127
60097C136254D81263b009410g91273A291346N55834o20242J627042J831249K07314
60088D892543B410559C14632a069509j42894b23390C110973K673335j57675j936895
60079C689738q40759N62638J675072k370649A226717b45135A57126J882124r8722
60070A940528J752467J617355j645361I67562k8781r9802Q83240Q26513q83053
60061A665679F68419K55685N4689e92045k57844b17920j080924L09060c49148
60051a072291j57308G77153K830677J893422Q50636j422290j982324A342185A39565
60041C99393K473581j13931r94014L45632d44920k914172Q98842R65864J26444
60032a367942j160893o83421J425090A245283K195347J167411Q25020k034737
60024C398324i79165o41895d07613k252803j824964k90409R57993J842K46390
60015c569564P16695f67835H53543J066882D23183a843055j714616J094727J60700
60006b302244a76979k48552k94081B219471K299615J514839J28498k179191A32425
59996g73093B30933K77729d41531j453723c23905M6911r05662b67966k631317
59987b899283j954299a920696R8686k434087J068230M23695j89772p7286e77785
59977C391692j169051F17800L49133a691072j885262a648338L53919o12697j008428
59968b915544P22070A434033B63126a951766Q33645A007167k68131g53213j410267
59959b163480j301399a316189A763081o1777o61942k34807A06569J361885Q21649
59950B290103L65897K059665j917586i68407m105964O25409a135393C90277N83428
59941I73705a71076q67922H4449K817359J203102j641819o33870H23397O4426
59932H87823K278834H75998b57662G66747J835675K254218k26501G77643a400870
59922g82214F334O77827d25610E58685J589018K112165R27318j200468c38747
59912b089673h52817o08389M65166B628202J520532A742529C682g27629k171012
59903b898641n69093J289559Q24189I769Q95801b895374k179663n97206J324355
59894d347888J96092I9052L972290K116441j862464a09690q45343j226358M23980
59885a757411A251274K527773j768472Q63635K500765A234008d69369j632053
59877b101422Q08217A6945J391073e49748p66645o44776p9200d34169B282615
59867B541590N71152I78354K76958L599979K831911m80707k901495j931751A69703
59857a676207e38760B770720M61501m66243Q11134m16554N25977L372604O88876
59848G748015C351861b149449k0246J4236l03409b70204B100427N54363o61408
59839A993382k08689f54006r52455L95851e24848C18597J076344J247365q23102
59830A819204E61488r9050A537a825566m80977R89080A321358b349871a053113
59820B335330I12985c177475j90116F16355P28666J636566r06263J110720L062347
59811F248391k345805j036254a562190d80098E65396d8935B355813P42469J449212
59802D547494j879130B90154c57478k135143i51596A101449j73144m05700K969481
59793C492086O341571J695869k667834l993851L97860K946868q36280C631676
59784C255426n22185h94855E21449a817112k600947b068910D17006R29797B98986
59774A773612J836251M96557A862697J880777L746647q03395j224501k614605
59766B847620R85106J733670J308310k534929a88002l0901B503667J406715K284897
59757F195279j5628k238637j073800r08858l94093F19606j71882a166423e346
59747A589278b125929l321415K44760R29040b06522A849141J237606R04378A270363
59737b122022A399010L344886q98634A078271d272011j897762K002142J220293
59729b947338J314923e61615j447665k070531J384102c48833m82104B71663L257971
59720C529634j210162b084148P3536E48379J86557a284843l663045M00915b127750
59710C56051P49634a638861f41673F44846J14944c802239k912417K258745e08922
59700G31983b830678k350733J132841J673967Q65823j67958l18124Q87359C94987
59690A79287c096951P1016o81170L80998J72692o73191a433234F86532L59559
59681A046091D85793b036443j603257h45968B893353j174355a214601o6798l507
59672a284906A148411i2978j999610N34622j421874l049046l86233K59998J665672
59663d489449m25847g86152a81645g4824k38868o77426p14181l56848j485660
59654c547807j025036j086803b100157A288003F38652Q01940d01697o73116A957933
59644C992248n93668L319081j365912j640680j293211C09755M61177K93725k66458
59635G98199R31067q01552b045498j055618J15047J7668A98597K790882j10900
59626B878579j304675F52063g94741m66920N32685C04873b163185k725357P13958
59617d174584J035814p8377D6279K247357I61428a836082j940645h92330B78314
59607D5183c12932j781095j472585Q57635B342549M250765N53746B649926E68078
59597A108462L016181O8415m0475o28727A180474f6988n5824k874546g06757B931966
59586D741624B156289a11228n74686k376079j522288m33114p36842M07001K308797
59577c038439J309005k617988k693692K01224q59756O11617K701248A14562L36651
59568D51213K08570d11325m146613n088342p05686K712464L455642h86807B511076
59558B392377F07688k26864L7969h26714k336734n84874O76578J71074m92428
59549c393098r6351j726643n0537q54893Q62215J115096J932586J030819C13169
59539A452052J380211K991650j348620A420747M52843a844560k177621j05299
59531d127480j093796b400193J091619o82396q53721j691921j693834Q17017a541498
59521A603488J91716K478365Q78822j950535q42691C22266M59018K105880J04035
59512B991199O2064a328496j433502h66712I1074J6258h43155b51863A498980
59502f28144R8874j319778m2426b46797A67018b026215o66394J70410A719078
59492D216223A843181b0961A391884a78521j795094C49650b959944r46453a054849
59482a355101A73860J596921C18827c58818A081747J643398L04060k76713q2743
59473B669749M1034K323503q93320A515871a409048A018108R4520e03847j128675
59464a632522f06299j398852L04668A762556q20495b310854R99236f54911H73051
59454B284736e54594j819148a051799C844466j203348E54852J015797K838352
59446D409001A362987a979582N76960c61817D46719J425537K391477o16791j480023
59437B166919k99282I21448d36103A878260J394525q95057h34753j333923n92157
59428b760833J239707O61091l90750j032706E97308J167198G45092a78723k947202
59419c125925j417951m26163K177341b26907j554071K44320F01667J417805o82963
59410A336509l19314c42847j059999J84967C89428K671516J866372j000900A95884
59400G38314M110377J042183k565252J678951n09429c714648m529129J336332
59392f907445l7237k909200J642511K648646Q35036o73917j920007J649929J351468
59383d320216P95973a057471j394738r96491k69582b57064C172667q28234P75951
59374C120384K039851q852I40399K051164J852925k029498G22300K2596a186099
59364a076740k422644K32580p65439J219278R76435j941102k432571k315205J713076
59355f812332c269208J517407j256260K33734q66826R00902J036102B523223J150938
59346C674161r31497m9352K134745J989937k321868H89819B50305Q68585J066451
59337B185341J646544m19073D44136K7064K875448J546062A892511a893182j198997
59328c092179N03872j306871n49391K29886J420406j960882l314044b604331c06646
59318F7268f29062q97682j929289j291183M7409a054305A469329a059284J48530
59309i10754r32775l147065K121503C96722A41707a458983q41067J011672B505410
59299D921586p92012A769279a520623E72838K024420L241770J374418k194605
59291E018841j220451A621104n29299J353530J183224q47195G62895i06510k436932
59282c343442j438835O7573j495616J600178A55346K202193J81305a374037m380850
59273e754887q12744L103643A193502L017392K29358I17642a517983n023661O05282
59264e936362b80099A298111L973985k603541b679299l97877R90016A648482L087864
59255D736346P6472K3601R84140J492163C045993F7971e84894k335282i68254
59245B251566C18065b67089C257698B44306b885632l44664J368346k57440f88418
59235i7676A883943K148982L68852j968459j83364E38452b825119k002750L28435
59226d499434J964746j128263P11821i1284p77895L07822A62032e39164j618475
59217b157639e11303C183907K512216B463090M70490N52775j149281B36095d90273
59207a042387J69936n05424j493410j543639J166184a363410k087300J87757j294069
59198d557022j339802O45732J255764a546152K52437k945415j440454j201396
59190f880980o07391K393397A9273J488971N02943A21788l4334J793868a060604
59180d210306j366899K551234a476305p1792P23930l647423j214671K562772L29710
59171b793779k00360P51214k705321k224307J890201K386773j328035m05666K081956
59162b547324j245734Q35129F77368M10034E42111c81205k895788p67741l13591
59153d358325J064095M25884k8J315128d97737j271814e49241A393308E60716
59143A160496C81063K58837a7836B816593K807297M94419j177566q14776J357290
59134E483257k408994j406788i61950j570039e22419B134168m86627J561330K651915
59125E860786K593842J690871l017269C223376j286417a87381l584541j747103
59117e519025j488646K411937J741479l77822j014386p66291m165264J39130L850063
59108e188825a651644A206575o9799b363479p45087C13096J062886L42691d23758
59098g98777p56746K42368A184549K193991E93792N17036K031301O69550r49640
59089B862039o96918D46346b545394o58027R91098H37311L873641K767613k324796
59080E153769j320741j464308q22456i65436k680392p57653k361762J635178b249247
59070b229748N75932m42223j902753j345072a661539C7320f96791r68771F55277
59060B732786L66332q2616j75127r02349J405826j81607K059620B205956O71443
59051B877399K031826m77752j8185O25472M03308j31626J757226L042576k654236
59042G456008l645434c01328k506882k862035O77820b326835B10564K169957L269783
59033E650304q85385B61965b168836N86888j13006B812216K918987j155177j209404
59024C366622P61292j613196J14649A083241a222597a50162j480153A31855K488891
59015B620746C11434a080764B649155J453114J144187A887864b278024j804235
59007d082259q599r943a142613A490882A32194c047253j580082O59340k4721m26123
58997d418839L44289a151623l22926j742884H06901K305243M05749j041997I07808
58987E51851d869136k205353c227548a8466k421192j102092L83866j99101a606231
58977A701231J086594J738966L9265o7545j501356e73405A461982K807762P40938
58968E010682J269829J64833k204515H35763b336049J011247L1939j26102f06286
58958b130420k26895a60298E81252m6397Q28182L07730J566522r21505r55952
58949A359832k01110J987059M06930R88873N62355l43687E27124b283256C44989
58939C178164J052418r54205N31016K232715J091151k88443j095395k019640A835718
58929a93701l89735F51957J757527q79871a093915q46300m59705p36920R50747
58920b186093N29505q44294j143422p54883m4342a846140G1822J669594Q15708
58911B557124J195584J720292k485655J034522l62316n70564J30220A579440a532190
58901e723393K13588J852204O58293m86191J643251b55598D79396K936326l06470
58892C109252J537149K51559A47681c339433i80301B822902j99964m43748J273236
58883C452426k15512m74062n98367K047187l54948L7686J356927B546044n06523
58874B039521b73349k244875j89533N02715A510652K442777Q58393L38894p05187
58865D445529j231721n32140B77391f96755D30753P12699J606945K175533k412969
58856B512961A176439a94592j31812F35216K354508J394726F24090f589503j63433
58847f752936a835407B139846J114009j26033J198474r18302A419723k08519l29060
58838H82144P78280F9627a1041A122459f10551G00081k05920e6713A282336j07031
58828A175305n69678a535358m05427A096088B63600h51718G76085b74893j432821
58819a707714c07279G65072a509453k440300l04461J315274a121639G61202n4856
58810G06346J637015P30638r49047I99981J804766j266089K035687J587834j900403
58801C261776K81192J878132j82288A735016L28154J303516M41004n61308K611347
58792E857729k82905k048263J576064J505039r23202A971618A85617a116734l032604
58783d149338O42780a631623r65550k913511J51207b324555J132400j54457N31380
58774h15232n67974j27928O6569e07346B157881L697140L14160j506537j002122
58765C660522N3278Q36848j910008A313559O55547H15817c25103A66526J758003
58756A924529L340551j212410j903989J834496Q15231B023931h78671P2055o217
58747h12833A0635N7966M8144e71797A329695J281307A248587K071839j70443
58738C149983J709918Q6914B153040q02959a411611j491978A135605L268564j966148
58729B438021g34787B54976K901855J723687j259758A68994J914872k02778J983980
58720C865068r53155A363745L232481j653744m53212K843516m50586J532504M23054
58711F837758C381040j319528q42401A88900c89202A419549J809836J20838K77071
58702C627294K179321N97489J343796J563586k546275A16703a812821l97217A265860
58692C617096j762131b085645J43911B071546J794133p73717J32534A311015b04027
58682A737789L115967J47513A076095b739180Q3252b51418B848548J092551M51847
58673D392946G90396Q24149K8695b151051c33074A606172J470945J418293N64510
58664E059920r11105j768776O10509K291760O71890B373466m58363q50387i08089
58654a445063j421531P26041Q69707k716511k160902K610231l70781j039867R82778
58645c965898a50354B167737E30761a385533m108073l051963J800573K479544
58637d265452a945914j494961J089923a30646L1826j815264j589998J115245I1709
58627F26715M41003a578989k393950j429844M77265P65687a061293D926384O168825
58618A1095209J031913k178381k94920L078672n066235B858230b6448j860226
58610a886674R15582b31431l54835c5789C38715e70344p72637K94239C34131j03983
58600B30148J696180q31635h84763m27289b75078j263084m31472o61775r14109
58591c545518a95038F03840J714174L330413J387623k206519A777209E57122e66393
58581b368381a157186K93901I90577P78058O22695j73742p40021K637759K621797
58572F737123J096755l024867A968024J580083j738341A36069f7073A053406f91468
58562b206698j299066J040890g66596j40493L37083A270820J097646O70505N43599
58553C582570M12131k92588A041606e10681A919363P43404C61439J466164m52456
58544A375147d52770q854j508718m83155b5044C66866c75929C98396N0469a973167
58533b777464L06977m05447O28466I04116O75690a173666j176042Q58200f47730
58523b444375j194191J456654b19122A253091b29002A414467K612778l50492f62271
58513b586025e10443A165097K141069k42768I25348K84685n05894J029040N63664
58504B296843a080477k141556I29636L977021B329078i02263o68825J29013j068301
58495b510376J85976c34862l17356l00585j872667j97312B33366K601323N47570
58486C382259R31988j39240P02408K811083j225547k722399A761300j40750N04133
58477B124683J96454A66846b092825j647044r49527J275325A79003L368531o35276
58468B912258a509206j454246J279189e50382j772131k841655P12740J867779
58460b583649M15462l93258o52877j447683j280214n84532K953312H69396M121232
58451D990628B140138H80267K7158Q57242Q69015m71438n09220K280810J63206
58442D097040A468179J516966j200231B01968b047356i88220B884249J368348
58434D252597L12425J379371j727742M78090j697941a77466p08497j232323k146786
58425d265072k107049K640950C32007a191435j242573q38655o24337P17657a320382
58415C42105M12067P23305K075850K02949j691955N5N35777J246817J623876j527353
58405C943493a120760O6947C272219J116424A588479H576b145886a019609k11939
58396a231548j150372J153678F64090J34455c29239q10155A649026L565656J686057
58387F900739j735906A721027i01371j081128h09746A756949m97208d576582N14524
58378d062058I88800K829369c51517p07557c84843o59370k50445k596947k590092
58369f481697K098700a809029E23221J147327J238585L32744J914305q45306l99553
58360C911323Q18788A658776M23272n06969n31011N92591C8291b80536B347802
58350C646909N56854j331089j063705g83597n128494j148330J602430J315650
58342d142341a755684I27899a067558j684467J061032r09807M43917M62593C18072
58332B851160o58392p56107k1323B28954f19742B522742J75824d4986C05248a421319
58321e5593G21450i30089G75152j40997h24720j0443m95637m27167N02553e92028
58310A22764a313701C60669L600924K1395j548167C39937a280270k8247L00106
58301a008411n0880e06448j578623j353514O3632J050049m35634k615837k176956
58292g553331r92444m62997K906560b768161j82661l259767K913708a24446B79514
58282A211576J105765J850622j449558d17104B95835J178695c69022o31284K94578
58273g05728A175487J048304K155372k60553r16579G53939a2322j125438k590779
58264c728539a272042O2412j922261J447770p06767r45944B65534Q17123a487532
58254e897580J749437I66620L02492O96028J00551J401663r20142M0563r7487
58245B490288k86479p55014O6046J86247n39621a105331d18577o75376I65565
58235B821009j87261A62636b663312k270719J725773e74198D91706f13984o1330
58226f75314k11780A092958Q97521d07387k638744k052871J206878D38647K045989
58217B484636H84861l82115K223387O34489I19445A88956f46653P7676A284414
58207a27468l260369k550573O47702J630677D88843J016408I6124a239423n36228
58198a775651C61023g38549j269341E69595K819497J2927A246613a706957n84974
58189b291931b63681B837858A234143c713751j101278O79720j533816k49473J524569
58180d394029J118158N9292B336588P85288f74361m54294J22869j117298I24004
58170E345305o85559A240968C48549i32705k267888O14865b871C049957K49346
58161C299303a728479k412920r77958Q95675a392402m98086N66645A036390B97322
58151A761910N57348a089504j275544B335365O81601j114773F73741L56352N47734
58142A577827i98772l831674K336391A964702J153889c36142k765809p99627j210165
58133e111743l236234K088298E23165A49888a988818P0792j103856k228382m269816
58124i520080J78048L296030J385505a705972q57960j147183a729835F72060L10991
58115I83051J303426G53346b93604J05277A343390A3131J293074B56531a690643
58105a430818l44195k7690e63370b15874C586499K510359k107708j973213J641599
58096C657536R0598J443422J43551J23974j276494j879289r43793K09977K500142
58087D069624K510053j14313k743135A531304o50691L305133A358743a98149A097003
58077B497746K915264O88771B713264A53270g8767F33061D6280J64705b555156
58067f832311K815P90629K424544i41017C127230q88245j076089h60899F40005
58057B800868L10219J54543j473169l34127J062395J700506o35043O23745R38138
58048E148075J64791n01989B036800B50747O94462B09019b833187l85177Q61657
58039b356707P77221k268998k4045m77973J220980H40453l55229r8748J349420
58030A735896C27149b61095j813622n51482q00123L5431j286698J826268L49210
58021b502111j399516L5296g68102E65757Q38899K80195J459559j76368j363546
58012A604496m20962K685623A131890h81198p34853m1469A200532M298905l67439
58003E131998k014983I15555l26653J007204e18625l695052J204016J067315Q22711
57994a119635F78305N097543J874595C252552d59316l462891J530087d40940j461170
57985a902110R7418C94666J118893J062123J947660p59633A834646K479784j40582
57976D173848A58411f58568O1387H64757M405244K71860o41897j558184q53875
57967B487905m6333k51527c50661p67157H55432J482663K88889O23734j043565
57958B207153J16112J379626K36798p15072J157628J976193J105533B093500d67227
57948i57155n69736l0197B5175N80605b388244p52329n31389J147559J118658
57939a405745P1855j827407m06414B8727N51397P90749J584130c79529n480580
57930e860109b090688B564797J079412k23399N5687J11848a187946k233299P33561
57921b687684J223058k181241J451085f36019D62974J411800L401373J641406
57913F917553k89421k335101k076077e86371l91298j241305j390129a081069j572283
57904b653352P41971C19117K834222j91314A327340B52425g61395n85631j248471
57895b595497o40097J347177j03929o16822N76146B21299M922O85502M24466J039153
57885B375342q75220d99429k814609J046682a24808A710927j84758h94693D21680
57875D565901j315265e8361n154820j915499J882580j542217l307804J711383
57867h384738K401766K300420a554483j439743L70753I48927J473011J674038
57859D095976k023498g73021D1123R47728M1753b642395q47034n73388j456180
57850e518997O98083a606657F14867I9252K69108J206612K37883J547258Q21750
57841D181863j554931B07687b412564g13387g1371j1403G28752g84414k903747
57832c688161j345315q69734b365372f04350m41712E9791b545299n83831O47273
57823b481857e01789C053525J265984j617560A209842j5672J766208n54588L19262
57814B725052a97275j739236L19708j444537a189926E92181j14884a203258d6108
57804g57149j710945j545503J246477J092375b45546j795217k148558p32666J116134
57795c805853j7176j08298h52010A882029K627375j095407j287156b471595j158872
57786c630467m211011j819141K003542c717730J679932j717435j468092K058583
57778c164742B85755K736877j241851L55500L20342H45437J392847m38453M05228
57769B205059J551995A838572a199272L85681p12959k033641j115878J812823
57761b863246N68821P43536b61795p35380r01495j457566j055703P19303j79641
57752c872277G7000K148339l11935j99770M5537H49789a769721L17148c12483
57742f84672A787010K460143p18872j51200C01185a129685J24332G15149L92282
57733A107431B37245J040473J982369F56169B72008K406086M70484j315545o47797
57724A185236N383B28424A02636J97507b058990b50758m99843j369239k737967
57715d857807O60391J975047f56082A01968b361603j387226G66036M303395l16697
57706D752734l76515J003030P5208k483970A388718g85184o79143D35336F4340
57696a875724k173896l90693j180867l597997L539998b642816O77994h43157A485767
57686A719345K107227k68250A046499R79156J469123j635958n55606J002514K449212
57677D754940j371320r45724c10223l31403l48166K1986j636262j494619k840594
57668f939281J254836P29881N95015J530216J330369o1198o55512e91683B328695
57658A327805g83649A221433j62134r6601a332472j882138J486180A255186l67675
57649H87511a783205l810369j50618J348814b146706b39419I03062f00018j667791
57640b267809b39032B83445a67298G45525Q2835b97635k487224k536900J657177
57631c664582H83777K713017R04816A715336a020575j116465n18613q16666a462050
57621e12049H17373J700456o78509B70001b545007H29980J113824a053479N1648
57612a001831H61307a356118k415449J318267M53427k495432Q67452R08219a356783
57602a20600A891803H07990b25158j15879o53890a09210A363799J973635J64849
57593C502283J067868m69969J809872j015553A854609b295863K24811e52165A31496
57583D05199B9945b43008A209480d34046k599495k733641K122951f15081G37241
57573a983774j239499O21929P09753K64927j890025r15263L58958a071444M46279
57564f25165D73518Q94969K891575H73557i22922j281180p46293j676957k116104
57555f743456J991196a054565C154631K400346M39902q56802L01555k292670F31204
57545g25710j031841l595200n80403K439283c73851p95031k811226a539365A424316
57535b90421H74575M59984R26886A033023R47857K65298K38035J152659J650644
57526E287516L41079j420848l55827A771417C95482P65056L393413L56086k5630
57517D884407l1764A385820b686782j065599q64663L46786Q22240o21028j223866
57508e292912p80180K480742M22936j120629a257316A730389A09258g93870B86572
57498A565338l48855q047L096071K233405k842254A678104Q67981J291424j076856
57489B760653A0129f87326J1329n19195A45677f00128B78869O90117J501727K46479
57479B717192q71453J304650A219146R57895L21446E93382e25272I53961J748438
57470B702399n25437F07958M99344g24701A592132K320703k69131q40396j269332
57461A533976b96992j231176M65416H48254J284815N60213P99626P06172N61635
57452D760715o56438g18667n714064O50L077011k2488l342818n38239L618800
57443c639815D60349R92648B91661b985007k819353J607872a727860F9123K76540
57434C45663K59815Q58972j63509b22710l234702q81109M99290a829234d30171
57424h49245j313683C38663K236593A215124B10503e33104j301358j013413b7869
57414f58948k79020k331376h57236A042859k48839C90296K38689c78794k891283
57405c270077m48010J586337a05274A823132m06406a01213G62324N86496a106930
57395a677298M74314B19434a868327A040883P40388d71734j03647m06278k283553
57386c265212P0260a259848b87406A029628j07783L74261b900502l499297J206471
57377e193328k958881k177668L59189j680990K462446c884723e76423j92594B534356
57367E000009R03837K39764j015976H72427a966020l041148o40214N85642O51745
57358d409995J227180B605451K824333B418384b763910P41580B03326b173140
57349d350154a870275A000667j06975c05882C200055J165703j044387M14785j15306
57340C620850A223476D30247a318697K40569n47301A95669L76372e26812k568550
57331c095362h94581a5574k994860k76497Q91858E86015K193667F07281a424791
57321B87130N22178a579559J72729B943641L423896Q19053k131420A837745l91754
57312A445991J267254p35439r04713b041121N4386a43428n41953j301674Q84445
57303a102610o35548j051762a052085p51549k029612q80693A426760M964352k194355
57294D196757j599098L924683O65888j198685j139107o10902m63852p30152A293862
57284b65309j866178M73123B172055m50111B7203K34200J340425J688748J01414
57275C391990A401950B18001a170872a9682A677886P26137J335039K51009j313081
57266B676990f13188k854426R53583B117963M24858B9498b071501e47950m73665
57257a021615k39682j93421D04792K106114O29925O83457E03613d61604H02140
57247a937357N0673O61691k120632o38335B8479K158551k75250b99581H87265
57237B581432E26395L89006m43922a379354o75893a3162A454775J566767J629432
57228D650974J743640j019236A855305h63230L52346m064507K17658j029321P10457
57219d676597a818068i06168m19438n67515c28537A39376a244444O6263N22196
57210f55985j540485J003998A818826a95902l615544Q4334j672859j069491J620492
57201d848970K359207a186460J7335j160562o12451q45345C09579L19712b556242
57191c603805N9348j486976J246904a414350A887768C67164b270102Q40357K44598
57182a185147d7541A757131L61916o73885a243157K93620k088777j410711e33702
57172a322776k307715M09349d17459B59521b307454m461564J07572a755886G32607
57162d76103l938010P00864G87316J03813e99944C247217j231995f53891j834583
57153b488474j901984j38857O36818J435942a8845A331488f63168l985350J051534
57144c596984J765000o02872q08796j69255O73177R11639r06688K28609L65493
57135b140677R50646c24355j38359j484341n29362k15042j602449k231140p73116
57126g298164P19792J863067Q72145l100449j599711M74314J102488J811609K442397
57117b712512e73746P9144q5909j694868N26978P07479j122584q89902J187223
57108a866185a40578A164060J040863J949734j803940h56018B234344m34539A41510
57098B858020I93279b09921n61580o60870q57172P17783f49532q92377K60826
57089a281083j254535Q69463p43172p7334h18050A2468K11998K306817P31602
57080C262885p22010A184607k05435J113578M035152N96440B119772A6492f7224
57070D52436a714500K79532A05712a088628j812858a445912H55228B82650P44409
57061A027059N585707J579354k938860I45057g06941k370325j078412a860658
57052A706863O19013P31671M24112F71425a804753m50339E4548a435447l867066
57043e302513j020866J344478B88699L688941K334126J072155j922969p05916
57035D755036j244267q00416O63836j128364a143341m697182J406868n84507j95995
57026e214157J702112J00188j554138J283876D0166J044773f18491B420362J641393
57017D061755L34192m36171E65786f72724A245724P77265f59957A069127L34949
57008A404076R06188r38307E27740J693484J174574A417643m43009b084052l417472
56999e501524O59892a365146A291557A28194P3220K235737J302576K45737R6899
56990D082363o61530r68582D15156O19234K246909p12949J058998J544224A927619
56980B947645J236953j779821E93063a354125R0734j116109P6984E1153O93053
56971G44206a538043j618767j080819M5488a583568O68660j039260k02795p96220
56962b953183P43113A262100m1711b91578j896385l65666k616046K07796f81428
56952G8418M040558K254404n38623B702014E24953e48796q51955k621760k14067
56943d236578R58733N29221j173496J05020m19658r35389J319651a29319k027632
56934b156951k885286J545968C0286J946007J381195j145285H62601O79638M61305
56925B003544a085886k82702O52903B216931R94771p06267L46502J96676R80006
56916D028619j211173b24081j100075j556755p51141Q04044O66539j407235k884777
56907f453481K936365B30418J420518a38409n82464D9318Q54885k30374g00857
56897b728512J296078A355324K418753j0629j371231k55518E35839e59336K47156
56888c12180D28434M32877a457765L30669M76059j307750P41605j154429i75687
56878A69131a956880j961224j0761j719530J063263k7334K47185g94617A774777
56868A370282n78964L08127c28577J39526l033752N72859J016429J43176j714952
56859c205291j232365J375066g91035I67207P40923p8046H10439a281611p48707
56850b030318a27855D848515N193598M34192l336983A202625d46090B012926J921092
56841C934018K707080M6523A964908b631524j232708a922089f00509C58990M99836
56832H58826c87591B448421l60580a228312l016192M39562a839606K34405q88865
56823b494066q92995P63580J085286e92751j920334N05345H28569C44901J061267
56814A406168A42906a099776L18356l524332k704790R4939n54395J833312K62077
56805e374609J560273l66663K014837k89243J40225i34834I93144A50553O76316
56796H26869h40631l160940k789390K050380b269759J196j833670J957545F57482
56786A246544K253308O47679R16424Q20511k22980A904357d041678M51589E6885
56776F26115a207028j096893c80312a89588m169919o78655h03596C415115A311627
56766a632555A638448K153533K39887A598375a340948q43058M3429B35709K416001
56757B651710J66333A005499b185636P68978F34174a452688d63677B031169b077848
56747a489898A751462C02918h12575m15661E39819J158981C52368J244066L250001
56738D846435n47212H81520B03866c24707m17060A054317P50663Q63741K042574
56729D711295J031298k433768E84986O37847K231264A688333a841784j505912
56721c347696d44924E059180J513908j56875j598578j137739j618490A005408
56712A410406R20383o12717a26385j563436B67541L790955K2650L14060q66341
56703C528865l97836P38259j564469j034227A65201J102501O53155p11447b15343
56693f77709E07612e69809j358621l86157e42528a00863C39911P53819J708074
56684B801804J549924N57117Q8815C78670c152740l383263o35785c463616a450272
56674b156589n00793o22635m38701a543274g1992l74029F43713c52022j148514
56665a500536P44878m34882J62814a48754C15553b306866p6123i19995j906795
56656b826790J310348a46133k884075k600181k84362J143423K159756C74935K951724
56647C326659J00629q2719j95462L91375H18005J169664J963786k18111j206984
56638B526360m65080A67534a851836M58250b01840D96034J097821J382568l84856
56629B591567N08228j356932n15539J038784o46445a759177m066685J38858J668726
56620d018278Q51534j222617p53265k037193b417225G67303h8489G67749K008686
56611B776435A022678c30607l876908j404758J090520a854982j01196p1697j190753
56602c218628j170677L21237J059241D98654h22248j670031r16650C49112M723077
56593E072189J049384k716183b300141k533160J069137l638144q19576J971647
56585f250237N96120a003911B651065J773485o86524A190486f43380j927271R96406
56576a574245D242260K400489j077929j034262k62426A801644e62047j538652
56568b100699j66898M83504o69636N83706A805202m46954e86372j500512k017754
56559d104638j567747O90278K417466m13347a048280J50898k098762p5126P63555
56550b307715j329886a505754F38559L24166J85750J140419g2137m334368j31381
56541d537886p42041k219442M95435K663368a426166n16714j426551k957956j326191
56532g653578J733856B06335L738395j705543E20861K263086a451274k168430
56524c619704P33801j367239p16624J871677Q54023j38541p95619K61286a004373
56514c596164m629322j928616M852857a367640I46019J713321d21094m337362
56506d758456n37526J920835M96980R65720k448466j772913b498236A66835a119399
56496c37464B407862J448510J012972J326390q53389j257907A804064L09688q34421
56487A279331d78408j141055K88425d91594j54936l25461j627607l56276P89759
56478b166115i31804m21171R9079B76544L172192J361873B327788d48124a41323
56468h54872B98834h9904B027654O63770c86719o613589J06362P99468j169735
56459g264213K304164K121319d44875A239941c205136K78439C2486M58609O40674
56450A131769J063571a546372j551549o71060Q0829L61458a356204f74392K00857
56441d73535H06452L1557a631523j089101R57378k732658j724802j15504J928367
56432d407843b150499a009417B60545M10318i40662l97980l50366E52415a797008
56422c061348J82018j3625i8365D869945J84194k459689J523311r21506j061882
56413B134373K353396j25972n55657j735205A025103J902953K486521m15422k062749
56404B936406Q91500J564692j72693n10174o34370A871790H27963E706a89899
56394I90127L351060j932048a724218k654154o94489J040150E90889K85043k70724
56385F05208a029600B9595i55367C39122L250091j783603e55153A303269J726531
56376C029800K049659B112147G98225J135620F11371h5507F34284h83727l214646
56367d098373j329112J994785J622146h05852b87489A769385K872257j262885
56359C378757o15309J498109b17733k642395L60945P86468j725922g22881b11773
56349B825686L16623C79055c38768C003605j04827c9538o74846k710425j032636
56340d457445K102201P19882k53276I9886L539882J28490N37299j735777p38454
56331A831326R04398M78368A456149J131079j109093K74709J466960J342000r76429
56322C585375L47036L515686P07353k634973k615720K88771p41283p27296a568089
56312b680002j705780j140582a882473g18094F02096k38028a012471l056725j8436
56303d087632n67814m69272a670314d27424k172719R95947r96086e73771j168266
56294a742037l030931j787262P43242j125364j956265K095077J691963a214198
56285b331344j139782a424635j221453N53830j96517R7295j95314P40343r32588
56276b579039o05100k532731K118072a303101D94387c843520l607624l27930c657845
56266A155814K812642A397779A05275e53566r71269k409150p84950b219874a43357
56256A172133J153371F25009d47636j032046j30556l64389J63259A627942J829327
56247C457269l21577p13905m20435f18248j940113f35622j557622o51621d24935
56237A23698d30413A386826p8439d70969j667454k711470j619728J146351b569810
56227B93046K793164R98572J339678o04601B368833o76886J631031M23585n64730
56218C181833j452389q52965a518785m647568r5230n42531K224824b216908F58051
56208B297132a278998j560280l33054E36054P29107a405403o14629p83346b21547
56198c3847k668553K19787E13063d6747B333265K155651j188888E7643i42040
56188a422914A876817J810337j723812a541111k308089R43209J36628J176517
56180a592846p27645j072266j733096K411833A58089J993747G93052M9945J627862
56171B470859J07446P29764P94005J309314n93583k184222P48862J412230k85732
56162D508943A638569a084260l09285k36243m40321p13663J359467A239080K539054
56153C778134p17864a649515j006923R42621H59430K593005L28490H59034a747511
56143b245765L00367o52352M92891J61722M65875j089880a120722H62916l21432
56134E41484J122064N81301P99834q81390e07949m70420D0613e57954o54380m54650
56124a666984I93631N10285o59308g51019o29737C457489o84661j297696E37858
56114I50059j8632c263453o71587a430398j580419N14685H85234J413308j036049
56105A262493c09067r68689q82205o09584J094213A140320a59796k835632j35328
56096c130756c96993l324826o10455J672502f35359F41495j86195b300810j110061
56087c410871a097690A947078N06904A56261J146881e86672j489504d28191C284510
56077B122977l86358K225190n92157q63530j183080J902020J238902A346820n59454
56068G87366k38115c999550j982961Q86871a006445C174181J394735I9392b947234
56058a665279A107352J936550K70799J977884G74015P5990K066209K525286k119463
56049C322037a54194j347136I63941J140691E37573J490019n71026G2249b265352
56039c361608J600293d86461n78773k96001r38977O95673A946562N59438J16085
56030B622085N48529M97322O43278M8986m17921p80293P66313l6011R25452k129409
56020B688331B69808K072357j034481h77671k133975o99245a173797A252676c28411
56010b500037k169747k415198O49110b710304F25121J220939o51244J987692J806639
56001D989147q56199m55111k41815d18112G46514L139022J441717N99094j660499
55992D265848A780888c24717E64817b58933r32826F0474J185345E74602e13163
55982b19214q46106A877654m31003a46158l880553k329951o02746J864313J938760
55973c156335J00165q73017J590366D7550L689479J452456q42669A726432K141584
55964C868016p06707I18978J960454j236392c000936j718826R87280k005327j45074
55955e882883b241964a83230A716928g75091j570681m88843c92755C931728L187570
55946G119298J626187k496509B071295c2072H88713K357079J692477l10980l65074
55937D262215j021781I87371p9021c06766l994170k432371Q3751l50969K832251
55928d168274J741256k93474l261432m55545K619252Q67494M77634g15996K37546
55919d78450G8206J581507J887649j202800O41139J167110C3132b17575k986143
55910c203718p05196a058405d92418k907350j507156b363124H33924J169951b0620
55900D03199Q80880g0400B253402J975770l64582b537634n407196J553066a144299
55890A166489j44323h77265k528404j620459j097751O69278a999650A139532B94858
55880b45835j109578G11817K846812A056604J141982L423210K192600J964822
55872I779218L34364m20413D666706G88098c75986j399582c09304A719793K527272
55863D247065r92865m68207J79614G39932e7674B164542K243527J911559k917098
55854C402530A228421c550452l05556Q19456p34843a537067b39696j377106m139644
55845e756446j965530N68071J876517R41426J096903J074639j752899J033290
55837b884029l8592o17686r54317n44751b333569B34650D5827M81643R10628C93236
55826a567463l12635H01735M75942J217153J496943H07327a206564j11819E75162
55816G68649L13684C99553J057632J816484P06200j206407B89558f11915B570711
55806B943246n83615g8451m86863j030630J67891A053503m95998a913415D27963
55796A221738m99484b86581p7892C977141J686251B420328j082569J286683l96545
55787B227897J028616M75002j606854a275832n99995j809192K36786j332216J47966
55778d632483m50895L49801b162634A728896p31189J439850J198370J346965K68400
55769E251292k346680q96073K86854J350531J042325o39386K602261K42336B931136
55759F28985K528611J220076j277818i4899D2312b898332k863588J107185P84893
55750c869842j283811J991689A555927K497250O30672r81439F60614c059643k62610
55741c322253p64319q65232j885515J283065b651882M34785j039714e32273A290388
55731C698427J509777J683489Q0482B556276A074895K99801A31831J66436J658997
55722A957264L034639p75671j174930j384455K172050O98126D76659c212200d94115
55712c25231r40247b49251j84657k390117j203281G40785J068677b986823o83201
55703c670024c20290E94308a721215f93821n00373j125057c36088A362854R29622
55694B292476F99049J007260j68752K349452K44065K272415k146822A008312d52737
55684i75375M13921A045673a333187k248996a551373G48647K053132C70357e34195
55674a967424j42336A97385J002037L721658K589032j80190k931467r94460A27949
55664d506838a592560A799513c12553k419921J164787m023126k5333J313010J527057
55655b776079g46300c09345m30073B91523b047581R00767G21996e63354a38024
55645A858795j62346F0427c280578a149891D83047J670659M69049A200316O88742
55636A889058l53286b6919p05131p93686G92805N37742e46235j816018k397557
55627d759810J270902F60931a01925j990899J89960a85060E66772N81236K535178
55618C683186o17187K51612j558764l90786Q56809l44438K176965K228562m7609
55609F238350j294871j210991J1998K138420k05617j368344B116240K282465J830164
55600F228869R05458k114535k307870n05799J845835L58950r4088R6476B158641
55590i00863m232356K441210g20298j654735k135211J557392P33235r75827k531489
55581e726933r59147Q86382b601940B762504q15675H4559d26428B702489n18422
55572B184067a267543J86716o53718j050354J123719c77706r38012o64694L856
55563a976556m05168a085704c13387B571524J472141r73315p18980a055744k808237
55554c863981l319125O24657a737471d05069l489012k009460P0724J0526J764698
55545d057593a856153o04571L65961N27184O2587g36994A035329k72345A54943
55535e54701A228712h51734l062349N19791J11359J006362j005847M33775a046098
55525C9412h0213r09666o10567j538609l187825m61684j91158N83687J607333
55516d788702K058054a034241E14093i01895j602083F73072K790087K650545k561066
55507C552638J087162J975739m07339j626253j311405h87252a16173A315995b275730
55497d529377R03233e62287C036525J395464j023148j115387K65538l05644m09027
55488A844321Q85136Q26149Q13716j578187N41439O93640j0734J406255j37898
55479E283837j727497J090126K457134K592592k241137B626364L90730Q81884
55471C898978J30909A749029a455195B893570K48198b547330j137971e50053p1560
55462f21613k360847Q24992A355265E35042n5334Q27590J784228j520539h73765
55452a965927k751363K5600n84177J272777m0679J541160g40221A639790K357159
55443C996949O98365B09198c381813J56949J072973c53712B521490J070142b967698
55433h175304K156426J167640r2541L4658o94963a593110A255353O76987Q59605
55424B791945J617202j650712A192425i02181k237856f60825B239800J114600
55416C354400M74573j196586J762596k09556j891369j44415J028591p98466J164922
55407C544690j379263f41074j864276j572229a838960A770486P69727R95082P50764
55398D286059j759478q79999p52080J972353P00294K185557O27629k505169j477789
55389B397377j2830M99566K688741B649256D54711a514104j267324h53704C323721
55379B907370O20829F32302d38904B661720P0596J242615L13740A153354a57785
55369b426737j184931a785114A037634K378996M77049j455184o21613K096380
55361C913262k65674O31519K520707j010493B071904M62673I03484c67138m22706
55352g89844p90713l96763j371562O51316d66706p64090k946415j193382J409645
55343c960948j362191j471097b874953h26667N4837E54130h20711F2961M871603
55334D934564J042999B558331C34362e06435j613221K35385d68448A146899K03130
55325A350029K450985L391637L33159k123880B243722J38699q05750a081632j492792
55316b574424L76907f57396k088629Q57938G39793J521931J341753m82435A519180
55306C181066Q35377J102746A901568D43889N99231J492676o92338C12194a91222
55296e22956j541953o43421q58049a88007B003642I45963J87545L144256J416112
55287E693876q53928P07937j042111B099094Q46993P75331J682595K781869j721107
55278F464775j778563j401961j166977i15955j562945l61275J159811J52063f60070
55268G72620J497529G82743a355841j789966r43112J97653P78341j418072m48632
55259d979629O26983m89142j79978b422484a024461k231604j433557a318238B547987
55249F848460J172726k275066B534516N31042K768904q55839j910422N97399K414724
55240F080324P39657l20496j147998k539497k21459A276711k08865b09956r01268
55231a111224r62516p80408M50059Q68931A578483c75268i3471C242132m03204
55222B838928h9933q70245j529466j522598p84027J378333a80506A671225L352420
55213E023645J868632k117436l22998k085751n25794J70071a32857j14645D28226
55203B18990J225728i28616k07445L77638j366807k049289a770224d66643B703884
55193F927284q39000j806489J12293A603246M26781j88874l22002o38852A05794
55183a243745G26502M35810a076195j425573j030465k89102L11644r20437J4509
55174d415619q3030A46490L802324j207455n70910L36974J674490J04712A181172
55164a143187j111788c91118A688211d26117C45228K645707L00493c30805l614303
55155c945108o73231a673035A288037m86583a298334m644743J24325J625659J231496
55146b961597L19685j076456a709188A203390n2922b761817j674607J713705P82899
55137a939820A878583K225359B69040c866498k197576Q96823R73577g40114j832683
55128b572797n26754j494243N94165K99955J169741e89845J52417r71964j55406
55119a564798E75543J439302R14146a053188p37904i1906F06952k65628M01240
55110G42564a689727h05650c79454j975436j28183a052421j075554m14880q86256
55101c429111a262984A131759m77584O85518a755954J47048L59598m307958j271053
55092f828319k32538L481769a525111G2133b61468l58860A732209N958062k2140
55083G668131j767677A926293a354655m87793O49955p41458j996931K044Q5714
55074c843124k537576P54481J404379j020988n93939m96855k61127o49474K891696
55065d352527M46263j818084K093659g92292I6412e62912j155399G8346K540647
55056B618993P88905D97166c84116i0233b8770A502166R58520a400682j018147
55047b418829c22380n55423p21398N51880A047234J303350J928312j870743l00879
55038B107274R38727l05822I17806J416562H33781d19395H0801K103223J087505
55029C271529C54154b146544j865580J40376a186588B131836m02685e1150j58105
55020b09255k049921l289662k229649J6080N50170J796215i23245C992415A494514
55010a826059b17674A035649A7374Q5853K3190J070590M76074A15324b541960
55000b706271E08413J370762L12156j087259h38952Q8220R2611j23024k5658A836632
54989D993511B470424A101878b867336k632539j838820K238620J672664J664331
54981a763080j38784j898334p15144K45818N31530j924159K082251G0359K599625
54972B669984A333105a229977N11010C416488M78806j710537N09940A303218m75628
54963H27590J721169N77649R69008J39466l46756J625555B343557b28365F81339
54953B144128A004687B79479J995163A015036J68789A33563i14709j513315c33592
54943e07470p16700A684558J965771Q73663K59587J029352j888898j595908A1814
54933a158875l160974J016993g50068a06969C738652J637297j352028A819871
54924E80094i56122j052451k887988J620458C27546L704644o36565j151935G18321
54914b393155d52457b02479q86732F03437K677639R34805j383453A048427a441400
54904c63620N7858k001941l40829P85282b25312a3089k922520N58200e63382k071063
54894b634445l336928R45405J163048J078883c56022F00702M17385J15951J004737
54885B138775K337841J457695j627962I28990J239224E47619a441338l3975A206372
54875B400947N65795J518739O04618j027528k72633j013180A372223a010473A015474
54865B116670c67492k911968P27037a03778B71959J717768L264858B021326r77161
54856A044165K98914g71973c40529q41933r1453A271892O51904a079082q69211
54847a948293A55509R05341J768031C10931a553291A735536K645265B170027a244453
54837a069953H51582l17675a221708l87836k404916R85693a139086a58537A232893
54827E3708M78874M47290J425689L52398b48194k97200C10077J502522M79891
54818B292490a226987J33686o76034m28797a0231B527527L830463J250976C701723
54808B505528L494125j438317j198357K234429J167701k806305q17422J354446
54800D495828j565920A417088l72162b31455H97469K676321P6286j196212a45805
54790e47170A65057f3930k733150p18781R11392F55051M627088J93327B459926
54780a116711J44392C852651J167111C57616B2484h87415j141934B23303N107787
54771E331090L704893l564512B006883r6375N4639k14958e73357B37312a966765
54761c933148a214562o63917o23023a109393F48009H3169L13904L409327J562345
54752E368745A371227b893067k085220O38455N61522P33913a411016j438288j775060
54743d624364J33642J233620j77289k439454k125011K87903L243380K227404q22504
54734c062673k162904Q6892J901956J617464A55914K543778J845520j951566H63662
54724b325065k112713a493506j605452o94734J892076A123830L053666L128384
54716G305880K081190j287911C214883A055858O56645K53581k66814J135705j086692
54707A748283D89659M63484N52222K735969J436498j820746I34036c78235E7711
54697A439920D26673P24310j31517a801514k663907k195225m58004R78815J931976
54688d207859m86827k126973J850686K398432a203250A536058J458937p39405
54680B255590F91856e80333D01796N01289K80819J96540g31295p7823F37203N48265
54670A185468c297780M65258J407822d06440j7112k107875P94169H2684d99664
54660d5300o15883j484518k676390J654101A321401C80327a273819c18438C15315
54650a988524j166094B74994e97223B313483K263405j195599b55909q7493B220131
54640A907432k42489K12526L44439D25149J891582R81604j25282K702947N04707
54631F380707l072168A00192a202137k263911j124832J684995B363693N8336d950647
54621e663875K025434L84882J096668j502631n83630c81105B489460r97709b54536
54611A13312N57071J392500Q96762R28714K073628j999507J30837K22536K700201
54602G016054J810171k249807j611373k170505B63254c274802j659516k86410
54594e220728a372126A055013N8382K06512R44085j100644P99944r01083e23047
54584e35637l45640r65350d48763k338046j914426m47290J112077h88974A708522
54574E962190L22155k348191E46199L82831K387848J247674A937643M89868j10345
54565B317166M17306j177446D6297K513009j50533B18309b72819j259560c19863
54555d05813l32063k080119h83249L18575A57293J111708a25371j952160D38637
54545B767117N66818a35037k427236h33258A704688C57077c223037L17940c38380
54535B11031J71279J12839c35487B546827J680544A792517b877525e54792B516527
54525B043543a612594j970214J59087a685622B4104L325833J060412b55581P0986
54516a84595n92356j038658A38143A7480N40158R94199B89304K069481K595162
54507D953947J136927R89027l513223j618003c2664l85967j505051B26994K662298
54498B889292k87604B66540R59679J474046N41273K540056j306868b01123B3985
54488D59880K820250J270944k253397A050563l41066b97839L5234j160184H98384
54478C489924J372946H95223D19625b376615n360255L50324J314467J073000q31214
54469e830293j045521L59828b044625I04245J378390m63786B45791a364007H60156
54459a402821k841832n37702K361005P03884N84947L94708k711062k282733K809134
54450b922472O44535j638624q33011N36120J499601P4593k991645L7063l67946
54441e961786j445491L030683a950029p69142a125654O4567K0956E28859c07758
54431F53646N11671O7292a258371m08822p31144n97262a50443C438357K50739
54422C689096l6089Q96244j677339A405028P99522h49354k383396Q16402N80633
54413a835715N16712A392369J934196j11053I01708J493322A054341a751842j748346
54404c500188k853010j788843J680780a374445B632275J263766K741011j54031
54396F483021k191146r12688D75169f34821k088955j448223J407936J213176j13015
54387a663902j171143Q00756B3278P84755K181905E53583C4930a253728m8602
54378a302330j961712b47089D474808m97006j091794L64144M42245j382846o44045
54369A665506P80293K520364O08648N38101j519518j595317f64150j376936M93969
54360a547117A593383j24198l02655J779635L477169L4346A729573b121182k899825
54351e021007J315409J582757j998628a108826a92990B45688J554655j16653i29019
54341b391374i57464l35747k634276D86333J954569I49586Q7864K264106J249195
54332D550751m21181j543302j281365B93336i1613B290903Q05612A527124d111315
54322h430288L249654a629553f44560l043006a668820A093835e50669j311168
54314a861837j489156n94993a918806H26445J976556q61152b013449l294713r52650
54305f260812b647993F17319o5744m4755J368501J458345F96706a012285j58893
54296a171178B075818m56692a555179l517060J683211o36153J025969J197052
54288a802160l757754j681431L554964c43961C31779c325801a094120C616158
54279B014060a366105A262322J081945b123229l540212j765738K273619r61157
54271f116717j167544r12058d057341D96195M55240L12201M73943q42728a370739
54261a723713c54111A061580d2807k283394j490179L35685J330188j09734J03056
54252b157185C10831K629345K237038j969498A012278f60914j857766k42946m93401
54243c255027j263093Q10146Q40271e22961B905849l39851p4980L42863l52348
54234B481533J181506j591236H89416a440537l56622r06723k713198j313546J101558
54225e629068Q62869J672702M40919l49519I88749J890561E19219J52952a99383
54215b075677B542561J526674j114132A205797e72610j56546b01010A495773K843319
54206D339092j235049a103128j068680h3716B124506K948785J956879j381817
54198E648353B328797a002750o56625c13395A718618K575655J305673m97268k476775
54189B625903F99091J684825J9442a262329j18820j303329M65319C63270P73407
54180A136677a977109k150747K71644J171234b50522C792185J660127B251619
54171H15445J33583c13253l171540k80815a040066M91285E167J634129K34235
54162A873531l75189J986240M62847l34999J06940K336236k194379A419632b24332
54152d116871j564336b788280Q75968l35651k023206M14359a228262L06336o37568
54143a559494o80833J058385F77548J685347M73162C09860a859090k085392k236395
54134f180877K810444I94244J147267a73103j984745j862176a437568B173684
54125E207014J427583m40141j444922B179977A002357a06076j178239c99530d9069
54115h48976A234020J417755J825258p26543j773482m72448i83478b08648A808183
54105C670822j170607g64307D31183J615154J166815r76365J286964O48111j258151
54096B913711J281199A872043e34444j396507p54301h12394n99214j015987J96333
54087b231262a63183k52408p95327J89173q82697j922295l27134a795653a80188
54077a964016I70449K808014A716045D41681K189883k85926p47387l25647F18037
54067c59068H36255c86395j418135o7643G29624K73965l0782A91415d207354R67894
54057c239460A58627K453085j31901l28785q86829a215049k402053a558305j46081
54048a704386n20881a024319B37953J441356n67888a274999q94932n71486k069042
54039d810459m21454O13882J171458Q86959F20538M60375B10322a487914j648500
54030c136414a475768d11318k554010k639778J622412a884223I14450M922992
54022E837442O82964p75507j593335p62139H03763a059913K49101j319859j83023
54013b313694c44373k742646L3223d06792n65818m03389l470556J297626a211973
54003a902220j76471b19881l592706j997391b574403G08583c60198o0235r18285
53994a338718O43662C332761A438129c796832l29133J623944l17820M81247F93245
53984B526853K057756k160411r55784d53002p05465C18360a928864k794516J127109
53975c596271A238264M655918K268405l78638J733538m030109A676323l0211p65626
53966H80486J125821J814920O61442a2915l915060j080727J004849j34815a242831
53956C578304P33304j353661r84281c18257j974307b67303m81858C61062J633694
53947A994756L113679j261929j4649J727534R61654L13017k522182F81211J04446
53938G85657d89869A806985J230510G24560a161486j345476Q07088B972412J852800
53929D825212B026340a315160j030864M2721G87433K601564K423889l20248j202131
53920D290507O25471J393811Q1532j412397j912327j177970C76438P07006K799328
53911C882772o44117K507617j897614A724655L988717k551184b75167f0087D51126
53901h03415k772909q30923a957386b67476B83266C4469c160996l652025r66010
53892g779031K760813J28669o78735k52302K869468J074797j339112n0143P99991
53883b465585i1211A632884P90717j93041b516206k012733J791156m61980J141826
53874b057937I57740K50260L3605K982462R68957r67918J788220l70192N07110
53865F150244j460749j94735o17007A650080a84541j472241k018556J677191K69080
53856a729067F1374K074563J766272K171231j355651k064205L52823L140145j276216
53847D870336J383494N935j750737A248394a515909j585901Q25193B29823K056915
53838B286738K706762L074455j368032k709316Q83319o56370j680878L236079
53830E772757J850039j808411I97677a529301M0978D12955A67404b261857P19658
53821a542199j079214m89101J99598j399271J235953e33356H18895M53049l54870
53812I17074f6400p71279I45518J379955e61113l272796M34630j036728q56955
53803e292962K183633J49136d19956A715148H26139f65832k614578n68036P23792
53794c124654g41177c28770C46090K17032J096738O6595d29006j762385j964839
53785d156230L63546b67211A219846L81335J041141R3363o7694n18815j062749
53776A086427K892654r79882E78080c81929l887513q99831m22465J262987a911455
53766a711932N67573d74441B743328J941108o29458j478681K23801J04653G03971
53756F21772K44R70631R49066j095717k12637F03695M6280R5987f21350k175814
53746b797164q82241j33426j196417r8752b156459F68415a732232k10186c76645
53736A322127L033264R76902K303156j548594A237529b154088j73846O94812j343344
53727b976466r85375L39295M76965d83651A092514a54138A268684f95277j737152
53718b432429A557375K905179p67217O38932J388670K77803A677971g02224F27013
53708E17938c50936C41457J831989K483957A761086e92121b42788k31728A918105
53698C015519M25528a14990m73732C661491J750447A286035c825468l801739L037646
53689d589561b2560B650937Q07367F70636a391438m82757i07096A221629J485767
53680B707396R33651l69944N51563O67155j225928P09616N93232A959609a023119
53670d842477k05740b202659D36445J99229b384020n24550J272898G71649K571026
53661C342675K111100j337769r97834i21192m306214j127296J802054J638158
53653b914490A066023K217628m1427j153149o41035a385041j380987M01482p09758
53644c074304j876682J665714j399523j200726k83029O34876J944401k099424
53636e688697M50929a658962L45856l84724A092318K639888j246659O84200r66882
53627B202865i31492l362613b059241G44726J796355R82334k58664l51814A384984
53617B735634o55178g74222j773741j00018J280706A249583K099022J658468L34928
53608E342001B603304b54239j16441A550117J90557H5504L079782M229750J418481
53599H813517k481652k737919j084769j109671c14150j59953r47111l83170j251889
53590c056273g25559C437576k40403h27627j4383k593862c49200D065737p51064
53581C314673h46434k97009E41033B04819K689029J983312N97203k433172d466463
53571g393885K251664K469758N38257j290523j692398C37331L200793F01386c311510
53561c545987J210798j453864k817492J768539R49522j489283r63876J755582
53553d586061a882445J1437g62610B017286a50395r11413o5097C48187J425695
53544A773882P05956O62663j270268C94813N11713J463646J513460j480678b107643
53534d350759a633001f26685k73327j569280j33497b21058A173701J073643N18348
53525B765692k78559K9377f06716p15173A628582N28326K32198L190759r3083
53516E486782B137340m6505J208276Q99194J001947k298674A419879a523658o41061
53507b164719R66379A81681J715139o1896n71090j30192J41597o06613N40529
53498A209155P34699f63345E79118K693557k02637A513366c64904A544312M218290
53489E762602R88897j421019j712307J1016A529298g04207j052643m298n4105
53480a815253k73493a010618K92991K15641G79456A99801a222720r27158i54332
53470a028863p09520O60572A263546n54498L56602P02196k55690K37407L81010
53461B130573G36685b250608j407427j412126o59423J92838K209688f99207j049842
53452a749049m090398m60272J298813j408829k62196K957811a707507a89489A167853
53442A595673k6641i69931c52762a15294A453909B49304P29627b0235j816565
53433a836800j388691J46509J90229j817228a571092A861195m45230a260456D74710
53423B582199I65483B12340i71696F6414b41787j206946j172167N94901M54840
53414a571159j202329l523152o21687J519389K370609k326376k36322K367351
53406c223676b86093B732223Q90512A655166m79868L085940K475652k808818H54680
53396b008059d73576B117710K082842j155733b064029j549738J515821H46576
53387A919786J56994A014319J136719B6201a736111c48638l251781k390095R86269
53378e004245J453801F51248f16674j953158j321101J104521q6647J278304I82939
53368B237021d00459p64522M04742j820677k539568j435759J844097A19468J34608
53359B54076O83758J432553F20037b69030B228234q0524f54852j482596j136230
53350c273678l56763a764334q71185n26240L20004j560363j271306M70628J864112
53341c338684L53299J207261A227236J100217J154233J947029j073521j63696
53333D191498j856722P16834J402310J321617j338552k55310A992398A73023O16104
53324G89127K718509o77415r33851a707289o63918F36038J676038N5016j077830
53315A289262h87686j358412a066701o18181k116341j976774o40322J213212J599825
53306c605282l86429a447402A21640b095222P79228f48625j705723l847192j834935
53297h036475K572513J697830h23685r74195r12690L08772n70722j596158m61451
53288e030129j72176a59123E388294j883034H4973b145116j545462j434295b143442
53278a84329m83449K44229j804892k786215l135447o47150K357886J961949h22658
53268A56614f46223d2102I63859L7709J936238Q11886F71321k23849O82142d97476
53257f69297j109712e13181B875691k53600A298921a764981j393963I63259J065740
53248B028999L53587J820727k047828E0888h50315j011554J67915B052777R36203
53239B988980J679536R46375j910396A424907Q03200A097437a260219k078440
53231c338659n22638O37685N18640j164021l18690L0016l637127n40765c625703
53221c322083q53744M10891K04002J540092B078972N23127J594021L18373p26732
53212C787761k66426l44937m39543N67060o68756a839879q02276B654429j74199
53203B480230b38369j51154J56486d2872j198373p01528j961094a363500A108525
53193D500543k78456A711898a425685K0733p74186j828884J230958D49618a188834
53183a048116k76617L79322A438413P05135j86842K38528K432007o99255R71538
53174D899524J20569j678899J033977p38416j312640K25577b126001j231412g71231
53164A181687D82733i4780m08546b33438l09316j061888c52831D59955O63689
53155A123644g58437D19816J003662M77012Q39729j64846j104809d11577a16838
53145i15536j529877f56458o04334F33741J480533C5907b376080K59823q16515
53136b932772i70926D887536K800688j702761j289939o65760q05860j603642Q43783
53127B464045K683057k63973A799017b756230l2152H5382J546169e93220n47162
53118a140382k072852k114052J015461m15295L87132J449796c45486G38249M53104
53109A191353I9664Q71634O76897g44768k23114A688057J757705J00700J274042
53100D820504O97501L0973l47691j882546A177780B62488a255811j261102H33683
53090C207924p22316i29943n188857j551985J744942b673560Q51310r65864H35380
53080C969947R12861J243494p32453k482025D51507A52435a859550k893792j504209
53071f257551J802674J738814j171480a156239e50888k25577p47077j152167j097555
53062c773264g12069J23970j996501j592770M56772K99586Q96657m49993M60806
53053b513542m45378d65809A536381L14300L75094K056497B061250c058330J146884
53044a911446K20269e93827A891826J23969A91964K753170j055348J479019K486291
53035E855096j285680l36423r52408J837780J419724k027460C43015a799549j398088
53026c197637N86255A290762K486024j331838j103468c76343C70686L99522e21454
53016a622787P54423j114773l55905A381204K384761J33261j719258f12845C25353
53006A985417q05646J455422l74008n66543c73873j805562Q88645b1290A755318
52996C07721c7873B073145l71986a091802j3159A07219J979035E01487a995585
52986c542047M58633J419549A016443J183856D68554b030006k500465r42145K085822
52977c386794N9909j04565m63347J154379a055103l86858a04498A366189J470158
52968B836347L40263n41502j148972L24240i60842k199529j888772J810944A103378
52958E32752h43755k571283J683048e04130A39976j4731d02166C1258d54278j980844
52948b435122p38123a463210l95468O2536P06712l02359k016586k957101b024590
52938A054092J390689J864688j64136A952484l32305K20085R63070K700746K223047
52929G727127o97928j8683C402220d90954q01774A661175J234599Q63099K848762
52920F607635j145482k463474A337861L49114K040952A434543i62104j948390
52912b910494j715321P90113i32872I71689D85549J499860a98190k54875J14014
52903c39051A811825J576591j25922D68239J377533P95191B31450J526054k73424
52894A484080e70671j163583j253080J482334N05000J82754L56096A85098J95341
52885C80439i33406k31367j049749j73034B38899J744243M59277p5293J538187
52876C905313M07552j673709A254290P26295A13376b461451L19426E01210P3051
52867E74261h31428j733013L50239D95348M0774i43051j97964B485604K77242
52858B762846a101200k705685L35350k545869n000738n44471M588168J961969
52850e012476J683259J036157q72645R53637I0220a33492j535052j558522o02157
52841c829223P81499Q30527B0306J222629K139386J720355O19965n0809K475608
52832H147440J319597j870242C107110H43737a467583d52485o90407m46654j466866
52823c056412k659357k472751K616435b772759d15358D92812e36552m386949j587538
52814f511039n05127m74104j603130L246678J498708J199188m67704j144395J189686
52805c571239h60138J75599J40231E83297J200790N77185J95324N57431M8446
52796C162473p83325P81258l7035A441334K80561P20539K206789B223006b147228
52786a491625a22607l76213C43409N43544m174h16929k178776J406960A34367
52776a444793j862595m45857j924410o41890k24581K543350a932865q29475k159185
52767d921525o18411J36709K664296G19238L42570A87005a07530k763649k62657
52758c133836P31216q96004k69990j527195J28854a625011g48205k471608k399529
52749e619342j461853J614950J614887J056804Q67518P12253k297137K42928j503843
52740d772835r27230b070374g53925k73054l062418r3025l57299K11897J216866
52731c110958P26385J44798j703384j180700J832985A554367L312487j92221r16033
52722C758600q12026n60159a272922j418883C5180M197900e24399m731219J04217
52713e151401J575154B30130K268647j55660A019221a365986p69371j46509h88647
52703g23377j020794J09022k659249q80006c20267B96335a370592E33086a371521
52693c192729j471038a741636J03194A516545j09883c96791l36680c61668H03997
52683A909420i66032j150073J025766E07849M88026J117865L155476n27536O82711
52674E424391n17871k057165Q29194P3850J67961q9163J695519n23989N58468
52665E561195K79997N0929J28250o249P48968C039818r87354K658366m90354j972909
52655B247567a005732l23494A03613K951453P45586j57541A577583e22542j765933
52646b288475p10377J053292C79688L064922j43038H93305a037978j219994o21706
52637b879678j87977p99552j841278k084774j403514K428410c333970a652527
52628A215705K33539o34987a215936k606116l63442O66557a325427K43815A084481
52618d04614F72075K525169A397513f07869H92230J920855m38153a125880j493775
52609b619655j920223j834578P76330K755403p89756l444658J385432J107119
52601d584586q66152K629635a392601n89005R76749L27551j227590C65218j41903
52592B23315M3150L440974Q74650J724605j795860a510059c25003B527055m94927
52583B032128r65707k64601a271318j9931A037587b12829q04797d27255m44745
52574h72000F05341b22245k089854b31717l62190j065927j154788j709153a977314
52564H7684a121566j359350J15873b33492k267249h94055A313912K21399K961965
52555D497276m60930a715827n3023H39268h29739l645003m75474a726754c78118
52545a444755B367817k08480a367953j883378h97159D56516R68977O75664c3810
52535e46585B641542r73546d78393j68981q56596j618544J018742c4186B486004
52525B829232j397140g49958b77729l33025G92614R92568J350326l70173c84096
52515b036159E72706P62173M41101K120096E40139c322975k25819j219798k79206
52506e047798J523385i7008A411483a77798q07577m35395J53070l08954B04070
52496A78532J400247J331053O75830J60027e1433l29202E4267c40972I0J104382
52486A104472R380A68155a79925p36693m87137J67886k357A594694L71314j30755
52476A835253J535679F43285d054735J965775A543236P03118J280333J865642
52468E392329j225123A080643b55033j266776k529531N873m48618K074128c62701
52458a43147j851336K67535b28856n78082m11739G89864f31375n68597r89286
52449b189258N82397p36897j744602j798356J529231a420368A150871B31986i40417
52439B20819K254600J888821A518187b642553k193459J115489j178116J610579
52431c288060K85117k20663g06489B111188E08949b240955N45799k419508k050156
52422f164820j815417M72450J468613J455468K015956J047421A161793A53582
52413A106084K506553K429196J67208m65666K081231J527912k875266k525376
52405C951876K6788j000785I49402a806938h2536A194143J876711J600516J838608
52396F509978r8580j128155k501335l67156J182423J210409j510684k21657J94227
52387C269470J96940j312958L072421L722684J739243j692429o77046N56105B584219
52377b542921m86111B098229J615326m64544K217236p97916j620791F59515a068596
52367A098414K749051A743635a489186m89489A82128Q44570D62854B20028M10360
52358F30388K255058r12864J421615J804600p22248K45a54684k537343C879d54413
52347f25845J67025J32031A392602J22349M26464N578611Q91130C418916D21232
52337d8538j398948k60025E13925J027330Q40410o16347m0884K81721J827434
52328C833589J694726p62013q07203r48865K499130L109470k415034j206683M35661
52319E432778j30504o37811B039771j4128b53477C00722R72174J360249A179239
52309A908934M197286j37970Q3193j318756j548960J347912A808589F88585A41288
52299I33617j43961b27322k147299N60140O77465p84275k479827d40319B060466
52289b160287k783876J511348d38553E69146K386964m82782m64415J238831k45934
52280C001810r6509A31978b248629J47051b08004G60537f33069K05728l58858
52271g86199j552467C79924K473851L8975M12507N23674J140081k449541j026238
52262A493233j78154E87274a268827L26416j82291A626322J043643b35338k302037
52253b537375j0731p0334k97023k154687J359006h55733Q37q05506d53578B27700
52242A751182J44628e6772I22757d23269d5362q85771c00670l0519j540356h68015
52231i58342K74951r58535M30169A524386c34711j488717j201109k579859R60954
52222d643442f76347C59947Q66531J373956J68229Q01929K193506o68012j282228
52213C813858c57489l550557p77439j958a367313A228732j98631l8202J035994
52204B027893J510036R62058j797072A279198h2723k99331G95344f2759k609704
52195b672463j769960j488006J424111J779176A183187R28906d65349j751303
52187b216652O64401p46745f91657B191027J38090D38941i52704M16000A630300
52177A659761b203412P14935E34936J299077J832966J910481Q20306j241810j961843
52168C194113o39242a743336k379169l64119O74095J289897J064609K06317D8395
52158B258076L04561j054442B59593a879310k236634k64056j530782q64143j791636
52149h566561N25069J510939J114156b056170N55501l225711m66248b505502B93823
52139A037332L60214J680773K762642r93277j690458c32879j596612A25078g61076
52129B892581K245602P0462B374073c18627j385311m56558L15907K30583L03636
52120a310370A041737O285717k111740A779701f99153H06247a000669k947303
52112c947972p08543b160944a010168E30668K848688l91042N25748J014366j192881
52103C335547o2778i84471l014785k456058j4274J49143J675091J117819J270412
52094b257123m07901J052619O29204A67175K115657K63603a338348B67412J403239
52085A670651b027687k180805J120927A463973K150427j72342A241450Q99005
52077B140455F84107b176016n33549A256375K465236o58248b81571j833242N68505
52068a546308g14698E09763M199727j614337A355448F74318J601697J503782P24406
52059D504203A123905c620357O25643N65537q30462L74094R21255P09261c98653
52049a632709j472277L09225r38115J056184A262604d03920j544884A235973J689174
52040B925147J105898K568670m52670F45434d281740L90575J333634a045075m5062
52031a090137D8947J947045N1935q15336J503734Q47833j022246I73140a075376
52021b968026j178436J150890H99392K220600R71989A642571a131090k306326
52013c437416j272312r13335K434942a520636m21131g87022q94642f94795C229220
52003D111847j761336o4438a7016D66599R67935J34041a294243l243233j538966
51994f076442J139985J169265i58179B664854M90262E98852c177546Q1528j174004
51985d270022l441210O08254c261068a305648n88189j483930j386124b150004
51976a404073o19029c43713D27375K148499K071270q72444A286631a518312j082787
51967b601099A928121P42823Q88645N0522A115053a229514Q6045a85457B029833
51957D783955m17938j212211K12271O29241o42137M12664A812657i53614l250
51948i56864I22702a694159j239175j94630j000648n97643J012563a613319N09976
51939a103343r32721l64044l138394k493952Q29546K158743k8545p26534K460573
51930c338671A217690m0971b692000k454297m17905O86188J791521a460314q10286
51921b270600K05540M25646e71835A720630J434535k59400p69889e91960q75252
51912a467212j534031n74803l22584J687958A58196J366099K79694j71366j01687
51903A530936n71113i99060r11203k33122f30382B070461n51450E82286M22513
51894A004799J420877G01960c800691q6306J861526D9178K314416M944249r18240
51885F389603B957770c75358k819998Q70768e37431j430085o82042a01611j524949
51876a626560k22530l64983j693851e04738H92938L09061J636974m62872j18898
51867B257203F54613p3743j98992L177094J088950J383137q73515A870962a742978
51857a479259A03583L031415K529974J614696l98435k763761j414204g0751j311919
51848a382670B89779J247772J131961J916236l8841m76089I54256a243867j091239
51839b335106a026888j193104K0789h06375J29168K31127k619745J292607H63464
51829B424622J358486N8265r49730a082205A920958M624509j930458b112538j879884
51820c992422J400970D4656J11467b917858n64134j537057j72651o91764M55874
51811e427590a425388C02296M5799K337315J555633o98587A248567R897N73808
51802A832272J78695p53439f99293l570863J383871e38543A071856K57414J496469
51793B825739A363297N8316m19551e73436j095983K570j76795A197838K99346
51784A497184q4632J940631J930019p6535K225708O08182J432382j011415j475402
51775F986122A694618a623189k028070R24650A986310m71516a746341k373117
51767d119458j09080a293239R9765k616592J773466O25933j353417R95044K36785
51758a532255A644098L813877k466571p53772I0044a820944e83427j243960j09997
51749a937384O07961A65272a751707j836563j713410K591861A179333O5715a152005
51739e77749A073340C86271J97881k01564N26947C96250b675723L79847E00532
51729C118157j053508J20901L72631M02935o22787o08194J222395M44420j295967
51720B100983F93912L741091K337178M96811r37066B607858J118993K119838R5785
51711E942474J022749j139473n6635p29667A707189b607641k127255J289998O73132
51702b771766j669347K092674j087855N7099R26034B28448K595893j318218Q74799
51693B380922K34402J337276F7518g70957A795370K564761A595392k6493O49770
51684B218669A031117a464660j509877i5224C359566m63996E63402a87981p74701
51675i62682I09300J653093p11855m95421K343082J13054L054906J707717O45387
51666I219263O4297k326777j429752M15848P09010j097883J737370j053178j295982
51657D942216A773647g30497q09021O16790J04497j293053k02349h52466A019434
51647A711525J499261p33168h47079l852002P99283J120182J54059a013952G58523
51637I89619a091735k318127J579860f33303j650775k003260O27138a055178B315804
51627D794975Q56240A047266a887741Q98768H14254K239476J495392j697293a84530
51617H30482L695669m29094A081296E10507a415904k942789k41473K05973N21160
51608c873033L76302R98708a72354j458011l174988K183838B865285j015571a388144
51598a048677J62000J40576j127272R05743A429002K577292j957971A76166a193226
51588c553802l386916R68442R30006r57309K790981j158506q96123N31586a753217
51578a307133K15696C51667i99953q44340j26211R19414j173756j611411j041005
51569d877262Q53250M89212A222382J319097G62777C77244a392142f25537p81516
51560a407053j262378e96899a56058B813702Q23395j143060j6502j56120R49944
51551C271359O64964j890543b104343P4624A667294K813818K520910k123162A032318
51541d125175j113317M21195J467948o24923J809268f30936k199677R21792h48740
51531d474228j446214b634257B40023M699540K984799k156378k861481j256989
51523A649514J046168L56111j94270d53002m414824l140630L666948b50446m6410
51514b96856m62980b28373q94514j29059k286820k149499k40777K78123J680402
51505c970517h0238B476628J313975j661312F21251R48669J289561A286016g78860
51495a700282l024525J882717O03100p10390j108668Q65462J017162P58072j867216
51486c284568k723384r47869K166567j126457j14355J256527J981185L61297l64529
51477b795586P56627O66459n1615j07236K73913e25014B801601o84715J63218
51468B280104j39742a394599n89884g11843A969478l30525j96545K759d39310
51458F7149M665565K012542j23431j463448n56225j286251A463177O4925F28476
51448a51761B840349M698f47414q03034j188758m24332j433257p32926K577653
51439b652068K86638m46100j99303a145094C513238L277577q8648k775833F99984
51429D47655J981660l40090C72789a113668c28710j259301j327834b96882F44162
51419G86303K863774o54734D29488L587798J111841p58037A306414b154683m14152
51410b568835N88356h35795j037360j021126g35273C89451J592416J378530M01924
51401C762321N10953j881868j95973N76891k1882A218129a536260j228351j761691
51392d526302J706748n56551M17634p62541O5002j559930k08453k020261o75495
51383h120149c960762C3734a45062A297768k66649C48895d23896l120510k53097
51374c797503A94080K403371a367454j56108o40870N45900f46291H53813j05167
51365G48646b705917l820670J068888a096919c88187d019j22393C445768k62362
51356C183406j434531d53213b08351B860527I68020f97015D52680J693976j5070
51347B131586p66468J119259K179084J043220j27645d32338m587433k828248J199447
51338f648572J575578M45523K31544P63214L94502P76366q3013d31960B494431
51328D906791j280481o73205j42299g40883k419075J164438K29725b85463B966823
51318B996165D58357J367377k89538b45533k40036B690160K344074k403580M34412
51309C065066q73527l9548a040856k004666k5776A055242N89707a276073M78202
51300g97871k07826l8491r59136P19349b66986B135377M09925A029499D29867
51290F5057h27894A8080b952688p37322k267618K54517K295538K65828J052724
51281b089021J24068j500300K77995o69667M04061R11775h89427C418535A106256
51271a587749g71042b35365G64690a417234j93697k189970r25816J21581J229440
51262c375696R39005f11987A086185J062097J314601j112190l43393F55727A06994
51252I18458m30722b39196A434227A25983a437524L75024k87057k221795n95255
51243d166607f44164F65783c99414j674411Q85349j185760k065922O91632r12406
51234d660932j597315m55548q35945J759910a30963D8339c262576l48876a415650
51224a523828P27890B332752K880602J755686o3435B448613r56825O89159M84265
51215B665212o43529C91642J7868K292866M370619j419994B493792r93967D24950
51205D280716L065576j54688l469297j840627J09143B21376a484764B912140L508628
51196F420768j916463k125446q70923l99065H9220a951949k81045i96829d33606
51186A494634L66618J852085J098084j30263N4330o27615R28058j962020a164656
51176c130519j951130j217206K058632J081082J243598Q60779B077926p86822
51168A291104b018267O52302K69220l582888o22769J455698a730077M66624l341853
51159d605306J349131J231518k604492k210434J54031c098323g14184C06570M83049
51150G89619L2868h81833k394335R65333C05325K899005J97046J514130j4417
51141D901089Q6293j354770O9984N16984j839343o44076a384434k074703J425645
51132b033492p07947O41248B62040K254455A00048g23523A275180j92948n04168
51123E78064M42409h64691j68862j14214j374367J111369l8376k090707J355268
51114b184580A507101K783293j474352K070036P40682j749392F77229M17855m10713
51105F84371a97527B719764J858542K624933J478717l959471k200167F69698i11301
51095H04369j57032a109120q24639B58216J255002a412783j706664J030677R79333
51086a109437F49971K329393L925165K908946j908445C925385J347662j305559
51078C967488j594040J406789l82901Q01733j535607G39642e30121H42175k76025
51069E66150b06329A607906L322840A989036a501348a00404A484592j16350P38346
51060B106588D06215d64822F12586L60955L31429F09568b016688p77158B008957
51050B845476J251692Q96037L25020E80504d317267k391890J690706b279700g46068
51040a491330m018388j328445b222886e35735o59004l615858P74179H14171J814448
51031B628619B12906i91431j578659l429378Q76737K500392A159889K580118j131274
51022B608733j042608l46604N37011b454361k248913J700561k48141j512480J053914
51013c709420g84740c67648D76580K088876l60584J59733m69751r7537J648197
51004C445514j302934I06554M4878M11054o70263A49385J110981l49728a79081
50994A8766e7260D77703b538095k996738b381959j172062k354754J530211N72479
50985c806085a320498C328166R18852P08272B272292p27688K576045J300953j072992
50976D348610J13693J251160k327130h47085j783892j638061j333361K317020
50968c285379A17707f47940b13864B489647K181741B025632a419007k878896o3949
50959d361852J363579e97799K76384A05235b83468I48247b12698A669436J939846
50950C609282j386896L84228l62411e63221j760987l93644l48580J224648f35256
50940B694136J361314R11329o25639L51391K579151p88280A9194c94722C584578
50930D574479a170330l092516l045536P17053K667955n88142K69573l22933b216553
50920E97892O04064c22701M8752C264713M85780j796658d82206o60745K01179
50911i41772l44094N98382A93713b288072j19594a121851D179815k52380C79301
50901F61617J577767l43673D10359A78070d20092q33801K39879a93051r478j424542
50891a627071p33307p86512j27199R34377e15022p55699N6777d84734k64790K7712
50881g21812A65538K423299L123607Q47386j391242j625974a765122m885333j996789
50872h647244J919925K701849R05540P56379R65693m11216o21425l583770r65037
50863f979306J780457J187988f38818D365740M39194d4180j686585c23391j190605
50854a513996q06168h97628L71327j570817Q85340P0230H24950K187993F32799
50844c549128j671122r3122K373108a140591A760836J8944J239797J376432E31536
50834a751168B028054B16326b346300Q48234A840177C71016a700385d28584j309678
50825a738262j199540O31659j85502k112054n66818j085575j235628J926282J908264
50816c657174h40611n51319I00116B36810a939815N68257N40918d9114G45114
50806I69352J97331C56494P18718J364718K056474J093510c4522k125042k369056
50797d528620O02679c26592d2013l643705a753945F55372f58486J10384A572263
50787b495025l912909L052838a202268j449167k6262A95280J111145B53171a988757
50777b248499e78763c8335A660399p05465C07572L608768L162548Q89259j291266
50768F676881k169545j53191J299973r80866A162295a41717A060302O20321K57205
50759A937828L518908P49649B583582e327558p30295J144695a564943D03753i22460
50749b491550L01958m51824j731470m43209J389282a403201p41078k623763J96868
50740d571174a898183c18107g8306j658752q0656k295782k577026L71125J310868
50731e008529J776224A84895k5892K84979p4086a946097k343077k402954l11614
50722g003742K435940J175688j363279P59374J262665h3923B283713a230645k20838
50713a451483j153170n04937K4769M4932p03160j882434J121029j360988J217010
50704d648432a885819l8774J15970j684704a374704F68028b50424k14254k110095
50695b574773k62515J385643L75564j965514N42732o80290P31443r37067R23160
50686b461617f64031B41509h84437k490089k565789M60525K653595q1038k037782
50677d945015n85857b367436h56602o31436E36818J418005B87151J510993M11871
50668B210015j035815C02997d19724N0671C54449O5179K748462R94130C83844
50658a322549A40821a949229l403299k119470J441290J692900m25404R41937a442978
50648b226849l379827a981951A146458m17296K19763A13897M773M27654B09973
50638B647896R71917j047850F03142b790274J285080A810056R29238L87659A329016
50628b125375l161806K527982c47224A545793O25350N5451k73624d93357o01201
50619a094558C144948K93590l35445J307326J213858n30756A791114C38940R50477
50610A289417K032892n29513L15703A63365J277926N70134N26640o1021L6680
50601B513724j225419D99441A23981K113839J860399K969173j242463B217929
50592D50580L71239K586519A335680e44538r61263n09504O23661K54664c44303
50582A527566J735400G62050a234814l287505j234245J910957J238616f12581
50573c084897r93803a390817K27631k086144p73297J47931j796871J893096a51104
50563H62057J79321J632356k84654j23283L191771J106709Q08269k078894m36417
50554D857235j247852I6293d135973P4720f37669E43338K380971j55900M86830
50545C255239J589070j269086j467291a483891l241174m61674J556665J743928
50537a886146k111575L03494m64417a639558B272830K27674M20948A261407f96208
50527b518705k066748e48254C044045J374272A924239a662859j939776m99855
50519d102490a869918m03390r44796j593143p7417r01126Q63107j675628j914857
50510h517168K694426b375251B206160Q04614C33679d234486k176666K208028
50502d203124k11658j126272l73825J293263O01731R34060P49661J008425L54061
50493i73678K87274l258611k824832k332897K005755K376774J06193J795893A458527
50483C158335I84043c547114J444297A765958j69092J333741J412414I05646I3270
50473G63743A87653P49234a479202m23330k800314b287308c57440n47065F59920
50463A063761i48145O8031F99923e51157j266022j45873j14227b2976l22397A680802
50452D142647j105893J293262j619537I39446b462127J148056j437448K69506
50444b482013a00872k54434p82092A976173F61706J367625J395069N54093A802669
50434a35617E51540a23259G71409J118889K43636c29301r55633o59922L49429
50425a595427B18239J292983N97888k05785F4999h12079n92929E078990O40001
50416E718991k291390O21122K983744J421464k298474D95291i93940G75814R58629
50407A734443b605342l845155k003368Q91314K438199a345446I02500J16839L02993
50398A322332b031724l524466j415379J582934b558053f85639A109038L94731
50390A503769N4483f86092l01132L75771j48060A68411d06935k998858k600315
50381f006108a564104B526059P89199C72564a379400e76923B356432P35101p20942
50372B370591Q65475r0872J192842O71420j967219H57667B18961A1394J854614
50363A866008K480178o8407B135943g82128l283509k779791Q71152R73483m83799
50354e484592b710320h43266m64249q24836h01609j614392d67666B174855r75250
50345A199605d6298B505622K327999j56477j884650M30116L25244O11475J41360
50336D300689M23398K70336J020600j114570k247581K346571O18948K185853j668161
50327F136083B312831n74247K805825K182104j853495A116040c08181k234407
50319b542588K95295D66379K969658K621340j380802n18749A998334O4891p39553
50310A323672K110576R12163B138922b381647g45501A367771g54860B81052b665807
50300e165301a715135A467248J120838I47170J068593M745714J398647l309803
50292D850321C98228b780469m16617a344201N11592A81118Q36969O11507J726552
50283C356146a396557l740069J988400f80618I27114O6853b415104j985464a876539
50273A38921K94220a6196k450374j908358j288685j836470M07680K534092K086084
50264b472227j03705m54828N82544n61860Q32557o63906j072865j61186a549932
50254a182527j047545a082362B056686Q68816J752152j066152j623924B07120
50245d044760p34980d74568E450784K722254m040062E50371J079069E05856a736813
50235a475829m85487Q3497A619929M836777J797763D037026j713102M70646h8563
50225a551225j062042a040951M11422k822600n89930J08929J201023a76705A245169
50215D22770c802566m7092Q1227P85492o54635L99536L43658J61662q27207J171613
50205b388312B37766a252049l652339j659936J184704J406543a899221j313563
50197c212784J104853Q3755P31696j25772I44933Q52855H61554J210860K458940
50188D531354A548765a562051E05265j79566a332008B822539M158359k28057C246640
50178B138970H51222b709163j685716K099920A237862f06097l619441l76539P66140
50169c835937A659655K955752J760981k860455A461227L732564J603145j605260
50161E191676j565412A718686p04297K077957C4429c831754M04685J546259G5013
50151A021935L53630L062744P74088o89764A985519k80570E80073a432902p32004
50142b164906j720765Q17299O49561k669064p29115j874636a951213D33707k06918
50133B26789b221735f92969A204124Q65806F21761b701736P49778m32785B39875
50123A206042a021885C188019P68127i962k537476K51434P18620n58318j66020
50114b301722P86414m24362j293446k741288k279894J590575K937381J684596
50106b041746j05974l50645r80963l11565J181827B15965L72611Q108J246411
50097A843095k29857k92237b891137e20292A831699m24240A1367f47851j29682
50088g77533A15497L424821n86458B35748P35215L677828Q09327q5765B462126
50078d99026B407883K336884k13385B168755H91822Q63323J499914p02335G21008
50068g19892B628409L232702J810524j130315j968290j108055J103376B122367
50059h525l43995o44780A441549L298066J650532B412708b59482L9789Q6090E11424
50048g61322H90158L162818j290581A260588P96849N158347N21012k812139j695555
50039C229102j539558B11071a939675o7074a000860A919190L327757m07920G0685
50029a766826M73524m371j022456j775192j554411q11798c156204K69852k97050
50020c183402J020748j52291k59385O35526k932941j895930j912082k257099Q05769
50011a0131087K584704J333563J187334L01998K337267d07824C248079K171418
50003E419497k027985A8943P14205K585K391570K910318J189817k469607L11166
49994E068997k41566A930608n7991L57009J035015I119P53190K008455J135734
49985C906498G57915M4111L91637f28748r41618C054788N96278A167780J3684
49976A181464K124076K9967B7927K724647R93832j448864L21161J473847m31369
49967C661181p82085R71959j428422L16741k43974R30065J464555p24178l23373
49958C842469K874837Q90711k007606j850600j573524p15254D55216A74824g84802
49948a99942B118292K203547j164131A112054b578629j614684J394170h26463
49939a180784j592465Q64950j183823l101099a987323b54163r73364I38400C31577
49929C64462K233504J784904j058345n44549g82736O6393m67535E40852h70011
49919A58643K422317K350495J880950R63783j923728k285548j267510A046092
49910D1251L08466b505509n40786L34515j239898O06453Q75315R38054j722047
49901c253903J416506C55421K611324k29946p27026c57801j131799C30659P41326
49892A071985E25804j36115K027312J301404N25938K122621j563464B065500a92902
49882b6852k54262A743791J423395j368341E77949J718987l66077J146001K63467
49873C340327J56774P66273j363265L40898j290705a878853g92076C024579o39808
49864B384771i72400n80933j066349j778926j51825a470591A497777J16044l53816
49855A260005B86840a690698n1057B675403j116769a253491l394375n57417m5568
49846e250851J761932A61648K225697R11639q77431K83724F19501b816186N94123
49837b222063A292137J696479L62436J592913K26408o4060j307784m13351J680473
49828E065651n64558M25101j696034b276176a5602C529278r89130r5638M08878
49819B853388e20151j685999A078986D21596A74566i34414l23149d08552B811255
49809F434628l057818b21469l602438J359400e44445k691895R95427a85428B766260
49799F046955k904744H32301g17664o67263B84158Q5722L77163K697484M99003
49790C943530j057780j426631a112527A2704J803190L275121K224155q2l647268
49781C667820E39795H0511a45569L1308l73768q25493j302654i21276C786785
49771I253575N91678j930020l221889a84205k871182B053M679211N160n60466
49762D125958Q08383n09460j442369r8073r68500a857728k006596Q88049J487319
49753a488956A903998K407118R00073A909641Q0466R06237r40980j18101M046475
49744E883738l92579A195363J254123K47847G83025L80266J314288J013961P58950
49735D250490c66788j378855E5889L313654A065601a078069k735623j334254b377867
49725e02403m04211n3761a7010H23995d52546m050926j234922b786836i91316
49715a460327j90203B91913L395480n85631o47166G65543a419027L10561A428632
49705E306713M565522K117998M22823n156783B922302F77348c53261j016757m14968
49696a784986B7790a332481r12198A718231K272822k90604A021410O70248G1292
49686a050390q24757o21768Q57782j744208k230839j447293l1870J516382K185059
49677c391902h06106B77417J37104j99967O48786A14369g62086o22933O07929
49668g77090K65555H44548J723369J814769m21957c96888C68552a133038j557944
49659b690982l698551J638919K083631f31262k909072n60705J525042d95607e2092
49649A52642a715877l686366a751008H26431J437390o330M75514k40648J155882
49640C648239J96178k99011D26974a191175N10801j622932k790645l69484R54471
49631d508964k000255m483279J471231K664222n10027L551794g35177A509417
49622A942571f19737j475416k819671k381611J87345J447282K102424d97080k713870
49613c210950j216384J603883O5353j569284a718155F44497O19780a449071K1756
49604a427315I35136b31490F33461K487117N03654G92510l87173J007835j22845
49595A290327r8942J156738A031357a129455n33599j575799N38351C91250K099270
49586B490520m93050i92011B404106J750516D12648c30535n40175j331759h59040
49576b83505p76892l520126l579489K777062J073298a586611D32050K916876L007771
49567F356697N49487B645633o75689J629829j01381j312689k56701G06808B5740
49557d6278p92248r80984a22980G18569K849625r22233E14339J336448n50124
49548A300663b52405j83501r03615j039189G00485J432734a995616n289637p58603
49539h043856K940013J118661J932245O78332j762787j317949Q6143J179953d89882
49529B372858J144194j677055c3516j73301j521481D01216N60520f49204r39396
49520a588600d63865j575458i95898j291375j389578i12475B190517A28709b356385
49510d956575j295223K050518e80304A111365J274139J075896P69019C14747d308293
49500d774232K146601g64319g5313n49629k040041j110635a703887A487330E00146
49490F28423M36406b937909k658336K216995l99312J81904A01841L10196M1470
49481D53507J508579a036080m475389Q8842a728869P67195A181230J347130L84239
49472B912599J590761K74449I94488a406013E02122M526278R75255B988904j490208
49463A498696k11308i96381n12454N42877A518856J600974m48347j37766D02217
49453d91442n3092m39769F4813J431323p44574J713685J345768L81273E21278
49443e85540I04109d64768l159481N32015A464534J680691N33700A523011f40869
49433a834763c26330C667037q99831M21664O10999j543611c07059J11341m45960
49424f41678B343064L22842B97552a091578D77803a365089j567135r55347a516581
49414b116911k392298M61110Q82909J304218C66453A56970K16395L30792d83213
49404c89038j657663i88099A336438l85653b853066l651384J104805R71959R9832
49395d327854Q37157N58823j956431n01721r7019b668577a304323a79108j53720
49386c32828j97453k51344k48092L92027p46862r00198l317356J23992K307814
49377c170300o99602J630757k61376f67825B052272J090928j220518b655677q00070
49368c455747a630481l38776g47656A354541L430978J066953A523196K798412
49360D321608J201266B733076d78212l83114k294373R25241a86688l83440N7708
49351e12420n94776m80639N59638m95938j817799j877544K34694k785663K000414
49342e770033a083248A895858K513785J298265j180669K430746p81615B518493
49333a581440r72452J045218I24631R73307L67486N54115h06706m64916A057338
49323C922712J57167j626640c22618j958252p22459p89829O79945r62686J570815
49314b505084c81945m86956j954354q18588b18530A119826B65932K26980a627343
49304c205196J312696H68171k36978j9705J28174c64729r06536J82010H42049
49294I04162l17956B76827K30109a607464N11897A148257l28592a364429m180007
49285e544436k13773O52312O61248R79587M06384K16750J070086A14184h07186
49275c882110j338089K180867J274924P11529d10373E8850J760852D80580h75174
49265E50328M65344C72718b05714B110682J839938K456362J61611j563407n48027
49256D457159r73818D28716J653479Q25171O92278o58054j415468Q17946J366559
49247C710627J789262J221022L43184k417681A336567N56016J084479R31246J012342
49238D920650m5920p00982r0424H48366g10049A728884a21136j631631n77248
49229b330015j421385j873541K42957M39098J861716e3314B707174J383356A272863
49219I35380a349893n53353c86346m33458n91037o73842j863535j22115E60228
49209A693290b168338k06793J043791M86633p76767O27206A026611J236319l8253
49200B224677J564178L31974J776561J448409j188557B706214A181455i00812
49191A170587K58861g22950A75115J93226J135073j48133a906993K2444A406607
49181D616940K5122k060887J33692J160252K211782Q3749C059317A109077M35131
49172A544208b54089B933335M498350J63333j864727B533245p25477F47661M55076
49163A102737K955575k07687h39963k63708A465473M83852E21018h73651k23644
49154a097295F32326e54157r12077q83980e57949B176841b94998j898394a25976
49144a37841k611214q79786r16629J348789b60082A902986C58113f54973H65435
49134a520549k324053d23251j486452k487123j711210c75353E00544M24844R58995
49125A884383a72971r35153l290152m246585k09698J685097J377922a197014L39926
49116h57088m74382R9965r7624j466522A574376L947768O27449J38810k674433
49107C613970A238622M29247o9904o60435a00720k136126k532050l182387m84445
49098h435728K615188K755392c51892f2471j254565k281370p03522a605196B373970
49088B717768A82388d98037k708465k84190J228231o07000k378522i38551a80745
49078D2929i63620K68587B553848J677251A731562L76090J597422K16475K03183
49069D124732K496932j220230A249994A03354e51516A918242Q47438J190871L606923
49060G563474L034207o71984j222711P87288Q65817j801224l188728j867930A441817
49050e60165p18229k77599O31704j46772r06132j691777Q33658j532504P01635
49041c666181D57979K053389A043818D42786a300364E09508L725421J677589B388881
49031c02334j421072n28864h09844j18461j862187m7026f24139E245250J147416
49022F392666l032646n41163Q30510p76130q6141b56549q05729A106357d8217
49012a595054c19708B99802K769674K472892N20283j514211A448091d14168C0186
49002B168537a9252l91473B165373A021003b621529l808660j746839K769789M24481
48993d982758J10961K029440L95894j73481i86429j375300f42030I82607b58236
48983B927218L737689q26865k301596j762919J126912l04186a24258B20491L56146
48974E76637c161412j71214a608096o476j287427k498071j329465l28259J200219
48965e857575b043328h54587A660774K393292j252885H37445J139654M40848G27621
48955b883497m3038E01013J326039F37270e193F58583R3180a199085j595043Q64584
48945a929544F64358a187057m700066k395531L70956L533663A246205E42137c009880
48935b680892J242757N30696j077260F66816P38397K6404O70786H46244j0936
48926H35308K364741J426630a449758l837685L60948O64081K098178j875190a344799
48916a318670r45047p40740a122527d83320I65594c508589n05885a793651J7650
48907a776001L21452A49151b224458j732361j66339K70278p34393R28509J230737
48898b428027b80040j73845l53687R3804B076709J104925P47688j075921a331307
48888d742203J978181A753577r1981m939g91540l076235h24991B632008J319385
48879C951393A875591n1965J211907J318778p78655J047116J909288j052167j525675
48870C954218B06361a169076m49193q35665r37763j495766M06264b064251b83396
48860C33197R12756L58472n50099B70060b94483a46278l313391j904537b398906
48850B409383R12511F28610e10287A063738J865056q21936A81782a521791o82226
48841b204017k448320j420899J368422r01633r06318J42421J001495J522098a765544
48831a716980j44010h63913h151r32149k564746q94326a678172G88758N65015
48822A353773P20745q1981M58388L07943l18298p64371B64735J452719L153265
48813D870719j716199b202689k144817j842507j49645J286717o03939M77028q75903
48804f055755J531109H17244J216107K21402J93583o4579J99510B35059a984950
48794a375647n61534h49588L68696D07884b828226k472306h35169A7624a178616
48784A732215l1756b63268A758209R15054A176907N79809q23428R27581J826120
48775C686989L678572J564336m073345k272014A093171h48074A179771l08958
48767H70813N13874l4897C87804a246947D18193g56644q7796C2095K414391A133631
48756d80012l594899l184755J259032N41857K555331d87405A172981j50820B80127
48746a198118b30742l05743A147779m68030f68782m037744m11864O80404k056583
48737f494569o0402b086050n53946j351097J724681b4203l9557j74290l20778
48728e58828k87027K49987C0172J810505J774205q14632A002609e00733J77733
48719c23000D665300K12551r40536j367920f87419j576242j295921j364885J615056
48710c309411J532182B081596L692126J24934j266975o19392J413741J07583A465591
48700H51619M53809a123519k1380b48048E83404L66130L09464j3810a909730k686926
48690d596656J352923J89240k826415j608243J762983J987795J084278h27529
48681a98887j026589j338967j823398J68296J971308p62599l60273q07088J82579
48672c995618j79350a550350b7810k201358k051639j89282b146203C335305j92106
48663C143199i81137m96226n41221l806736j180729L224515F50825L126515r77555
48654B799785J177937K701703j203769A992490b647043J50941F48116J374458
48646B022574F55109a057288l281324a255043o58112p20911J059864g66453j185047
48637a951500R35590I44372h64957n19320C340815L301675j470442A859534b196863
48627d372739J605132D297843K330882B683145j068439J330525h3536D59261j34359
48618C24902c07004H29204J226688J447834k87715j11093F53529J1894J293884
48609A959307J045309J092372j97086j347009r71396a783782P84411F86000J25916
48600H11916g42538L41009G41096N85524L80929Q11093D00967b987430p10230
48591c697660k50776J620581l63176l168859J910301a145779G53513j65015j3506
48582E74992j13481L845351j382716j254345a389514m048434J735470p10031J13795
48573d298714j676434k48400K115520J440555c83706j058580j720964L33103l27664
48564c157811l220245k163728K100791J523558J628528O83179N40807i11996A508826
48554A512319c755267j41443Q96270i12868H5125K297147M439819j96896k782676
48545C842519j645318J44947R48946j306601q71383M27366N01709P66799O5884
48536B874868J617632N70413j986903k67819J384020K106019j111550A448722
48527h66716b02894A610495J784090Q5586A466637F26697J639979M53619G07351
48517A121067L710974K582572k532195k218826j074943n37821l39618j76802j1802
48508E22606B18740N98164A94589h12893K05697A732869G94552A37465L39870
48499D77335J191861p82647c04905A60007a173702j73941C64835R54511D66852
48489e95792r34883A091421N84062e20733l077032m48303a223661M30523j204088
48480a997226j055349P31967k410734j033159J434268a58270G58135e84106j33219
48471g17325l73427r09578j748375J430228b37662A614845a636509e99920r42014
48462a541934l980588Q83451J399162O45664E4324L77413K73758N778A47109R21524
48452A068633K988972k70060m86796A577493f36658E47378M050159J282104J294355
48443G173996p99201B706411C05341a238705k480525k77835J778667J81871J63604
48434a872923N19847j130225k014452k205803K345117J018681J429760N71061
48426a338937C42112L540443K593068K643504k218215j646826K26432B619734
48417A627549J174501q7143J378277j02576k67731R25439J78446J777274L23128
48408F927164C252584A149428E62491g95635j894486l183856r38343a836561I28854
48398a055715j077578O56185d06407A725176M040768j149526A034251K096893
48390C131144P85768j728611J158292O31681j844481C30096b272116N17414G92533
48380E50702P02221L11123B52405a486030l21711A469281Q88978J374100M27301
48371D159660j319120K49819K029305k91387m42145q34411A492547A24401a59604
48361A129450L383165o92572M03871n68940A785110b158122k616658K076150a115582
48351h85748B07007J28357a800136q82236G93386J549663E64009i90069F53407
48341D81362a441230l57542b03492C633818L355098k612881c46744l941821j067600
48332e356165n31845K322734a297565A027836K079411n56619E16910P13907N89004
48323A819821q78968B77654h81898P9443G50353K267211j283471e19485l826792
48314d346277J354142h85387C596553j380777j07448J012202A285321A37457K78190
48305D15647N1548K46691K184326g53329k782714f65283a38906j894868b7016
48295I24920j44902i15950C171617k02884d87064k470920L17983D17144L492302
48286C909446j210358f9494E44316p8871J25339b369660m98281f91717j008399
48277a700116l290001L93189K110653j270766J158845J30928L15030J50753b27159
48267C363360R49396E39095b545341o49256b69565k243319j932794q28915j896762
48258g171355n21581c773451B75527J375948C55470b216009i18085A5201a012379
48248d54308n47795p37111q34654k235847o30006O75317N80178l024365j761791
48239h970382j326812J159575K344753L075411c70800D14166Q90697Q7585b447493
48229g377863j382003J762461J389135l44651j50831K277395J282804L67397j718989
48220c895145d72947C851928K666934l009813q27226L54602a85666k947950g53748
48210B992885j48831j267213n10305a594015k5072j656880M39197A270320J623006
48201B893326J061794M5877r12066A493969g1170o09054H5194J6263a735613L21844
48191a413769k6185D71850O85443b32331j68634l15315C242162J045158j0904
48182D276416j60690A815311i43508A65338J96564a075808r43355k091137J41732
48173c968568J881741l97276L10372k716840n6832J134134O66231N53804l0877
48164b624111n3502M95151k162137l08877n63052m6829J492378J439779q19321
48155c150521k706484N48306L28027P98904J608750G47715K080540b31192k500254
48146b731446j316013q37337J220107a484166i1387B846458n77152a461928j015833
48137b477761l277167k75948a940006h83785L97927E4626b286594o98783Q31045
48128b154332J026666j877325n69237N30117a175936b90618h1597F98625k857
48119F95768J147396R60698E32624f0261G98059o7102d33866H34116K229046N64293
48109C627455p9294j519874l90336g81764l214814P4489N47417Q62239h5383A940215
48098A173728b008101Q04742B85866D9333b147622j866064J685153K05995J18164
48089b004374A228744l55794c692912n63521k17652O31273a600658N50510k40912
48080a291060j243619j48136J120732j500359q91422a615740A41537M85299h25863
48070d78173B212866K08305H09169a028177l599497j98701J507835p71350k25245
48061d315135a432099c01386j655059k852793j683396J262898J072142L74668
48053c782926M28711a26159A716182p05223J057700P51831G31057a343979j033123
48044b377102d62036N1307k940454q22433k6348l123339p25856c877806b04621
48034a261227P6194H88723m00660j24311K646891K0484p39446j071781J831443
48025C051343R88548k33175J058119K74500d09131j189868A079213J637670o00952
48016B115931a819329b04518B199414D3236h27126r19578a53166A283675c11074
48006A431680J093252m89719D94115J728602M69691j308596e32448k090882P80449
47997a842881b95483k087207o94729M7376P098J65703J18736k7683n70007a339707
47986d67926l7586A635270J784250L559297R78554k409973H97344J327106J36406
47977B360856Q7363l09905d60465j191626l2917l45425j654600m39018Q46340
47968c277711g03842B65588R91852C35613a483116a03706j965911h85493j81428
47959a066921j93186L10735j090753k587225j906862b770120a371206n65531h47087
47949A64887b12465l47072J51121k030248I6275K221940a661350l288627J579768
47940c370209a420675A019067J395099p69139F63409c891598R46133J410072K47314
47931a288079k235675J684438A876792B80330a76520j189767F86245L973871Q13359
47922E473475j476607j301983J19532c5604k188699C56023J894551m2529J48711
47913B356756I59059b85360j765995j317252j413759j968111p38167J168054J727392
47904d593198j86138K52133L82030J524761A520072J112082L15159J202131q79724
47895C269720j310998d81747j482907B648464J455422A447205a23510j99814l35063
47886f58387c3503C059936J381337J329861q49575A080218a211742k088330N04631
47877b795441g37614j778688J030312B810218J095822j839685N5135l5834m68551
47868A617105n40304C40821K98029b321563j838000j310356l65234o70817K060861
47859d445109J25294a718500A413667F87741f87326J92405r62028p77914r8717
47850b333580k68290K85170P56720A42980K520853A101165k17984h93870o02036
47841a495906P32591A920973r43421c635378k250426b051778F71806M072295N7796
47832D801897j277180J539364N43972q12248B324977p80942J53524n47280M014064
47823E164343J01275n29661J82258k234347k24164Q64645N60461j099386D52157
47813B012274K907617J70370j623042m49605L54541M5954R90674M04036l73426
47804D439393j738558p11255j35742n9415f11246k710658Q48983C01246e65706
47794C31583A7595c36651C66674Q89407M79824J757071Q17561p05808A364094
47784g44348c19410E08718l5391b207778k369937b137815a037268j903433J004941
47775a935760A085038K850330J257464a436757m203772J250680a500551j119025
47767b619576j243250a693064M99080c65737C532018N28880a0995m05322C9691
47757b603408L46131f71055j060914n49323j628231j91385J620252a170264k211479
47748c381743o60269O63825J501731b36868k714780p51978e10552H40458P36812
47739A577270Q90340n11057L90597j014526L85084L05107R08025A259765a962400
47729a312638A04356i32229b41437j90913k615967k790948j70268J659663a118110
47719C126476r12000E91004L77160c13456A618439R12741I48619H7118N32518
47710F19636K355918j315537q21356P13061E71775e82689j160121C13666Q17382
47701A131048P26004L761190P24354K465312m33366B345299G95355K68862M26120
47692A490337o61657a01841j060290n85885a1331F23952a697415O04321B870348
47682E137212q19320j498269A243827J37803A52680J21317a006840o57578L68501
47673a295917B722065L865364j508002m82110k06208R08063J182114j074405B069863
47663i09608G33632K28556k93632N68104k25464j61853J582057j115238m35454
47654H80708I3771a87035n67771j233498b79965n37714K28113B829425k00231
47645B629194K74597K068508E56214A93654J120091a312339j982177j123395J963832
47636b454079j365519a448360f61754l548311k142562L50402J928555a832799
47627F4487a132220j456975a264030D10628J795602r1746b521522j916463i36055
47617B739245P41422I89379J881661k43459b604662l22510a106900j888592J001101
47608a994391A85382J301873b296373j611313l319917R95429a10578A473650o57725
47599H15925P14830m90900j37145D33647a151349A05593J962208Q66038A272600
47589g47471j068187j726320j383717K265014J187419k357183j045770l4192J868681
47580c041726D12485A96842a990845g56978A785902R19166K424750Q24049p16810
47571E237057J136133J808444k282532B173442n8584K416169n07491J15219B036324
47561A466936K912129l57163H62461a807613M05462B032545k98209m19069Q90866
47552B206133F56525Q69738J264264J449143J425986J908444K130789m7927m574721
47543E082241D25984b159327g00950B360637K611054B299277k07790n85371D96007
47533A53494b322191k07246a80450B430161j209530M38350J125781J346009L34952
47524D465723A990735a220129n33555O64474I82013f91208r24017A845256J574735
47515C419991n47306R69369K293332M874706M07481E387918A97842K16580H0421
47505A031692l84519a159458j156865b50506N5094j217238N82496b25084k72796
47496d97880j906546j802042a925860g41296j997540n99152a484810B381307J80718
47487B562025n95754D96566J417769L27993J03425D92656b664480a2101B276174
47477D516775j737977j360661J534786L12153J855782L272134K755791l069348
47469H079435B765412B85402a762990P83272j642170l306734J637315a462792
47460a585200o85509B82193c43162k068188f89891A836116o28254Q14379B40186
47450b333133I11732N72493e80778C6278L541110K128508k464701j432313D88780
47440B448655J566909P24091j247128j015926a531421O74379L09829A404396J904743
47431C309139J009653G73652L73184m42159M76488a036396A913262J398705K655706
47422E967673K116116n53434l499844a922775b92774C119499Q85305J539359K4898
47413E569061j303504A401365F47647P19751K50993L139023J44965m05093j3877
47404D483409j111752R06329L50563g15813p83535f68706l43374k471508P05283
47395b778305K72316h24668q17715A14050L592958j534723h81451L99517k141906
47386b623840k310618n80638Q32281J390447l33336L4290j49897L81722J654213
47377a705376I76454a345642M88853D86855M25552K715828j807600a027716k436561
47368c464277n66313J586282l47021L88556H87015B68154b65957j40671B92265
47358A841234E28059a012652j086746j029939j561058Q38927A06687L13034c160976
47348e095242Q10550k57618m99849M80981J175019h8858j813124o305014R13114
47339g293882K289780J074489a358463A552065J875482J051256r72915o96533
47331B809355j250761a72661E70501L88543i29265m49415B58047J209024J759527
47322C226598Q21706k87356j729158K93577O47052l58856e140A508309k48328
47313A259981f81948n7216G95315K122012p02299o94331k47581N68695k52797
47304A589014K65009n86449L41720l40096J406715j35139a40949F48580J031370
47295A679950J625526L14647A554191M13645J809936k91848n70765F80446e02574
47285B673271K63955d5438k727229J373956D606786J007892j604079C18023b005410
47275b656848f42068A896777e84432o53041d87814j787801g75857n53375G77253
47265A660476C29902a225587l3863l42498q27363j216910m21546p14079p73192
47256e555038J061252K45900a139976L76303j169914o16846J024523p37157q58318
47247c121385j69098N21326Q50432Q98176C832187J35601D92173d298049j85814
47238d483863J330389j132620J761240c91513a0266r45490N6473B37772c385222
47228h168562M0573K879518J316930n25875a350920A354789K71393P4846i25078
47218b761372L91719A215789J700899j174957D80741O35818a778515f29766G61539
47208B496890J252374o41454j268053q94618h28256B439144J249519K21029P15669
47199D625361j629180r34517K98113C24430a979983l67014p59766G13046M02883
47190A115929D6464L911423j314529f92014H38875R4337a237997l05747l46736
47181a890480j866824a518183B681093O14408A480611o87007L60081K66939i51549
47171a765217F6749L60886K157048L435031M59919M05076Q6505k116491A265648
47161b74212k138574k62389M60394p32852J52997N89298A199955K453220j797242
47152A855933D32017J483802C37998O78686K603190R34025j42263A001678b131654
47142e447428J121537J394433a051846B844663J191504K509255k022027r59148
47134C564247I58397a081027n32489j826445k187003J31609b051361Q33440l051971
47125d269892j278843o69881j314329m265J042541L137601J481070o08372j347382
47116c831752n31956K065329F82758c66453I54291O32446n4371a122466j020991
47107b143457j48221l3590l81739P36750A006148H7340e5267j165100l77484j527862
47097c125713k784560J147739N53082k021601J465681b062396h16078m04229e40616
47087A006731R49743p78175J19389J697624E86736b038504q97761A604079K315108
47078C919187j641298K03330p01445N67643j141640h10130o4896n09168j332252
47069b716446a99573C2690b703310j006516f68566b39144J7027E88244L994233
47060D582477A600049n30512j59489K231011A387855b63302o9425A943798L023247
47051D967045A848112b036064k9056c23313n25313j990803n60747a579724K79187
47042a300537j821002q29105K42202H29572A8598b839268a116684C128452n31995
47033B596457A037182L14724K668604o42047j273372o65769N41207j32715m74457
47024A373357C53879c9408G39116J352805j005186J264869L367883L300258j546974
47015G472771k128323B127086m98455K32501M44775A082652k5630a172976n44152
47006a717128d74371n29604j590105i35212o8102b52099B118820L96019N19709
46997C034548j457362b644952k210128J834167F40405L554082q1391A168250a186912
46987a943201k44728L40499j174440l93621M9160O79655J091836j878757m08951
46978c882548J006131a103718j132762k811000J580841J106482j723885p76485
46970d860527J852771a21539B45703J85186h22880j572362h90866a67588r13750
46961a081338n11117A346089m1737g23615B23323R66666m14031M92114H2508R05246
46951I87754K940099J762865j488542B074161G35396j93670Q51078m96430a170741
46941E68185L969130j923425I55466K662679r13227g02638j364511A462314K173077
46932C635391J608845k177357h42645j671807D12896K662014J747943J225391
46924F048244n31199p30802B190272A019735P22692B4363b367390M65966e81102
46914a629456m00831D62632c07022F5787e20519K56337F83899K100043M68994
46905C252936J779341J147246A331981A6785d518228M38006a173730D19999J61914
46896E81913J090118K455128K104538P21420C055259e2092p28410k805328K56445
46887c329385J327475c00520A787239M88968r00978l42990j39152L760392N03014
46878E156493j511859j440779J178355G96974A01989J418087a166842k614363
46870c781205n27446m06615j722774j480716R95114J500324j861457O39666J665456
46861d979653k268288k54105c725850J377496j146408m6445n65240a859251B593508
46851a3402l014713c83413A878945C71778K27504J072517f87644j159304a12859
46841D044372J322752I62220a674559j96227j004277k198712b081417h77927a92390
46831A211656J054612q02629l47285J555330K988762n31331k260545j393496a199967
46821a643112k97555j101129q10051R51363Q88119A120858J79567d2441q9839
46812a32280A201354L9206P05862K072805I57965N1701h83163j52363L05294j813964
46802b544196Q62620A598589F83242a497791K39960k556406r13253J170530f48691
46792C472949J622817j39110B109888e54192l218042j213215K107420j158998
46784d037027J058625P21591a048071D61432J467803F64966k048L468199J124168
46775E255285J87061k330323J950491Q33356j313361B274866C8004K798151J501791
46766D337946m55681p46252A208158b362614j182693j538242K19459R42599j183088
46757e104579J304052a263547q74363j854108k412612J149584q81843l030722
46749i167611K070387c285512a428421a92329j296144j395418q85591l6167g81368
46739C32088K057071K779148j682148a152753j252835m44154a147973A128209
46730d68o26580C468272o00060B27841K40168i79909j584707n11286j210577J432773
46720b853706a392884K56389j291991C79863K669670Q34443j530464D30005a086955
46710b610057j635261a058879C67517a86153o80688j513237j216238J786350d14365
46700a761407j095765O11465A8173K675003M302848m11678k144916A990868o82914
46691A307954M02206e58271k041010k031249J363807J188102b88865o9819q06951
46682a165635j52024E8247a531779K52711E25342K151842L493203O04931B021829
46672e397091k848469J524437p61092k548892J928401O07905M36607J42367K262753
46663d653074b17045B272026f32444k544912L18173G45106p8493i43083B940882
46653E777866k582639A461362a722619j520161a326271a8190A899955J283740
46645C183695k80504c40567m97550B91100g94129r4159b32617B205817K184447
46636D390264B171624b711048j255952n73453a799997A30471e37592k608536m93136
46627c639264J633639k65073G236L734310m58221l92434q50033J170858I53859
46617d235934j853129b857655R10426R07799b90041j014819k317852J714795i53429
46607c754587j8306M94332k892939O40879N73362J990292Q37410e49966D45227
46597H23319J37833J96033h15031j350864l917819J21194N96170O66587O1563
46588d638200n53222j169017c104049M42782F88452J07150r7536J206504a09201
46578b58560j691952k300586J361059g26708A46982b58894H90582a9634k43618
46569b63252q95963A279453K942558j047092H00137g2857A11829d22765n72285
46560i95050k118242p04923K38870J317869i4061B184365H49329a787989j582623
46551c370612j173822J145126Q95512j25738j868520j513184k693416q31477c747724
46541A68514c93329j76842d2623l83836k80265G20461K219719J280260A679052
46531A092364K336332P93787j206023j466018b162870N11851F80139K228482G60127
46521b191497a38752C22488K13983c621516n078979m46696J600256J732091J144647
46512d670197k72638b367640a24172q55816n22466L10501A161618P09364K054001
46503C924983A693447a103316e40587A483494P0130L39267d44693l0321A190274
46493C518957m7660r10528j031989a98811B261359K481663M4720F61714a511736
46483B481143N39083f0543j93102j2466r64591l903622l1865b106873j97825j763281
46473d067979Q7052r85779J349634r4190J482610p74521j473950n63050J712604
46464c327569J184031g25570A859322J509029J007672j537219j242946a51425
46455A321930J01476a433610k827467N00348k55976J491156C390420L15947B09795
46445H3113c80075D26886K597197J016180J40979J803732r21422k361617b75016
46435A961849Q10876Q42510R2932A264357J276318j116125R25791M97124A081104
46425i56139m94763d13608H32084l58007f39458l202656j505991J400291l50583
46416d298397n14232K133425J8169a276663e54476r18113B70839K953893A193977
46406C60017L577707L199876o79268j842451j138069q53145J770410p83694q08364
46397B803019L50230K9696N52829O72483j586896j116493K207486L91744j231774
46388C072324j072271f35907j589604j728063k98810R11055i07551F80294J74518
46379H54812c08826C495921J817668k206259B99532O08070k38987H052f52331
46369C81008K854407K288263j315081A274224a43008q88546j406891b79900E18540
46359a694765j662023a609005A901523J506227q13389N26773k05421J118288K100302
46350F134303J082640J498549j528573j297968B000498b82576r82279M28381A78402
46340A736181P42447f84230k68129A593443b3176m82220A470670J78846J552690
46331C202206A123112a215173J80973m76087N99026C365362K955222j38736k921200
46322C260648D29890b310141k537991N37295K048965d1395G68188k4693J298347
46313B041842a421265j216872A017200K097978j018085P44644R41679J358440
46305E141856k237726H93307J046282P29774N48608A061403O6513Q02926E27912
46295B86466b174269l42274M22308e7425A461879M68602G59994a342562A137358
46285B292630j30200H8249D2016g05069B7824M25363K437357K079401n09055j772829
46275B688061A130919K72612F35620a084187K1140j077944h10573I8994L79561
46266D78555e20339j342534C07391K13686a734626j882696a758251c60939A783024
46256H91475a731619o69281J120398B315167L086006l45692j969627j76872E51294
46246e71554c0935k65925k409654r34772J184745j418604p45601K069515a83852
46236b025054j814236j612724J018385M14305a299158B006497q26609Q43104r8028
46227A924964B29826b076173l675635P12784K161972d43797B832399b75501j781595
46218b057096r33344k006492J666163D71873L582811J136764B551730I56822J659093
46209B615915m43836M19996n81960B98374b366282L36803j8336L35323g69782
46199c49925I11596c86940B372387I90807D76927K864191j546656g44238n47721
46190a291959E69856f60673j169223K78136k395745a769999C040035K320447J412388
46181F772870k266415k124987c66766k744710r25105J510411M53302p86317j776410
46172d635595L93159Q26202o7512O64245E86816J25605N88255L13361o08916J422666
46162B427787k85798a890711O00781J57112j967355l568938k102182P77020L545798
46153d448475B07266K685814A305707J647604m28281j198710a514465D85644J682168
46144B167812H65058a329224A205756j65808e31452j126664j919784j36999a506984
46134d104312j968079K043517a913759j05170g70092k110679j407402a006663
46125b06892j405497k386489J143844J398111j418780K21416Q74533q20401f98851
46115a827899l238405j43283i34790I71931K419045K176163B129228a874092e80899
46105F95423P98159e6812l883444J053566r16866a24489A493533m93513b64703
46095e00811J90266K0832A33510N72547J904638Q15986R14862j025061b41952
46085c617466j746553r85357b280430C66707J159303K669553M76711r99064r42115
46076B731095l34180r14312l91126l31733J59838J819840F40544b412996M04959
46067b008037H97758j95941B70471b35456j94663A996504f9559A153561J577446
46058B731007a146092k274982J022151J017323N75279B80071a408102j015337
46050b423439c71662C891862J084350k387343r60585l75797c81806o93872d17056
46040a043586m35967d80498B41913R63404J136268R78505J667627j993545i80236
46030h52296J3905b87359C502690M212093j162011k199194j086881j063342L84711
46021B588066K5676J380392L74247J2412J071349j253426j024788J163712R60237
46012E297877j358704j819064l57832N77624n64346O70370E59839d1039j406372
46003a447411K94736C998247m48361C62798a708811N04761j179699k98765l19856
45994c002370l88277N35815A402846L490483J204659j880985A683773j10347d22726
45984b388195k6003d08634l65634j839058Q16699B508367K400053B428306a826303
45974b420783J007096r2736g09813j59819j826633k98893a5160A691367q22431
45965H68936f60760a7492C068638A161440L38401L626959n89161j698909R68927
45956C807657K904963j915448A773037C35224a25596j22319C098720J017266A952841
45946a165888c86792O7751q99635A076878K088927A031785a102992Q1257b78943
45936E06975J482890J876472o32053j254680G43938O13922L782423j324739a62485
45926A771593J149298A456099J276297D97069a681022j111240M87939j36444g96591
45916h36724l87823d36467A987867a6464j600685d87455A286205E29354a497131
45906c502576L35927d67212B038870L118169K261333k02555K240418j947258k677884
45897D831093j731933r15566F3495J658960L827862j341553A528196a59771l29950
45888d89721B126269J419133A496483b515956n24897e2612C094669j88326A410684
45878a516652O50552j444654J30832b26673j755578P40215A001093J97644P92073
45869A990810m84783J625803k11822j148913C20319f35493B609042I41941b335811
45859d227555a823599g02133r1024j529490j162390h77465A381456C95893c169800
45849b822412c14439A12367e02262j25302E65299c91708C099931N20747N61756
45840D182434J539827j782410a41003k171892k77516b71182D68304a233780j347577
45831b581357o74811j469635O0700a954591p5484j187078K45316a081241A808444
45821D178882P9139J58994n25425J170777m78621a189808m732796J580688a638350
45811f00341G93103L943005Q67076j164216j796852E40324e74537B453732K233661
45802D687393Q50757p4004j751538J82913A852809c359007a208975A105509d5682
45792F64094G3489J010377N60529L129497j529577A086861J037921M34869L3460
45783B593111J572420j195q74614K37527A437900a52393q56040L34170A534032
45773B384156J571037J877066K601173p97254k403587j26606J325439k021735
45765D409689j931231Q90714j522333e32042C07923K185187j189398m69313A06906
45755D817817K659803j220145k070261j125796G72711a996894b0926B980493o60504
45746B319989b472430o5529J178196E84085a316231j470473L84124G92018c766559
45736f308475b481956J07522n452J017714O52151j25306n44373H7449b025960
45726e64698A014595R6673D59317N84240J158575b735632p4862J334779f92142
45716a109091j633138R22843l4048f57846j775490m20081m82861l27659a457820
45706h15852Q1422B39802J617328J284448D19422b153621l79879M13711l245300
45697e365089J132765P65454J628004f97614A528713C86763Q65692K490932J50423
45688C893810o97733A439817J93689K244242A842297A08865b229903c72945C23314
45678A681085P47225q59384a271186J20740J49167j85304J73815k626791i16494
45668C497956J197946A415255l76150n17648J237512Q52916F04466b030494A304178
45658C330477A291641A65204K337921D80262f879879q42559J396518J156998J03232
45649e065690k473071k029631L336328a668588c77553C45371J208632q9882D19202
45639I08889J621032A177442B67409c605353o54913D49863P7470a021775k32779
45630a254554e48898J98657H26827L012527A383670b145242j69381a065413j190420
45621b255833r86402k415410J264238a437243B018557L217347o04690A001736
45612G70355K889953A459348K188195q3558g01497j955426l425504k488806L39603
45603h231630l10546R03144L597239J663906q60546J306646A27009b85817k499730
45594b785547q81643P39594j043957k798955k59733K968729K02055j047556k109396
45585g016409j371642J569884c245736J93349N60628e26221o8803n06464b42657
45575B275215M61978A043872D72514M74109e01396A176986N185189O45519k358819
45566D648875B060712J154326n27297G40507A26231i14959B678515M310266k98293
45557F690488l295611j481519k80659L005648K271178k559584k98313L88696A992682
45547a483068e71664A573155M04121a430335j522700k416147K67842J200507J848208
45538b052625A313314J011150J440873J850698j500002j824617n73743j18246
45530A599427J905776j064439J820384K138871j116601j199508L08453k71466
45522D120897A960874c01053m172396m67952K097634a109853G65299J11011f24082
45512a701508J47346l030962l329085M57585J508514K637466A73233J73471J151550
45503A498254K140560A785708A02504K670116J358049j268777j43080K230251
45495D949063H80395d70161A763889M567933J311140j646893l5427j624939Q494
45486D344197N18961O73245K239454O77034k691660k334838j341154i95831l319550
45477d315381o29705J848469i21666F91074P45745Q47213b97206k346036c82717
45467B336149C54851A25608M94465J155684R21962K70501N54328j571415o49901
45458A301232Q05912a4560j154093k04008p68438k4468K50605d38404p79259j880380
45448c098043a390059c45527j635023Q17446A718225b39274l163545r64172j639710
45439f006701K036241c91084D659482j477567b629242k088485b293811k86549
45431b580360k057166J441150G32743N73966J270822q50325B39755P7768K65252
45422E82775b883494k499744J579150a702159L9023n37430j002581k504113l64546
45413f071806J869131J3888J793506d91004d9596l339950j127363Q62374a007084
45403a484891l35925d88199j99261q50019j89738j24503L41703B05164K89599
45394D94763N73057L478642q18005a30116m425691b027744B759785j157642j57047
45385A445096O86716e02918j80111L09590A245067k23777b141073r90767a092799
45375a436248O06524H74105K372384p69177B82198a720108g23172A694790J445227
45366C140017L28350G25124b771951O91312H00700l05677J77739a093840j192369
45357b286209o75361L77946A39684K174977k64700M8282C71852a613343j093188
45348b706531j818700p79814b286252F71741K250841J785251A053183b096211
45339b053855n73411k549817J800777A76748L68920i8416B108934J975285J068217
45330E152436j424771m57915L54169p53842j63031J582673m8773j002297R06505
45321D145154j636773J341209R62402M76208B012545o92695J7662m85900h63948
45311b727898j966670J530500o36141k113075a102692A310659J919645E57708
45302b881310j1703a53634D14819e3921m99911C67101J353486k46610l85451P21605
45292A810131J163885j471527a219975j281447k169579J285773a412879B98916
45283A004124K110603R83043O79646k240031C07055J452338J199360Q62150r69582
45274B851321o59106E98225b640902Q44015g50567j703441j75499l83778a405892
45264A031376J484150J390270j069169c01719C65661K746639Q67432j258374N9230
45255B780588j23302f8004I87512d5151j420749A660924L655566j195708B20339
45245B102714B04565n8712c013574k816370M31019N93372Q00005a22721A961442
45235A563015m32274a596490k138471k33197J8688R23499O60988j091583k091904
45226e548470J716821B35956Q81358D87255d045306k072001n54743j062482L568339
45217d166193a131679K84092B368569l05007f87130C09104b624467l084695p49266
45208f458428l022605K399291b898964B10205f11578j498217Q12821N0783M25852
45199h20339n74733j411622L72001n11011j15364j168724L29519K86876c63407
45189C42914b088957j753876L04170J210793N86458d19723B08347a531253m87794
45180b019047a70540l27138C300413J590860M54377r32389p97555N3760j614554
45171B054912n97514L318979r51524A683490b59460p13777H76466J062382J852549
45162C791397k22098j119992E05151Q2903i07380l634557M8831J030266Q30609
45153b632231J246120d39046B593555L319316R5704k045026j788416p36630E34600
45143b024667j734682j589263p47002Q81602J673610J135183R73201k250443J025045
45134b657416J015461A156654a388426j940301e55847C958460k47597c33095m27465
45125g60560B312596R29853b27986k194806K97861n5900N44282L42668d24497
45115a85301I00152f00895I13813k93238I8667J712024Q30185j315668N16065
45106A841273c16009l366600j173100R29013g03005A594801J967391J736649j239991
45097D058850j241482m15302p05627A4674Q90010R98032k69532a019149n97959
45088a617108E24047M60935d81789p78895j332424J172827O20501o15840l126682
45079d542302N56188a273416B604003k28730J203723m32309A219429f90954A981308
45069E132515K351426n73418C399500D08810B00168J355365K197643j56981J49321
45060C745516q78999A083805b09612m247320k221555p52800K364307a962163j56531
45051b118694K79869G76088J519466R98086c53269l823634L96203j028502J791885
45042c017317a13550B02399M158375j411399k28184M58969F83090c905789J38356
45033c767433J710414P1977r26676k063360b172829C186164m12837a432149K64339
45024a167810b47964C077765K006756l65130Q88247k438227j197523K318650r07068
45015C383470H29272Q66020L63642Q22098d59227l210133P23183j252243r93602
45006e192022R98941k26879M87897J634898R2349M72739h47161N809l03099E73293
44995a169687A573112J185479q5096j172594L36156m53569d25093j059721k37537
44986a722351P20329B127118J985298K765503j092039B236612I48704K067009
44978C015713A158350b709265Q36702i19349a9621E54171j6721A73584n4817a838989
44967i56202j69469L03925H59000J601650G47165b075707O44389A455336i76748
44957a853190a22384j733158j463025k005536R19209d66221C250876k41611L00967
44948C310232j188127b43398l28711A965250K75918j009299d56382j734734l403295
44939e594411K211867g54809J54413k96229j882273p14976J707665A534745N26764
44930B061509L14563I79247a29022B829945N95049L61643Q1594j214869j110175
44921A543187K87650A02221M90084J477139C67164a293340k402641k486872j239474
44912g422327L344471d3024C91025M43291L05976j69144j93490J70191C41694
44902f23740k030550j272725J520842a66187j034459j64670A79289d2726A323512
44892A891510b538419j048558h00328n6643j825442k016247P90408n41427l484892
44883g934571o44937K531150a285703a86487j520205p73518M53580j79590N70231
44874a635989e6597A636141J90711q01531L550918J322709K94173O1649k271369
44865C983401j714449C94085L63230J378157J65000B78494c42610H73085J850169
44856B723254J339839J806917k921088e8435j527481l714610J057610a722525
44847g71374p0770k964880J250816A383502K264962k26859F984d220608k682138
44838f902746M38325j117160K812634J33090j195201l10828a838148k3107f83980
44828b145653l293392K357654a378038N00614r41509l981204k601183k120321
44820a0521641K617009c750372J737548j971150a739502E9470b230479r2837e82354
44810A922071K915110j089328j642454r15787i25598l284007O71274H49150B28461
44800c92346A095798j94486b562086J235017F64180b960626k36215j536060J93707
44791d539194B119511o55859f4827A230094E84253c487227j962748K079121a541881
44781a459378R9433H22543C46450g2863k694041k878942k351312J421201K347222
44772d228735g76463A392775g22581j347356j291907R02909A864583J365653G14374
44762b633518j850610b145962D04755M37529f31451j720550j565209J371521G25436
44752F83914P68667B57762a411145j384914a026810j354249j78544J228406A290255
44742B689578J98441G83814b29417k10978j870272j015282b9077D611791L919180
44733H530971M6432l055460A195182a665259j404298O9096P67829F23093L84716
44724A007809g20081b30707A868171N87551p95579K440285J429138J891228J015247
44715H436041n54582j521315p25853j131412J13629k9387J109825l14832r37077
44706D445037J977974K14647C240284j091045l06323p85399O76670P5059L93927
44697B203173K6870a501925l662449j541614J251255a637273C594547J682216
44689E276763R31137B603789r9425r64799R10180n41661Q48148J480095J528742
44680E765069K027990j447550l63935j703811o39499B4951J80167a008091o86636
44671a694727j425819P05154A572829Q10655L01598K43624A047392c60797A247761
44661A236963N39194K028411r65149A054844l82025k94542M71931L214319J181341
44652E245868J51810r40966m61112A397242a220018j521177P36291q85802j78160
44643c068866r26025f85195A25360L29055K03284L49414J195904J137378j596957
44634A743438D76524a596034j475865M84304q38458a229153o01494l41983i30647
44624d76825A136741Q20795C52351K4249K092180J820927A994997I37376J990400
44615B927776A084157b069445J35022A842277K076641O18834J615827M91351j63118
44606F481812r96976n84704B121671d71083A091685K435907Q33215k093457J285364
44597C552714L252098J187445q72476k446180r70838D17834a317391I17655K395205
44588C312860j654833F3898N27921K175996H69890J781896o63998F54872K30705
44579H85577B80520a280226O33946A919133K512096J03199o97007j019331I34878
44569b81578A172928J728422Q59470n23274j038726B70199b093350k382504o16931
44560e092785J626573e8531k686402k80228J416579f96355C333316K434976n02766
44551E265526m48902D64447b360459D83079J236671Q71693J698254P12923p70401
44542D232219L53735J918337M79522k150776K37718k078754E28634a461929j482209
44533b944138j050991J6497l8088m46463k951705j644001M324467b334116N87727
44524a746389q88604q66842c05221j188675k409612L85107h16789B30717K492669
44515B723386k4782L97187n14376J465459K06535J53257J428666j411533m81559
44506C942240A196528a65751B41806J01848R93942l40906A97782g39313F96927
44496C382212J427501r64838k48265j119573J052839q03752Q51580K286553K055561
44487G919818j613590A844034m11773K815710B023781a731662e65187r72649n95289
44478b133125G10418J024101K153925R3262m63457n88993P73858J020252N90602
44469E313968k322428D32165Q69433N90448F2717b426818a207131C23481K459566
44460B783047m24228A033560J76955M061060K498137j570969B829984b309794
44451a809266D78599L695731p33964j221472B8953a35205j015629m91063f38885
44441c431323Q18a60555I26115Q77691H47432a823226a68624A731360L282098
44432E013458L633799J327689k241695l410181A96747a076043A088787K331700
44424C420487A153449c310693Q00746A594125M81748p3506K526272M51609B421211
44414C95281J184848J19034b922000m87125B004555K417531O2367j333420j339340
44405A811693M50855J077874J25617A635657a024835j731415a22221j318063o25503
44396b065787P63884j906985j918047J691943a108492l93771k697870J392629
44388b807504e49689j832158o50575l73501P22788J216627k328757k80265j75247
44379d250777K13008a109162G73894H5551c58119a10950A368437J739912L02118
44370C410467j250118q79905E44657b00551B18836h01308k928001j013166j38724
44361d881199J371725Q75790g72176E75072N42103n16855H9677a743410K41751
44352a501659e97512J06000j154085j804674k654362J153384a896367K67127J05042
44343a524198M9131p3517C297060L083555k372399E87464b314380j706092J175186
44334b845286a228749A127778J63461J097862c61598j558611O84236j21069j11976
44325a469018j454064J128882E0244k0534J698126J62883F84916d58351n90988
44316a049339J76845b03142B341851J328794p89712J78551j358075F37917f75560
44306b863561k331717n97710J406555J551581a171699l48567j672915q67765M36769
44297c624177a254761a82358p8103j678894M2109P81491p3135b13993B57297a577849
44286c915006b17752B826172A299243c95317F59664g76390j814200l95416r39174
44277c925180j222287a809788d23118k777735h02303k382691j186787b095929
44268b398781K25742q229i77575B104844K945090L460219j091097j243245Q95282
44259G071093p12778k131970A772331b648850k476674J79370J607291B86087M040787
44250D326874o27148I37981c090776K632a388329c89047J12657j616168A145396
44240E65830e499505Q75877a602646K45545F38423K531500R57484L34304A739723
44230a719878k882741a932350C47626i66781k350325k30030j859796P71145J769416
44221b866371R87278F76201K15583B3256M25531b58123l820629k637501J337013
44212e379240a236720j724140J339915K09648k202849l24553J514722a045082
44203b819857m83615a039134G89440J681823M94246A377485c60782k07027B413291
44193B552017o80707K7985O2014Q44812J000393o10091J6524J158648j521796
44184B849799G91544P66579O23590R38335A559421L06241k43284g01651k465589
44175c167240j179263i54832b10825l616536K13663a454373L05967j276500J196604
44166a228302A608443k08910f7135B76948N785436J600424q87098B325347D60023
44156h50974O3433C28824K259703l8712I80222h44854j216101j548223a617761
44146A763218K331086j314471c29837k384122l20410a280850I04960Q77991K9243
44137A812194a283913m91612g16010M6015A628304J294982d78266l12971A411096
44127D373485J251295r52943k142276j242429m93115a244482i2464m54801A75664
44117a527404g37624B15149b570423j319231l609579j027892N75503J293992c090347
44107H91244J085261a034429k016166L85987P23966C374223R59928j076067J85949
44098C444033E0763L41478a22058j803755F9241b68227k458655j023380k293901
44089f044163P27737K530755I84043J949086k66377p25023J58554l68826J309831
44080C041288J62389i6339j547113r82247O22988A801324J566276q66333J062925
44071C564192J485767B285413D30104c863898K1162a562816n42966j520141j382939
44062e008862M65801a540101d03645e6938k634691K36126e34183o43266j476894
44053b654343o92982q41046l28997J294998R0791J243173n11883j266973J384289
44044b282973l404328q33399K222412Q36924a541766f39689k557340K74266a180592
44034b702886P08056h90025A139975O25322F97374b86666B232895O97122J074131
44025D004148J11727B18565a740847P24377j970796R5473j62040a343339H48603
44015H95595D16498K009790K509820k010748i57791q57902m65282m62889A09976
44005b74147l231368N37945O39073Q35470o11238b55200C630284J91766A879782
43995a071155m340834m004098p64707K598725K500503J24542J28419M2622o27612
43986e413595a666007B11606a07728A467797o23315a952497l498377p90392M41548
43977e799718K122089k8288j210216J459327b70998B467588b04757k68169C070568
43967C614374J27458M86465r02149J802138J235106k513255B2376c011955J135110
43958a876845A252413K576921M810818k074164A359962b182987A96833M623783
43950D820616k270389e37194f2261D70942c37468k003960R60177B626458J301051
43941C927509F35445k67889J992136P26577j21039A447766f48017j272555k432838
43932d353410J352193a28114C798008j09168O14697n45976j046948r11193a677790
43922b266706C28874b51440l846759k139832L064646B291341J937111A219631
43913b064379J46443c57596D34400J232147k73459a55896j300457q87218k480375
43904d823946k695202Q94951c168348a037782k91764K49678A846364m61148c38120
43894g19970K48623j7962k008175N49574M62711f64326A566920f69792j324474
43885a994266k070229Q71323O79255k087407k863596K448913a694585g95483k215541
43876c011024j242081o12035J717037j04497a454276G11633K205313K281955A173439
43866a201841I99574M61408m7222D23129a199769K85635r76331n43528J059897
43857a374096r57921j138119J718480a58707A801042H57135c59962k24223F63767
43847B283166J147357J532248J698353k407213j902157a532035d47670k68979
43839g16649j152916h7141C77901c19414G87672J179793r2148a504729A81425
43829A393137A68472i60154b60051B96596J98576L01792b4931k395248k279554
43820d699733a760757d1908B58395K154769A109851r6295A39106b788272j320845
43811d109117a439145c48380A127601J50663g12197r27424j0955g65523j470910
43802b236433m56477e36239B725199i87280k527506K1201J257405E02979K161171
43793B664150k97401j42672a885913l350806m212256j87964M733605e37961l898130
43784d436091k004636J886390a572682O51042G54125g58061j887571J222505K82668
43775a140459k038191k524815J507367a093881j179898m23765J039730A031035
43766A466976E56209a39751l140389l228631n99699l63660K994535J276246n63509
43757c764858N23589n86076J633067b78452k709807n1251J052429Q53964N52695
43748e80422J85129r70356p4218k057027J4953g62333a42064j077730R4619o44263
43738a769438j129159J164602A683745n60006P08765J237550K306321j307061
43730D069314j46711K11301j721662K124430j085157b55673A032463J938917A408865
43720g45574l730796n74052p22749C61362M079500p96604G70297b411442A380379
43710C110749p38005a450860j771669k314719l43193L23131Q88190J362436B849426
43700C975875A907420J277645J559575r83570J159524J153378K836741j058073
43692G852640q75705r29534m44837o13235q31172M9513J56507J786651j459793
43683D691035A483452k02103n85301a529661e53700B022106h7083k714849j102399
43674c904331J03924l36620j954135J152954O34693J389543a091961a54394H02579
43664a210991o23182O3691j085322e48883A777575J124741l00086D82762J025813
43655A508575l11446C36797N13634c2662j275110B584047M647366J141721p94315
43646G578819j617450k893887C58084c423427j409148b292676B604874K242315
43638D847189q49689j418702j244482a51406o16687A04614N234299J63631k443022
43629C059522I51823J49569K559372J751926K10841k328170q92075O97590J800765
43620D901641K931601J755409n97595k52378k304273j457600j628174j275636
43612B072995e58399l750124R18745e50272a59441j65988k255987n39778o57489
43603c778683J145029a139158A045923J596519P21501A191608g87839j274056
43595b061895j297208j411848l49384O36235J537927a339319p29461j61425b10540
43585e25066b61890A727749O19915l23720b98532j352473M11571k62898C191875
43575D729596j184405A590628M3236J285203J859971j350969j471021F33907L51283
43566I85190M47255J014754H80371K255481K142967k019591A46955e473187o68625
43557f141812J718197A035439K684079F53788h20968B749061A133524B10435I1945
43547A369393J27461J117846L958003J401429j013466Q11533B774916g37945l42715
43538a080660E23141K153973K38362r40168C11312K631255k92169I18036K297849
43529C215885K471667j999429j601846J665182K506703k281552J56980K341052
43521F474642p72252k439489f51173h3762n31179j236847j401155m85020a95694
43511A614248J104448K396602k448765h44097A902983L78250h53865K59981C423651
43501C422022A180111m63823K121002J854743j404395q61581D94164a234980N52675
43492f82305q80555K10682j0726l26359P78566j407728Q90500j95254m52454j20387
43482b196020N36298j324174m02398l242181r12916K639103K65748j243071J732446
43473d147165a955312P60596A3598e54853R0075I32749N92576J280738J684091
43464D490154j688926a612079j230169j741829J028327a169855L94143A424517
43455A619431l69726J200630m41520J41444h55627j542588h19111B202836K737193
43446D940029D18278c675313j141827n58837J653930b42711D965041M323230q82171
43437H406100C664000m68083L430183j781987k0122O26726k163780H9404K778685
43428B868089J179099A120633B32352b161775r48499a485599k04732I1906N243762
43419E335668J806626k795294B5551a993550j92086M81399K57152o10451f7846
43409g60637H06145J297775M84449F26089b802594j105510Q11624i34960A154164
43399a856807m559244k095563J970050b786950J240119L05802H73869J933347
43391B807216K741101J201822k489162j324799j105383n489P11360K372470J457689
43382F366825B834772I25182e90125j048080L4364k76789M37292h6916A14028
43372D28156J803404J109236J215318R60800A648283l48748K795807M297628L354671
43363A1747641l991230j262794K530646k185852k262476P79691o284j716204A635556
43353d25397J6361A208542p9522A27234a760100k19663F5328M402008K340393
43344F807729k919605B64490a240309l94574A404704R65658D12348b611828n58845
43335c170673p91059j197531a004179A102529C98796b63917B904734J358672F25652
43325A1090J131995M612533M036169j751671l590402O02760O22772k447709n71263
43316B656274j227463D33584L31084d31099k514239k396619J073150g6784A785237
43306g82797F24614J2360d427924l905147K240339b265175q76875j576264i60748
43296C865418m61434G44424J132876Q05459L013831k675946a078572j163111p66937
43287c008620j127647m89102m05325J674463J448530i26241n08798j004050m47240
43278b886329J82051j577147J48784J553084N82436N3252b12474C877712j869337
43269B008375D95933J975910J186749n34548J584799K902927q46576A628120b743127
43259e094561j357543J419492m65341j609654K372758B01376c244863L86645E85224
43249B673504K105926M123477j174787B283624a203264k34010o40218h54109J89744
43240f64365l220375M05875e275A008579f87627M2189l082705J078744G84828
43230A640129F18513a16841A168077J750706J762340J563190J316721k562527
43222D998507J989616k21589k386623j872135d43276k051804b83781C683290A243565
43212E36116i95302p53541B511729K878582r5544J491766K583575k71639j946461
43203G152008B267415c423722L60028a505654n58131B204236L002923j062612
43195D144547j11415j879621G09350Q26598j99274N68770c61138A290739J497219
43186B787958l01154n23483o12355J171414K58918A128431a74810m29749A229926
43176B338962A027612Q91468F26992c511199j06139a526097c68933B126986J57324
43167B284310b34127m86163j311729h20121B189484k55374E74402K8133r0914
43158E11621J563270J837294A244927a070770l69968l797069J466495B77948J207196
43149A485144J034532j089777b615305k158743a781166P3759J2357M73364J41232
43140a080454H35268R40530J336739C10375b474551j005575L92900d71085b27727
43130B660484J668857j445941J72541A442926p06311J431261P36762A346837J382595
43121B729432j114863a315674B313568J752722L22480A953983H8919a101711r63249
43112b064960A305035Q83849L73832c25571j672o92680j433912k3908i404A898593
43101G23695J09632J348565O10343K666921M23669k491269J46769Q10193j718863
43092B629655J310506J92950B005133J007354Q25752G16623P44221Q06597B8705
43082c512499k466412K080019A43695O46247C83036f36903k880172a527264B292244
43072G602935O05685l765667j487788J038421r54682Q19978P60305A101777f81371
43062b618770L82263a035484F86465J924416J102580F77635f642469l134701M166049
43053e611121L6850K09905J065138J397848l03994k288974Q29568a102263G41769
43043E18751g66758l347163j673613b219036B547847N94973A340255a988684m614816
43034f603500R70602K054585k3857J276185e72278F57942j92546c19165B098653
43024H99979c545071q97424k97784p13683J334602j720126l067345J706650K292333
43015d907848g79139G42563g6043k066839n16291i47525B642781J853335B065970
43005A986633K523992O03337B004895a184622N43377A177203K619222A752930
42996D012800J081696L85113J921079o74924A739718b690800r38172E39239J575086
42987B114325a43775B144932J945263A889085a307909O20167A496389N28609n51618
42978A473380R43984L99907J946354Q49500B141217J342788J873196J753276r71091
42969F139386A279850a024799N06584C346183J901649Q37176A258299B47461J222080
42960A469541L455071L02087q36919j144234m8405j79093J501791o42780A328352
42950D89752P52511b13402B945034K654447J563477Q29389n81277p57372k036484
42941D617214A188844f34085q27071n9396o52027L27314d17459B036028p12544
42932A323484D78633J781844r76033J759155N8000B75510b332807k732956o89857
42923e755620K42701K098156J12371k97059a250401A491412e22234k073802h57594
42913a118447o28661A25622K602545j074889a015780j518768a173673A120737
42904B984041G80568b420619j340219d13716C945125j059835f59424r79241j807829
42895c446494a363577m74292l426597j951121K237195g17073H56136O24417E71969
42885A624245E69860c254259J15472N70462j846214J634839N06475j142679k7314
42876c443218f43775C176575J809331k55877k1870a185956l666495p0278O56906
42867d265823a913664R26335C066947O43394A829136b435220k115872j423782
42859e974874q38278L315201L32753j104845p35632J169051a382454n25779m9076
42850a957309G14921K901728A213126B46418J509487L143247K109996n8906l279218
42841C671024l4593A817347p29913C03284a412839j742337L22661b61088A579002
42831A689129d1365j448956o75990A80066M04061N46541l44458M34753N34500
42822A755463J495798A577945e33612C33124g8895k615439k484870m48209K010403
42813c617010O30535M53742N64499j897926a02506C174683J432003k223874d39831
42803B13187d7594B026616G67661A10425L15577b63345G40660K843046J769927
42794E353633j560466A537683K391572J764751j440502A161658e53515A170415
42785A969698a129229j375316O66390K88723A056139J099179b549788a220379
42776C936813J881554K013774l08577k829839k194936J251116A445963C5919a114696
42766b596696g89055A003379d7834l330004k456802l73117K701949J424243k3841
42757b105406r39529a349861O30879D30919J314994K559337k49278A589205J207614
42748B796819c64954m797844k96741J906930a421871L26294c23441B351863l04699
42739B047164I16737C72429b531683q81326h39483E27098c509147m054271P83684
42730f779734K794967J669971M15480A465755Q37489g01153H30474L995664j525192
42721C300946L40558E85296P05539k64694a008688Q3322B3892M490338K211721
42712F725951C339312g55298K1322F69466a069976j737251B300096A126289f21332
42702A559211b503012k140172J561624L24101m80086c59194G93097d61170m23024
42693h84194m57056A030782M130416P27645k559665A162055M387220O83637k761380
42684C471532a073418k522802j435896J628289Q70355N99329J62025j736983J46396
42675c362705h02696I83571k27530a339219m0758m38858n30627R09802k012452
42666c452112L93437h5516A66029a615374k679706l340022o9687j33572J272058
42657f566303N66140r50033L27870J147362l24305J753973D9419L126661J638575
42648D814655q75480E60120a599028n50892k032067P00268a62653j647157j972052
42639c781862J376370j710328j927973J279922j332909a376751D749522K684546
42631G434068k244799j281337j148793o93007J838134K90034j501592g28689j074563
42622a803252i4485A374625e71518j300003f22647j460742j850690P64598P28763
42613b440718j941444q46454a296945A600237R1146b47014A084600K655992j462915
42604B277677a650191m207434N131M64390p04655k918028J438872K753437L35101
42595d483377J527085A697009O536155J398407r13196l311187j642368L513761
42587G278581K655762m001296A088346b973527j762206M27919p24820a134312
42578d03789j466565l178212J148415a029870H87434L842588J005043j039995
42570D695070P26585p30411j512044n63796b278515l551539J468297a327307A654921
42560B573181a213790m811922K120253A152631K576748j70623M88447A616394
42551A971152P74529L21324j253013P44698n27592o29224K130818A392541k32205
42542A160336p4412O28164J317854e24850m367818p79623a361747B618040L498423
42533F116463q02497B047323a390023l06730j044641l56183r66737j957788n15942
42524f538044K456651a622281j692086p17964L60267k382413J93653K261885J062136
42515b536803f75103I36961R89055n67089f02499k587514Q33845I52317L795208
42506D747525p55442k08650q39327C27784c577493j571993P0613J187051J678723
42497b213099j44646j533008J025560a283956M88421m86253B10610M688293J137960
42488F036863j711502q16703R17143p73239N46977K221681J379082j716244k339184
42479C744874c650129n423964Q47246L013011O33660J716557k431179J080338
42471d214460J358661o38583j729726J058700J712759j489918l975371J25468
42463g792470c649966Q38464k588691j127057K911695A529699J60330b022032
42454d266988a830156A464508L11340n61346a138020M86159j619547p36315k63230
42445c270953M52651M27325M68395A006266K455198K612754j692121k002791n25029
42436A854277p44490h26994o84710l360530J17246e28833m57170j868698k99056
42427c153757a154716B60386a350672k789649j254495J353792j88393J288161
42419b941256e98832C989785K250131k574826j606850K469153K460812k080202
42411D908003D96352C7040d98005b33285k870328J453879C25958b26086m574077
42402d800163l7449b183431j600332j045808j515069P29680F65430M012715N57664
42393E235809M50519B073266a694851I94259J532075a237147q35643N60971j446405
42384b958224L22880b51075A014331L2747e40717H85864h10157p10688b67857
42374I46669A19810c08244j184975j56699k16686D14003J243946m33876J354230
42365B578303D69191K34247K373232K16416D85278b659570R87544l124165k42855
42356e039046a857903G836c156406q30689f05823B489239J897689J540607p71583
42347E155952N94852j530300k5783R55717n63803J828254R08816J693205k2856
42338H994054D428328e82691b06908p3551D24390Q0817f19036j063557j34917
42329a817510e91390k699207J014847k90296j553540R96474q33658J837695A857649
42319A815240o03678m2827P01889l62945L92793a68251j345054N21322l169840
42310d161823m431491P398d209048J225336k050702k511758K590913J126507j910561
42301e739313J132469a242079e89587j13140G79862B52001e6823o4897p66391
42292h88111Q1680a58146n62580j839910g87807o86974k793797k744101L67850
42283f644829M35291m70334l25722b445616h83236l217207M03194a118304B427777
42273E547479J920120j906280j286458j972911a600530k555133i37662C181406
42264D385366J426248r99295k250716G69329J974349r97737h34806j209953o27805
42255b672564n5654d96430A258242K714542J474894B418764E54415f76996K70981
42246d06015j181924m753125j991090P45605L577271A543531f77296l070825q72648
42237d620769j684566J60150J116921J759533J31784K86648J156434O75083A616111
42227B727540J574560K281773O31528K31350k611385O28430m64331r94315j309762
42218B695388r34391a754898N70650b58200F9393J517670m65246Q64578J082973
42209C069368p92399b05098F64266J703851J79847c52982q6188l375716m467377
42200h282263J096111c387206a294208F16752K601677G90780a890767k412963
42192d303730k175493o77848J191633b814594n31132j679353K252033N64113p41665
42183b950598N85294B69950a458176k042206O64023O75310r48300Q86531o38179
42174b860997j295439J146698k13522Q85987m93628k903925n69449r6470J858215
42165d542530b22359C496872J124902k161795L19056G31824a158561I27540K60285
42156A187825K45091i47296j761377k305072J86636J891680d99399A604273R03779
42147B508052J335574j244441a064733j501074j832438b085371A423822i7286
42138a673124A971237K319397j904298c97180A764621O22608P196a410108M92544
42129i17564d11154j951456j863509a062452e18770l558399l575057j610234n81782
42120i844242K656854b823363H85208L097855Q24053A178228a506027j76525A88034
42110B557646K30705A198333e81311n27293L61330b02462A175625R3008N49455
42101A818088K064123q44217o62811J065648l48185a000820j730016a123432m13204
42092a536636D600J638792m17946h19852r4013l39222p71317a609n70424k265360
42082b837393M65190r52222P57110R85065l52442M90378r95759j265719J72895
42073c532897J189163C120415M079626j711907m59534k158702j222211P17418
42065B365105I38255e14226j52467I32019a16026k033608h11433B746793o70317
42056B076476j96380K553362L135980l134340f1785A643946K278933A743802J64867
42047A908669J838402M13377j613193D73422a631589P64147B13957J281483p07191
42038G88249i23499p11702g70107c9705C67925K049472p93546J025119N109178
42029G758148M102740k458540l221990j050842C75385i02507k91712k484473m12546
42020d091238b000610D18169O13082N11489J622269P084j361035e37899m26571
42011i64470E39520K585119N49959j366074j128737j35890J57479b98214R8066
42002b00148B656055p1060a278593k19276d63006m03173k744497j742925Q6159
41993e267442K316106M98433O13945f12878k273538N17222A181568a196822k491002
41984c687824K26070J409612A709421J540958G72391a260466j421213j187921
41976c869600M90951j905172J581035N4525a774312A570689n48496i63175j603770
41967b566945j482a247623j941954j618471k735488m48519L392812b237192N71821
41958a665371A789700K578917k010568p4518L13804a44794j49897I33708b134681
41948d090533J361185B76179a995570j848600a821681j071148j344586a119742
41939C530715A291134j40517A62561g08143l51001m04169j61947A48502b43165
41929A125399J544946l47999i06335j172069M2990I93018J061801l74270j16642
41920A563907a515328k664216J141617a058644L31896A067252J564820j116188
41912A515884a057498k209111a602675P02945k9259L57910K3810q79928j516025
41903b943222a188456A37721J84957J019087A55177J463161J194852N915L67378
41894C186483P48631G01134a255365N67818A373267L0704J991382K008150r6949
41885E306554N19548j367323j196651j29336A244676J459113K060225o82406j768927
41876B312681l1892G33206P95017d39458j923927f18629d5403j099371n58612
41867a703386e8392I13488e65978p22959a46184F36318c99563F05250K176587
41858B781837A303809l30315J439263J897729p17654A391307J780540m59702i33642
41848b62133Q1937j634742O04004D78532J360581o00265a031557M72704A505232
41838E226895A530647F42775K228337C39800d307496J852444D40826a864822j710281
41829c575103j259511j09621M21773j475270r57325O4223J600904J979806a521719
41819d061063l85425J256346G48827J381933K073189Q78720B131492a045689C78074
41809G23449h41403k32911l156672n20318L83071O93848o80881j144678k040087
41800g540031K335013P62163j308910J20236N29394l817540j176742L530354K059067
41791d506996J883752R4404k961562J712478P97675j284561j247311K60136r74947
41782f226932K437468a330601j480386L73845l245679j511334P97679J399916
41774d996560O11046Q50408c57601A676196e38661k706360j62576J040518M79520
41765a887559M19903b09213j780430j623165J157243e26640a06204j404253n98900
41756b109357d5447C124531H18034b486213K32775A667413F07345i99342F64649
41746a713227l872606r54784l7648K16849P28372b395037a092341c75043q02462
41737a177505l644613o27426K85313N54381n90933b225862E82801M431397J25921
41728E140119H47187D19210L27541A95947a056617c40589B133126L937402n92211
41719E478317A402598k15187K53333o49167j19950C17037a177027a14595B709818
41709D760984J256760r9472K99859C105933r3567J563135k124575J1656K379744
41700D842326r91188l62908j188047L168321K475280l7320p60118k270576k052419
41691B823351j166511F87024R4417J463361M37593q97731a854906p96510J014283
41682a637133B205202J010860J174053K11145p95284J64315A393178h62710p87894
41673a650604G85454N33807h12644d04161k47044A952981L003232F79421c16528
41663C30520N00702a901587l107020J118920i26195k249227j879874Q37801L99813
41654c817682J363206d45002F68475g50451n12583l226141j771358M015J675996
41645d580522J409925K70305K36356k53486l279096J108378J362105a641659p87907
41636b429566j253130e76791B594768G97090c32837m82326b56121E98831h74093
41626b167967P98046A545447L015537j873150i1170q88921c69609q98932l425683
41617d694224M22994A179455K450090n54480r62699A051691M09163K40932i6786
41607C068434J732148j857474J656724L526774O39446j484109k320690j565765
41599C395488I56061b077498K42439J00244j280668j721905J247771Q80509q00453
41590c409561A62792M663832r52506E318c236517J492573j078899j35612c17302
41580a50496n84610k262165O00381G4422J401926J693432m87723A34417b49013
41570C75350j43250J839901N43169H80267a528382k543553r1041l111437J71581
41561g102832K578479b65175l429055m043378l954752Q73712K933910c677477
41552b884418j879293j42340a209431e88751L2906q96490k00000r77872k153572
41543d783779j410537P7373J997779e28131f396A053663J135776O2854n76295
41534A675998J956123J392418j171438I98260c31937A424030m24317B33558K389635
41525B623193J080240A484047a181948j300305Q28202m24388M62428E34394K392783
41516B927177I87938h6601n42380j206072A487016J003002J921036k78683k033232
41507B099139K75602A26716a683088l69566p41614m76696j278182R34697J263802
41498b350647l29162D88901K297668A253177C65270a51743k624297l564489n35281
41489f875810K120450a812434o85273q4593C35835L850040j477003A349811c84126
41479A03769M199561J870359K90700j692266A652631i02614j507835B046359J021739
41470C068098j171273a618669l469152j0255J951992a425423B909856L155237
41462F065093k415866h50638l300251j775162q96200J730748a918549A241811
41453E673158j53479k758919F14587K344525K16425C04414a742866j769325o4678
41444c576869L70978J042002j93961m4956h35119j82510k769881l061140k21511
41435g070161K805947J631687F38769L403410J588810O28377J72051N78782J49686
41426G159885k003893A569557b061034l83211a152234B46464a586624L11468F64705
41416A097358i80122k251984M79679e54884j753902r56611g11481C088005C03711
41406f777A564121K45749H4622J102531n75910h87707l504211j308716J354404
41397d346230J761803C30931K146187j09496B79879b295146j724946J529859Q5681
41388b404552L46487B36095K437425k23304h62541j055245O53545M29616H08269
41378a172334j008672l64332q26843j84329a260589l63721k163209l696424K537346
41369d946597D86297b81453j670453j520625a488521A290761J78442K251306n5700
41360C664809j802606L58338R16597A510368J251155P59549A444333b355965k041979
41351d397944P80124j281340l103900K077279O34241J90175R11109m63612a888940
41341H37005J151864K150941j724892A168818n70295d229791l484747b017347
41332b160176j879392J211643O02018j51995M59465a09132A038044a571278O03261
41323i68017L00669A340872J470273J477846P54159L83890J151377k188538J45317
41314D535196L339875j4215k24374k663089j908767N79463j030004e68008l790422
41305d358430p77844M2086J529556F95520M379351o81620j993751r44947L215617
41296D670170K207021l039103j188234H43706c36441k167725j582440c09887J18497
41287a91390B38532b014997n32509q90100k6306C21231L350836j21879j267123
41278B283065I6186a826675k9174j174173O69332L56949j301543J501994j001170
41269b804460o93309L8313J145831r34676j581864J699500I28854d54066k9201
41260d83267B111243J411986A136441d11153B60378E5523K001894L481649R34138
41251F473204L685305j793681k376152j431027l58681K901131k180408J380710
41243F300401j159904J291367B947839a257296n23748p14948j004892O05023O41924
41234b253937g9172l84754l434885P9556j22917j165814b356168F30093e45449
41224a649175m53489k6963r64270g83291K15621j409833o58037e16082B758083
41214B859164k40243L093580L651055j349983j334380p85941p83421j182371C77336
41204d73054a10106D45823M14758L534289O91332K710563J209452k623001N83089
41195F966305l85588j586150R98184j16865J062199j017907j281405A489186m60448
41186A028738a598485l202791N93881J700250k665363n15550j265719L014053
41178c939724j25551K009233A326200n55196J412542J050066r27477a449787k629250
41169d079037k57962J110616A166404P12289b436402j913010j158059K194105
41161c313366i65118j857234m41826M13446M89012N73614l97247K02030j269248
41152c252571O7328A61809O557887M346879j248181p27142J039350p53432j394633
41143G982537k351469k279472F89889a863918i28056A208027L17933a130980l529217
41134d660197J635136O25675g64589A078679k58295f45372a61316A863140Q33580
41125B696720b30618k362077b27161C311027R87097J426817L012174J708883m539602
41116E906396k654274k37136J751448O02422q33959L214810j624062p46908j070190
41107D308547O99660J77015B200419I47853J752248J210733e02510k845060J458394
41098a889176m63184K38277j668051a636138G05687B42023a609540b93852A710609
41088D169517m42709A773760J097402K89296A86216J802866L430412J90068B261561
41078A711762k1243C98164K313048o53317B29075a870828k460696j57858g84815
41068B69947e23759A147021l17500O25750L890731J320655B395374A02572J253100
41059A355672f91672L16892j18395j555271o66873f43844B333455g3985k776166
41050b850151d48557A077159N11452o74602A75268L152700m87825o48440B94485
41040b51783A769386k25124a246098o06236D65071L034460P81941k37487j1344
41031D032641J892913j08584B647319c4493A989e76417k72596J84375b88773l026728
41021c315501m818J431133L41508q2034m95667f5816A326273o25453C04988o2376
41011B42612a681834O4724g19551A125084b07945o10428k333293j850339J053643
41002c948362I9046e0444p85739B10460K274747A093983f10984D1848N36756K13532
40992G92136Q52401J622506A478739h66016j469043a110224M35176K89920f3149
40982A047243J50362Q69724J599934J354773J655642L94763k123431q0612k099429
40973B768969A345147P28773a61605j715946e24080o13256p20441j900596a736181
40963b098612m224247Q75979K401363J024816C87764J125609J098200O85857A43036
40953b824891p75514p76757R30527a240830E10916K7977J09939L13162J06189
40944A068183j98337O04480F81466g83044j542180J097304j82507r23328e27321
40934f10955I58195m1232p3757p1429N84969J212042J684753J396037k518873
40925C130705j318037L01958D6850a773968N15555B59350K8182J650692M44039
40916B382263q17994o58190K409334K525123N63700j265652j315404N68311N59457
40907D950948k123240A349612E82750J053377E63670K67814L36480N98984m3391
40898A723557P11990M2294K670213O15193j327472j894342c75311k880595l47706
40889c603612J581047j642821j608483L8945b93871A308764N48854a93448j010416
40880a203864j97353d01424A568139M1761l23096J528352J058016m07847A483793
40870A617350o35913b672504Q37550P76085j276151g67137A833173E91751j83916
40861D07835L39303a541727o56921H5186J989338b27115j79777P9878F0688a59145
40850b446803n37720J230664F69627L523114j466377H4209a824234j505432Q48439
40841b481227m94192k070524P21845e73010A341030K281170j49719j528344m33561
40832A510576a880094j674810c47967H6408d029782J058589a062676B29588J175801
40823A405389J438749O67388j270177b457635l103493r08555L101174f87180H78826
40813A878202o25018i73899n20871j216081A06779K128124J170664L072069A825426
40803a702376c76113D270225K886721B633641a640175j023113c73003A875750
40794B968519A434766G3798K948470J556817j353024o79358K932145L07427M54461
40785F240736J774181l468697D93295c07261A739220J445345M782175J060617
40777I027357j746827C211353a609980p26274k431827J986331a137871J44344
40769i93527m84035m37983k667788k076384K270839K095210p44234o20884j20774
40760c779560J389805R23892A484952J421160J993469A802892A03393R38139N86969
40751A628501R90448q99320j30724G33408J2736M04813h20337A361238O37341
40742A998579A97122a462313j490297p84945c75628A498614a231762G2884L501234
40733C574118J617927H41576c856086j35072J748651j870715l26947a936169P20760
40724a215409L22735o51984c19934A09910P10204a251335j805820o73729j06571
40715c837455L37730a061173H94957L08848E24470M88709L67684J226012o00984
40706B005891G00440g18845A239899b187036k929120g39125I76149B98390a239801
40696d737553j212366g57722C868028n47666A433705l73070K46449N67953J762568
40687C637605A508985a199121b08224C6553L439973l88639c27744k443917J060406
40678a711255G64654A53401O05956O56489N14240J647287A292397Q92328J544355
40669C729080J170735k127687B79181R09461J23332K677b636340j095884O50886
40660c081338k391076J144373B265643K944854k309784d8577k409175m46336h93121
40650C310172J157768E96794c095095n19972h98949A430981m57689e85100J12041
40641d73059j54835a43900A736503l30867A06292a742182j762224o078l49948
40632c860432k17625J239646a204851A145146a26361j465865n19711q71998g17844
40622B762193J133225p26232J240833k177486A5567i5371l508750k802080N24088
40613e882113K149005J316243c27747m21530j755899R20175a03177n31013k952916
40604c587106a718462c94083p46131o03287Q3785g82538A356547J531153B47779
40594a072529j529311R17693L2004l194715r10630a029324A68193a36744j555149
40585a691893J71547d70366I15272P36766l16887B79011a05310A867158J371059
40576C238217L61860J2133B45597b76737F48774B81334J777728K427175j681684
40567B804553r63137K319937N55070j051863A715726J8933A3188a566356j430245
40558b996601o05918Q5122J30065b6056A244225b109177k085045O99357a576169
40548e63922l02869k843332l321266J782752e65962A864969N36302e42375J39908
40539d02467j728442k328190J056089P91368K88607j213833a123188D090538R0169
40530D180707A335709Q37489n44148f274p77237j203950j260482o12667J594037
40521b266573k867638J302681C17272K465801O84232j442856m47072O82815m43704
40512A816488a241063j734731l96887j746670j072775J114524J321160m96647
40504d253089J899012F24436P90000L54279a115336L2733G56868f81271j120237
40495a801508d69841r60371j034059k04629k6065j86138J91712A03308R65964
40486A069272J530788J667557j560588p1373j204425K85506A98095b076287a004124
40476B130086C36601a93651B058682K466638J130016K831275l370786j969204
40468C146621c06072j320185A751282p13258c30917A572215g45344L30709A306818
40458a286247j561541J402941E18604A93256g07083k80451B130055N545b56990
40448b431624e55398a52675k417865K04995a26950A588656C32559J250517A62495
40438a735532m63749P87591A574636K225581K931685K356378k063344o17868j039739
40429E367329k418018j233999R11238J420179A27704e7319B426543l28898Q14588
40420B912233A010237D88576K62525K863556J526300j155413j045290d13686l634601
40411d048287J899472l82678J234292A478971a312155E55343K671865P76351j000986
40402C002573A253122E88951o1449K120603L36952r68631J82831j73379K24625
40393B250503K588949o82785a69121j574015k70650d1798D55278h17631b57959
40383A060143j46951d81391l486187J981822F15474a352827j996841j508582a619348
40373A729328K65635q55402A88109a804146r55973j626657J965102A508955L144742
40364D653697p71458q99367q97173E8962K230163n21131B73816a257777k545431
40355c803208l28844R28154R90716j776942Q85227h96612b4493j066829j568883
40346b660205j256633o73469j558594Q79188Q06922o23373O13198b093350N20217
40337a573133q34816L76244i81842C54713Q31954J265782J060463k55241J717850
40328D975521O3655q83717j665248k04092p66542C73890K175141k22763q33730
40319A492538J450507K413432M086167j517397C956931I11489L26062N0367c58803
40309c481665k961771K39682J410432K86491J599975d70174J03958R168A293808
40299D163091q93465D26616J910014q4630g53967A809092M404959j037261A871713
40289D05343K316909i12653l033249j513772o94787J031407p13234b343246q6647
40280b429893p17058L74405g38460C30243d0280j61546j226281j300398p5404
40271b803909P75336G25218K327370e79646l976707J28579K137481o03979O0271
40262b834001R81870P46135A984425p18978a088056k020622l558664J935247p44060
40253e476155J72054j276895m49632L502840a050201j613564l81578B702631K431312
40244E133943j511578j013411j069195n26987J324174J003892A239616b887763
40235f69523B130136I20640J133026a13767A575820G53126J463101R72341j70629
40226C017939J413938j639613r43585J918812j114068f13497j069129j48672j361689
40217c192987J051635k197615l329624J573449a427380b49863D12661i45914M37569
40208e08345A108432B735a25381E625631J371040j485785m32031Q77707K89277
40199F245839j516918E93660c407266Q45711D78472J505200n28626b22419A97057
40189I17704L075859J469403A764103j1291M700656k868562r74957F08995a481468
40179a987632k308612k87564k21511b354636H4279P18531c60204B290847M27258
40170B718105e51621l52480I13947J67527J44714R65881J646132G92873a254999
40160d57816J90510A357536m23847c76986k355561j357117J564020A311417J719989
40151C031406j112397B7470b463362o07761h98675B914062h1187p047562L39336
40142f789413a565998B216815a287572j709522a084411B60182g43557p77082O56259
40133h64380j715888k598954J454519J142072a246434d25294A975390j86939H46678
40123D35484K62616A2880f5910B22857L390649J372337k240579G85223f78905
40113a715441N76632j165371L59595k416915L3120b01117F01122K98436J537781
40104B437339L3103C91534f57413G47999J63121h22137A115073L18623c344610
40094b959080J198398a88546B208122P16249K199693R87843j9614k769079A303760
40084B602084J944667O78492a94654j867419o26913J001305q82172a037748G47258
40074A124208d42885A798925j27381e06895C51434K11949K405216K683494p49403
40065D902690E92691a697154d43032A47429e47906k776376j679913Q47280h73227
40055C68871o7084b775094j038030i81592C962326A905054a891053L27270m58953
40046b022736K67379A3769K190528k25129o70944J63840M27397C57203f02943
40036H01719J487749b220833m356575K110441a466281A046215h32145k140976
40028b973121o79293J09801M39478a173109M44919n02989B20195h74277a62580
40018A968946A51826a776710j666459J003237Q4878n96968J420210f06708R2608
40009e14100l34086J75589A457469j42291a03332A252747l35909f29263E91340
39999A287645j97659K173977J819375n01294D14298b423320N01924O17141j849662
39990c153917j51088q40553L89951j342555j703014o06174k065220J712404J258209
39981f501957J318569Q98859k334352R43113q30530l139070k202534J944894K972065
39972f930943J401801Q51879J377302J464254d17837J87770m023508o215781k916895
39963a3386251L6412J2140o7684l110331l230370l218290n627642p492599j4178872
39954e0263487k6841450m7980268r7173099j11805016L2030248J25000423Q7455565
39947h9577084L9587161K0794715J4150894P426003J809039l026309K207322b477379
39938a56562M178G94206J395742O71523A375748K34281O37562L248877J60115
39929E656583j800313O6448l40773m67406K992773K821379M74244j681588l127646
39920D593701A627908b335870r2719a128185D03835K909826L161347k026184A147605
39910B882249l40070F3617e94050B603023J767775j295371j481210f00263j009218
39901a609481g35934A432902d09867p4714B040465K718421J509799M72408k888015
39892C853078d78098k167089B3427a016883l95509q54468j044037o57150a678599
39882C36722b868415j713719J039585i15561F24901P37213O55033b30760j873498
39873b104258P66680k26960k592890j99002J749120J3520b44606I76420O46661
39864A623081R12943a873263l279014M30664o11808j552488K182479a720542J03678
39855a616864Q318M74374B041397q46576n83002a46499A57909J553670K027615
39846C739194r37959H88594b053004K25057C3160L478220K282973j190392m76489
39837D127472K41325j499526r57034j49514J538100o84852n587P38981o73091
39828B676274d1647J6604G16205d02486G08997K692571L939998k157895q74804
39819D308867A414882c46201k644248j08230e22658j9698m32693m99295a07629
39809E89259K098361K520575j396174F4824f45828A485338J152554r4993j232834
39800A310065b13584L820l58431j39110j879294k257101a637354M34832l43574
39791a546096f22639B03166h06422n46816C93108L3606K78027A15333O81019A00135
39780a108162j507536j447183k454029J64656p01846n70339J187885b593174A074222
39770B047045a248365k801363a349064C98349a610565c02546B002124J036855
39762C038979q66887J301385L203931j873724j997936j083038d65683B34296c76786
39752d022150q26922k678519n22424L692307J478397k93991J185806K99606f94096
39742A483298O60381J541616A135737j55077J436607A194339P44178K061955j778296
39733B222176J013367K789750N6925q66512R84395B778692b178854l57416j071252
39724c607522j37074a252711K4392m59438l734477m101776J310637L001725J059963
39715d151685m20840m36995J049389J773974m02640e7919G8451a191451G67842
39705B339276L403963n83896q51825j275309A485068b13349l161236k0593I4277
39695C376098j578096h51178j912391j476627M63246j74881K04140N17204J104937
39686b125550g08282A475569K40984M62728J132579j399748d83921B271019k00154
39677B070865I63544J753471O01578m43193J38737L483806J114616l24529k78881
39668G009149j834173k122463a464953M95356D409805Q64999k268776Q07145r46628
39659B866545a107868j573049J073162K7087j982093a89131j30972I26914Q35441
39650A762355L331268M29653A720417c593443j123322M41835r79699l253478n19590
39641i027697j3468J400208K217625J740966j321728l60548J205840J745959C5547
39631D22978b078360q00637a335771j957M23701J55029G90341M614006J883435
39622G287782j397226j586049o18688p4536m42536m58176k63692L111570K083021
39613G641470l230701c25628H14997d48893I3590a166812o52426m48543H2724
39603h73012k429834J137161l28927O29217f11113l308415n726310K516529a836668
39593A504542p46006P07363J198170J306942M659534K71579j529919j356183m16353
39584E599669A648861c89142k752126l658326b608932p3733K27994k79493J063221
39575a670943F57556K112989p29971d9285j55931n04890o72804j243220q85449
39566c511579J325744h62220A972119J516890n78302J774657J060890r04711k258320
39557B583223q08843P05514G6662b186732B67187O369202p20411h4200l754418
39548c838618p10918J904732b92835I93502a25716j779902j761398j587317j118449
39539f372782J512570a678929B46901c88735j899169q01149P90004C20524J833013
39530B153537f56916k083978j049073a793846A939895K853088k333104a648392
39521c62326B613711p90903H01285L2731a815341K15407F81569J094118N16223
39512B291910J746403A976066C8208J017596K320808j046540E7394J457726J755690
39503C270810H48268c322756d93915C779561j227463J147963J700857j50007J67435
39494E418346r17868o36587J701063K29561j389221j486115q95574I1463a648495
39484A037433L70822d10094j732818r66747H4710M02060O33633B98852a157424
39474B998314l23216F06838K046242L560560O77698j646876p03689A626690A28591
39464f55877j736495A623680J611495o78707n40240K97100A033128g60308l57451
39455a117759l44080j267807F12153M302165l56114K60301j24793k165810Q39878
39446C367780J801166k305266b02143j741994k477478j306940Q13516J453986
39438c461053I61645A75370q6855a195075k159573j838706k60871K225230q60340
39429d089335J405604f71542p06860b28052B588372A21594a001725k04623a29864
39419b227287j470684J016861F70020m1346a353269j184212m50850f28996I94354
39409A197233J792126J056696J718388j269273A835307c70587l47376D63873M479915
39400D943788q96240D3824Q49380J202158Q20680J102818o49123A486007m12838
39391A073169h6621j99079F26797B15271a091550M11676g6366j494614b81133
39381I45196L00341n48433J573935M711115k356260b899743J210788B952291K196132
39372E148423B538092b00391j239032k014541J001830n52245J088029J02857E40577
39362D323525J551986i33058k146239J039926B0384a585183l312628m9983P94668
39353d153126d29626G930a199198L35455b00762A066702a795481l36094Q83916
39344a247659j07969p63370J85259A038838J128897l2890G29669C44807g54463
39334a894314d27811A112917a87867m858642j105850J64612K451408M57304a215345
39324D36318P05764J077093J216283p22057A079946d265003j524132K204537a436225
39314f82239k876559l74263J405363a51598m12466f6806A852823M38847O47564
39305B939234l61466m84317C78197a477229k201499k668677o24224L149338J02833
39296c719458M05271c84853D84623b068707O12139K57769L482L00711J92584D62403
39285F22609R84425Q2413R48L73596K536840j514166A229134c395076k498468
39276e893544J111885J928399A882062c7930l708556k68592a261511j0710q76110
39267b148331J3462J043087M2108A17299M07156a707383k180112R42834g31571
39257B177543n1366q05286C9520h9529G18363B7979e8957F19998N66699J285694
39247B472391L18405P72316A603044C68069a956689k434212n06023J423439R45961
39238b527524j768445Q31072K44042o14722f60624o30280A264440L513172j689760
39229C087852j030578j76938D16580l676a35506k75241A555265N71005P85716
39220B911986N16977A53549g04794C07036h46104j269077j634309a412343B464517
39210C125189j329252A99956a572603j346055A712153L150809J528765j236253
39202E155474A899499a421286j359119K20428M74803k747800k47746b345400J062698
39193a282702j021880J27695j18388E0293K15480J161904m3766C11796N24431
39184H36227J789166J979164K429834o84402A591516e37433l715701j661059P02349
39175e211844J303411J247128k050291o28104J713038J56037k86880J185089O86078
39166a886338B50407N22616b166153j845297Q43932J360429l70286o22032J356706
39157a442701J17210r45594J115907j139884j939979j908230j775046r41834J765194
39148g094957L475890A187120N55371g17895C31666a161014G28064M79440D38129
39138I21703b097905c56654A711589a123520k354267n58671J974250a88710l105081
39129c293791l27615a84191H1146a865616j22420j791455L03412Q60792l0358
39120b645645j003072r87759p52034J674496J422551n94990j234469J7920R08087
39111c194915B59273K340363o13574O58975l48103J608472A026029e3513H03424
39101a19279E94988K884181I71156b249537j215991N87622h76409F60051J152059
39092A812110k26472i75449a51481A313175O5150J834960l56014E85694b364888
39082d677826J982408a150755p70290Q99328j407926r82241L19196Q17618q56932
39073c132002j496906j283727p68161Q22379K620122Q07027e00057A189642P84367
39064A974009m49112n1451a599235n321089k247056j386975L743354L21465l78929
39055f868465c228315a119519o37880P62721H02075Q17526K914763p54054q21918
39046B958392A220582a894558K04346M59568c20957A791836M90432N87785J076759
39037C946812j98139M54376J887586J027152L21237J667263J84498j396939j65503
39028G728343l161989j296156J977976K602633J783423k132882k970839A721991
39019A248600J320538M72382j15911l91455b83837j17772I10585m45846A91840
39009B173585I00115e70624B68434J844009R77485A430845D9876B4801K051825
39000B076626Q36075A174679a71483l490471l09380J521048a021103C365636R46260
38991D311896m04545M02205j420203j150097C01565L285570n31453a621221k730104
38982d351325J20757a55354E577374L591608k42331j310793l206842B089518d43627
38972A129365M114728j956171g75588r03808j872873j533843J398958N34288m12977
38963c565843J242480m22628j784651a510922A761493Q84382F92111d6447k612417
38954b658864L54225k97991J85479j442844k647090R15084a448310F66159R78305
38945A644464J18851a024674k868063r75590k78783R72831j372585J561424O18631
38936c366809K63100c32923B395456F23504a30537A313397J64736J128556j156941
38927A449748O33691K230052j09236J580448M19701k19753K239591j608113d42116
38917b287814a106233d94321E95866a96693l815130M75177a426984d16356j618816
38908b035172Q04752A160821Q31437N84772j038461c05385q15274C391778J484922
38899D876700K3897K671609k218154j18267m38702o88038A664762G99354K988528
38890C787882j434675A097822d63268j105336A017745C26517M42900L596186D46692
38880A45396J96267K447022J872361A933857m6844a259195k271182J259154l43420
38871b614643l90558o73289M51535n96144O12279j047784L91347J763131f40366
38861A3714J04951a929237o2561j462103R22114Q92763B7075R35364C23553K266926
38851B590479J151941K050031R76180k208661n35284J126571j376614A781992
38842A989204D94021B33920f0927j14010E38031B20186L17162b406981J143719
38833a263262B015596L135654L512942K83437j167752C688779h45262k172089
38825c017351j578001j884821K227676K075763f56637A264716F30422J326487
38817A956909o89180a792837m521033j681789L245840M99373n30112K58788O10132
38808c911638a741691j407694j210535q90028J756926a175279A627568M59656
38800B087224n82545K314299J009274P13443k683564P71316A306766M0634K550759
38791C898159L7745D59898K5554K344892j320698k24345J70978b465546b66905
38781b683730k399220L22794o32583n07645K254149h75741j360036j429513a124749
38771a253052k43738k619004L48555g80109a87221C032358J504409B51651c614398
38761b400274b248l83981A34698J000859J995995R19037m37037l20183q66928
38752B426441j2805n28493K035652J058370O96306j252457j960328q73769b49674
38742a716159k487087J848506A261366J907445l21937R48275l2089L210571K26184
38733G199815K29842m54512C454241H07030L27268J707579K890884N3372M73742
38724F259875K273353l666381A032329j1065M714840J249384J06411j627289A568045
38714a960068J8213k70275j92831a09843n48989l962546J907012D158001Q17514
38705D975515B284978a121747E21191a334841k572441p17933n66166J982884j87782
38696c396279h90705A158821a546257l105733K048976q37992j133299j70378J659661
38687c085022d02001A130930J205118A18894e34953a27976j181555p43588o24486
38678b677605Q54334q06398l960047j262714K245095b131981j337015m5932J10809
38669c404119O07657J00318J250121K3568k710114P67598J104356j86160j595185
38660d041960a550411B245607J99142m37144F35490e11543a09201m25777A350776
38650A10003e636069J98820J647935P2674j29210j205767Q45470J948308Q74402
38641a383437d96521I42037O42734g85263m28252A302635J207222j088623E19676
38631c274903k448896b358753J089549J35995l31782k727696f36967A910583C24194
38621D043066L232157j651416C63193f81087B579428L216986j429715F55318a140127
38611b055493i14422A837159K04774a206127l276086j335916b686933M73818g85531
38601C633442K311704j915080A025529R9824m66196b49180I87402J552601J517191
38592D057194L23440n06576L07198j617381G73847J407599K666384K830281l045979
38583D632132j423158p37391A216158L53110J924787Q09582j78580J690065A005053
38573b714459M63289b39517k8808g2827j009885k04173k274833m13668h23518
38563B522464Q64422o5219N90989j033704K068042r48254B50841b170207M52071
38554a718136P58036o30156D30431a620182B62574L570399A814550G70667A42717
38544d15306A24387a762346k814726j556436b866181b3863A747242M163224R7484
38535F007950B158152j034980A60167F2203Q06388J194213J514051p20307j379243
38526A477305J462562K452395j23260k415765q13732J06307m73677J773197k46895
38517C198437J344291J290116j013633k265802H60925f85950D07191J707926M282892
38508F398009J740080k33085j206229l251716c056429k075188l12621J737839
38500c706399R46711d80635D32027J964582M65050m62128J899923K011243J216533
38491G527230A503753f42556A058973M21908K58627j76585J902197q25486I71482
38481A328969J183883K670614B447427m01212K423921J738226j27686B581430
38472C336373J13679j265375q15033J74367N36629N76068j88021a385779b43021
38462B628430j057367j26565l00874J409292N93783n07793j157594e69933k294882
38453b864815N01735b61537K7601E72831a719277e32841o54352j075706k437349
38444d700248O3140J186004k513635K514308I95051b259143k640558O24374m66794
38435d742121l45488J021838a392344q09843O876q66290j594275m34119a828164
38425a513505J62000o03134j191858l17822J713407m70078l24507O37847b48157
38415a053121j519319N58523b11464a1397B256563k24356a657380J10970b01919
38405c52675C01785J200272M12278J155798n15180q04976L77993N48798J420632
38396D097400m04427j203638r94717F21609a358896j085542a57663H10301a400964
38386b401091o2917i15538B837143K245660k036619c44290m536515k66006R21056
38377d225755Q40301e12477A13790J56376d033956k547586J43221j004748l83902
38368g826971L17923L079084a876769o50895q99193J263334b80875k797900g07846
38358B732040J370153p28846j109615m36986L44575j94058R90200J858255B179337
38348B39852a344091p93706m23525l238248Q69576M93074m602390P07115L750033
38339d582162j078099j466896K356176R40611N97723I79034m85189J139007J996779
38330C629631A797145b165044k296385Q31816b97551G84309J389132B43743K332506
38321B576249J445672A235798c548453M96648K73231j06770i18803j074235k000688
38312c993726q91327K009509B05954a303662j993651b62716E5233d65759k732591
38303c198350J59256J439624I96148f36148n40365k867364O32409j185004l01762
38294d898234o57154r9382Q69435J839975a353431j218495O61698a85536j044048
38285a229584j839389J406775d71184A183255d33656M6745N5136l102178J430940
38276b003013A225652N54554g54721k903634L3187A835385J665151A248951a022852
38266F90721R67487L43932K409570N64970n37064j150525l34031P14407n33468
38257C135999L73378j062811H0184c737801P43949J400276l92350a90498q88100
38248a078598j568452g24570r84538q94233a35700B988036J42108d62681l045366
38239c508047J116689O68619j105534J55591c349C418408j90177A324831c74894
38229c806833Q17942A42511K494826K959057P01844k660685j445288J55778a683992
38219g176527k53188L486555n85501k236275R06036d63216B326772b09542k517142
38210b726684P32702c13426k293598p79791L44241N94836O64019M52140A72202
38200B614945L9069o9447q18808b28439D00780L20983f44253A384517K015429
38191C399946G16594l23523B0663c652320n26363M58933p89214L53061a508388
38181b829410l48443h66110J36988A215801P69236a222431k376859a790894B10959
38171A347807l88446a193561a24808C64175e83340j371924k11520o31834h36969
38161a601544l522087L47388b239671d53460B41444J248756J839120n44204B56362
38151a19997j203289D82619a262288j390386J019381B809660J8480K216663O92023
38142E736826A283809a962692p31332j80860P05470r89586a509577p65094J059
38133b273612K87225F96687R32260D30261a148526j62493m104074j783264J559309
38124e639048p13175k538292J26233c510014J226703l22677l41765c34165B012490
38114B482571J071241j190880a593597l788419K533907e41645A868898N93843
38106B462741G87590h99747D1413K057112c671j745527C518426N72554D52378
38096A88343J776346a222564p81725i75250n07190q22908B533753J216404j505096
38087B245061j025244B22697J752645N88958l85603J311915k13767j176463h03028
38077a205951L82826F60386K59436c42407b1800o40773l997048J00355J583899
38068b975367g58774B644927p33958K663566K785871M24559l183388j216494l70664
38059C014419G70336P53240N43707M44800J019807Q54724o66724L64038o45193
38050C438735K733940k231884F25257J44494L75073D01182b542819j252031n4529
38041c849379J756713J70887D3849L560545A375736b316911k422686m53254J634495
38032c558356j008994R25940a280041g6131o31381C28901b598588l227955J225143
38023d601400j6287k71085O69793j371975K733768D092408A154058b89835H90306
38013D296620Q28734o04622J288887J426097k652848C88994a751123k630643O2436
38004d319330D48658J667419C84386b02039E58395P00212E54287Q24913Q37425
37995B216625C70328a172948j150462d97302p98844K04566G29981J392571l89811
37986A732741b892777l643073J152200g75688D118401J714218B399935g79000
37977C43961M91012a933739j422813h58189A747286K714359M957842j409735l548152
37968D461600j051772l37573B36408a398012n20212j323372j091323N23195i13240
37958H76318L58146a801469j79722R21347M67092m90137A384248M053258A265048
37948C45851K327744m17617A063205e82776k879267F79639K572232l56127J51557
37939C047301K771489p76469A747220A95516d0885B593248J074159A463156K07438
37930A670594M66760o80385J576729J418833K794382n24587j806046L87517k569906
37921B733891M51314K43324J70946N25463A341734R80192l59171a814585o51325
37912b465910a148458N15952C101800K366192P23145r17131k565348b75138C50174
37902A679171a767539l826133P00627b117779N36166P53102B700710J89486r52520
37893A937676E13786P85401l0686a053132l278872p87442b379547r64626n343697
37884h687870P66168c950679d49326F23486O51871K368389K138226j706171f64269
37874c128068g52355K54855G60463C71516J025403L65639b48791k861355q1595
37865c191741a549951m84267j20829j161919a380082m06622L57113m92710f95829
37855a345613L79259C88411j5757b223171q57327L86512k950486j371001L218496
37846c796977a802894h84739K60705H99344a04129k157261o78235j345171a183204
37836D657576R57241j839239k47391j79533j586151k12863l81446a833364j193579
37827c026943f41969A78180h32639l257604J38421a210547j21310F21560K259428
37818B880988r26461a039519j062645L74798N20163k216225K4228A853382P0262
37809A923644F16385N22761K167899K72757N70224k24733Q4508I81732a384699
37799c661169j431740j82966J802214I27122N54150a249601M92349B072781e54807
37789d084136j058194j447625r03908j073826J950722b119521P13407j897950
37781c304064J627640N11071m85090e52317o67669k282016l48079J706932B3363
37771g98318j694013j30381N18021M26535a6905B607217J062376G20107M47549
37762A167656J911651A450930p11854f5683C92120J199221J781011N10641p72077
37753C110916P48434l78022A097137j83848L503966l01237M14707r26904H48314
37743H90009J227809O73244q10333b292864l136712k619495K246058K415516k062610
37734e450107J200498J083316k93458a134349q71365o23387c9220A554J094648
37725A096202J359262j196489b120044l789867J14037K290176K79341l61336J548775
37716b038918d49349j308750L96060A736422J410517K461639J225326j758771
37708E075133j462713A155704f36778m5844E92616j13613K168264L813090R67842
37699G428199l305838A165650L92544d51992l083944J649425A462337L58482G43875
37689H5311J493912j69851a614488j477008O31724j332156J485409h20652A322911
37679A269807R50804i71526d21600j015301L06881B230700E79208a939981j417935
37670c357916O85294a48597B609980M318852J73812A117281j93933J002292K444928
37661D370568Q71856o00898A549192e57075A291554e56093j126999m32855Q1795
37652b034152g10228A965626L034245k49605j982472C77833a127909G24215f68682
37642c66341m47636a08140F83920h21851k181263J203770e19501m8810A45257
37632A676857J553189J23371b783919j821321J207713N87667i50812E0061a015965
37622f58158C414680J178963A897453I16528O77058K272286K253760k007666J30569
37613D242535J777684k408004A200629j21305k68203L270261j032913n94516l70730
37604B083223a953225k601970J723116a266562j018061K53028l84878O92480G60322
37594A576598C58668J62103J444218N15098M17626M72398J059193m55680J509091
37585E482715K702260K96620j449085C025647g54124j646864f22303B89431b206401
37575a126305B097554J373933R20835J211889o72991k094974A400536f07057j270765
37566a877822k918454k313236b897543Q88248K26168E48033n1068L96284f29635
37556a444387m72816M90243m74436d14837a89661p85928c07560j727036j644426
37547c679022l698580r27233N40326J195334K859157a415297O30951J88665k196920
37538b792601k992822N34375a625644H89341N886388n57322a853078l479398R40917
37529d391559J325930j01578f1754G1656a428778k627815d56443D210958J646614
37520E857572p98816o67156k1908A903291A37210J981827E02696J481708M369911
37511F354315L72149l164644A098263O01648p6637b293688j262728A113212K635280
37502C748492j523809r36366Q27139q78826m52836K086284J76067K741200K982504
37493H769849l42051q94746m79340k106920p17019o03597J823879m48903k409343
37484B591809K36888J919963K379428k011190j689016H45653l83971L74659j50026
37475F86315i11950K39735J74506B647099M06403L98217J609828M65313j363947
37466D162913j005976J303136L184014j125278n06229R8261k053909A895297M6501
37457A941798q59136a90717j660369A019254K605791m21294E75237C4248c65330
37447a088123L81539f6706F62146a506624c76869A134390C84796c549013M97739
37438c051274f04612A661097K820906P18333c1380m066118J426579J099505L9722
37429a531692H57658k73401a020353b74804j47746G593J297948J239019r56084
37420A588476a52875l796620o11675n01706J091203M23696a358890m01694k999027
37411d759611j345729b960099k5011k815697j276924k190272J921088K819061
37403d527854J809184j541843p97259O51073j330885J539135J207635b09725A144652
37393C483019K846232k591566M21409N06731L682770J665606l96294k444j743281
37384G872182C645591A601876j30999f0310n99694K65795B085843J829015J552343
37375E467201A407510g6470A325248B47378K7671c8507D45067L650215p68873
37366C326409Q23581C35800J123176L339186M5383k42940A336061G5404J224015
37357A299419D79554g19309m78917A040786O30797D51521J926694M09285r22088
37348A865412b92536b4875C110218J019539P5948j645P70798n64153j096894j390099
37338A923712j5068J040026q08454C25521c6237j678072k839789j333956K468690
37329c419364L15447k231397N23042b097998n53649F82352K138577H51328K556579
37320C407907L82639j73721R60442J754366p10277A340251a032312b68037A395201
37310b44474F27618M087135J50733J068955Q86875q17259A824743c9437A38872
37300A363715j25799C23264e83j999680l162374l676179J305110K837945J870732
37291b825029P94001m91029k162211f12176A105580e54925m59201J84822L35799
37282d93505K07188l40593a19707k717206k05850d2317I57595R35404a168432
37272a456689G2083K432428j012496a813371k097090J298696J69740A73785K539705
37263B713490D80647c47777a609G48785J679249J011335M53253j117623j140993
37254A634006A90098b562741J077739A23303M15677O95705J708520n58442a356410
37244a456877A175299i5679B60145M99634K019848I52058R08637J255923j148055
37235A968563h88108b11797B27467b024527j78301J026670j243237i60792B551285
37225C524577J934923K2284B059872p4036P86808l12070J726466r36687C72411
37215B15623K311930N41614J585093j225701A527522e81651H24563K160324A415104
37205a58519B470533N63463j308278c93945F85984J254581J779655q05342d4017
37195A7783N60710J229017p68542b72597k245135j668967J396773j37098d97785
37185A53309J156522K42337P00871L72083L350779R27733j165296j820751r87035
37176B930552r20547q38696R8936k01768R40034K359202l08457K355685J477689
37167G892630l915255j881741I04015i36771r6946a92736k310550j099888k9396
37158c632570J479826e81814B043520L384723k51702k494470j44889E72051h03128
37148a93702B328541J289909K392237J669380O3894k653602A447574i65098j044841
37139b009939c02501B568493K184886B199087B06479J833462J379588r8824j206761
37130B113944a66430D56710L85701a443949E04493L915912J217719j331946q8887
37121D217291Q38018j866039A498723m05530K05835a11908B670820f34835l163467
37112c798302a862614o0256h07260o60324C68667d03905j508089a14838F51994
37102e55738j57914j5539B51301R21169C75822i92268A25476M031133J678362
37093E834971j479282N08239m57717o88718o44768A21304a509082r68350G37997
37083G251678J15168k104072B237861c044494j525584J610561N29937O33286f14052
37073F04353a853949k07530Q12138j795637a336297A440820F63262n3508J85996
37064G95750J283453a893668q44390D98339J693957g08189c0195A771321L32411
37055B103732i21504o20771o92774e6121A383509K340835J299311J388548j888358
37046D523845C22366b198411L07918c9956j75951l28437k47810j69068a35936
37036A592233L679926p90795k180584e43784j717435m33118Q20571l7918N7011
37027a854673j29138L68785K03725O127l41297j824089q51964b041228E52552
37017g06048j563683E34007R46733K518158K335502l74641j66273o53650A2399
37007c633362J664391k72253k082721j226092J674120a932690N6759j019082k297296
36998e192309l51270b255300N91199e71991A281201J338088O76596E87133O14757
36989A201890K908432j41635j311026c21420o40593L99394B858738L182570J958077
36980G999385k832874j066564O80237B070302A005220a176243k155451q64651
36972d196345J110229B06272L266470A069612Q74539M74015J816114J063345j770692
36963C526933A688804N83470J003567L196886J503294r11160k417468A823341
36954a602295o93549j236331q13504a958660B557743J882955K515265M24591k523790
36945D856764j562796J010302A219300K82505j06650a128336L16284a30503J0407
36936a20096A555715M62341I98159g96386c33499D312184N75368B092890I51619
36926a092863d24604A022704J211622Q08085p21139J270794J51451A823661a186338
36916c398868K77050l90547j72880p52314a222459c47743k424832j022224M22580
36907c372219a566065J05171a2793A571339m44561m94836i91765k624222j660776
36898e276763J155665J823954j158377L84729d54932j613689j921205e28353I26813
36888A714152K089723P47243A244914b123910g15738A401943A88807e82850k42884
36879h25734k70660o20864E17521Q57573J657679J829458O22559q95989J907839
36870F496640K064819l275162A963414L400473J697484k630325k133757N87789
36862B885078l36270n23135B67694b258228k416245l46902J840653C309175j7968
36853C291207q51682O63124j318373b176652j419579P24808e37178A92472b044057
36843a226399n44617k07528j543587N5504M47098M01450m14239Q89717b90317
36833A319994J018732a384402q46854A399798k81879M94938a047307l098362J076247
36824c069422A195681J279241B58836L68770L68542a077338l66741D36841d80499
36814a580303P41617I66199J687867L42964J068333j987606b063249r48146K52997
36805b758398k037129j694514J869899J286224M41964a346802j000230l3689g30842
36795e32073j092108l185768q79323K072532a232687d16186j505863h86281k972008
36786c858289J512361I10690K52977P97677A65082b952989L95248H02857K873720
36777C676577K99065J315259k044437j80344j28863P71124R27146K207922L699290
36768A0542739k175767D025333c87781j769745n05422B07430K412831j272991
36760A347270h96160H25985Q37885K26403l43686J782431n53799q65291I9443
36750b427861j414801p34172J95932l2104J066317j81021O38376h5980B483576
36740A743144a456941p09449l57148l500444N18280b018699A284401A13224a057117
36730a93320A210530A4816d97111o58926c92449j068605J64295e88467k256493
36721b844960J377650A952400R45991D43134m1170J982610r8925H37313f05438
36711g53364p57253O87834m93901j825030J175074n89291M61634f54769A105220
36701A477773o26984h36420b99351A99789b52146E04622L8623J4436O42345H5477
36690b252532M60908B044447L232610j084995B49909b609224k66018a187399A371205
36680D243068L1819j205723O77765J373837K03804n63838J713555j78408j527517
36671D768362A415171b080423R0117A802854K317748r71141m97789K836847k78202
36662E210317n68532j982764d04134j607142R09065E74807L363063J236160k392012
36653B782018g76025K5833A480790n03146a183878d58276j729123O64286j86056
36644a709169g78532J41649l32576B8433K463522i5j897225o40959q32076P01073
36634b669282J286742q58239j898757l64423J161960J533079P90496q28787g89764
36624b01453j426882o99328k466020l7924c43750H53674B18728J218083J814651
36615C251462l73144a84558j46974m39151l07328j431136j069535Q34356N4891
36606b689435J15836P84188j758983k54387k488143J452008a506037B15261K63701
36597D78962a171171q98577o8090o14736K62769j352137J281984a015342B469252
36587D278676j294754A058417J92685J381062q57564K377460n21361m55184I54201
36577B847945F47013b038115p45510M674k53497I52675L993701R69237k705288
36568C210325B78638d339438a438315C751164J757723j151908B095778a185690
36559b649534J95030C651530j70052b257516k184985b019625e00540p43560n25049
36550a769149l174262K108944G48630d35731A14019K83260c62521a25669k875812
36541c001481j697869a663593A261524J693295k72350J537800J112320B517281
36532B215337L47658m90733P3750O03824n46786M34126A195761J360049J659124
36523D214934K12313A164219b376528k62320J213706G62408j83924J52374K214600
36514B945458J426692j780756p12198C52619I7908J486033J600569k86856N47962
36505C445616C52438c107368a428896N7501N77043D83394J76431d47597H59518
36495H66584a056206d55590B352925o01826a501383l120735J372578m81729l391405
36486g122674K899979a175860B755449m59918b43140k349072j573768k88970J184538
36477c270412J579091H69895J478674j63808a035573o70143M70845j081235p68351
36468c084457a265258A632426L25240a926858e32789D25488a192133A840631L347515
36459E188146j574642A160274n2616b118254m087671K671210F49027J644085E83004
36449A69222L532370J058985K64936K165982O41737n48851l460247A727284O27527
36440B354811J446903j440165q65803J928846J914263k662477D26052N24N15122
36431I41698g72242I03416a16210j399933m378132J143741P87410J437009r6355
36422b622470j030868k10924k51509k598220m35520k46889L101914a564676A599306
36412D437196j910584j043254M25320L71629B78029c724762a524022B224449A1602
36402d64907a79188j884246l265854K046408Q51201k372049p01786J178894j387245
36393e713865r9733O22792N38038L41399J215132J076292M77142j007656k37744
36384b788203k047460J874629d45169I74601K304205N43348o23557i96840m37456
36375a434296A959945n73167C73848i80838k75342C551710K580720J418590j501376
36366F049644k009585A565271J08067K376906A821527a168176l50551j307951
36358b826678k5845M93814A79029a236930l70508J75466H22591J642763B45153
36348C45017O95971A17152e43069D63932J344165C25217J345984L71387j19967
36339A922621N59796j202934Q74353l9630r7632e6178j508452p86601M68558a27055
36328i4331m07037l743444l60126M98163a312363C226738n08856E53943b71639
36318b293894j491937j099294p19545J931283k8241j201110j451444O93495j223469
36309f884156J744888a092947F92300A95145b715646a292226A092743M41465K79155
36300A813363J032908L76397I25644h98765A28908K16094c677714k697001J064478
36291e310237j33532a827948J96696j839722J372291D80450g7640k383362m74524
36282b935526a385341j239115J17517A00353J053958c521612j387579r01246J649025
36273d161412a491672E22984a35235l300866a076885A293784b392719j018037
36265c410756J333431j468063O79271J314056B85051J665508H22602b868556k861321
36256e729877b620981A945856L60719j027880D17241a94888k341514a107441N46955
36247e60486B356280L43469a666799n901166q69276J368618K047797a351617A008073
36237A082331b73579j068377j233807k5047j832153K046503A760815L318446j069577
36228D009684A483744L36764j66485D91143K96300J331762K079538J571775m47204
36219E323314k214609p32784E74700c751043j358277J617027a72567A26442J276546
36210A402988O64885D56745L94614b097483m36766j069795J93425J035149j534184
36201c909654J383267A791999n93276b980256j88405R54480q77583k063526j064620
36192f219910a699742B287334J063694D44723b040344k36823q19991O71603a033819
36182g64525q08740j442149J80881N89417D48374P07511A78443b990011O89384
36173b300627J069279p84637M25824q30305P00944P50421p18055H16260j88898
36164F27362b125938j866663a247421B56745h98105l043299j709064m65876K416199
36155c700145J637809k24465I59117M424628J82282A639735a036314k040910D6742
36145C968492J270644j571817d82842l655355a252911j028124r16574q42800N44777
36136c495632q32664b152197a10813m03384q74037k091768J7038c78497C79618
36126C482372J49825H4759c036778l40320j986343J542699J428108p4590R91776
36117a475448N59647k44214E51211b321637n346721q94177K289486c075900J370798
36108a705102C41325B7422b583103j545074N65842R14500C77944R25679N21569
36099A825192L008154n65887I85221a594240j039962j243602j04986a555788A977456
36089D457456j224133j423344K407771M66859A188640c068399J60164g5916j118870
36080a194786k290251k905857n67957J306406J951072L94277a446099A129956
36071B219690n56882L96347M85096o23034N53076r77367l38325n64521N25126
36062A119206l71391R43360L46503D24329b9655o66905p06093j304874j094436
36053c801963j124008J115065J417916J146005B320629L929420N22138L360426
36045A0132613J056880n534767A359855K178054J828361j063791A639164c545779
36036e462290l16795j553430p17577K321696b87097D05835J250746J609813j631446
36027A634948f72472L15009A58241b829085A880436M051604B854034d06182j15335
36018e21517j514608k368719k496765Q84573a575904C537418M539179j109829
36010F966768B272203B32832a650724n53012g65191j5785j648835C94109J661247
36001B055356K555012k56429j0262p83567j400580J31013A015794K87188J577867
35992B880849H90646b367161J64301r78955m29880a697482C213398R93054J85582
35983D392034c45836o28882m95987q83473r14263J047306j945054l165953k268618
35974i600760L991215i86540k4233m249208p68331K603915M01491a164006D107400
35964G187212N86395j530504o78543j363986j275879J000025H64965b982114M43816
35955b538298K88897m504602P65934J339812J623925J366875k247584O67456B34822
35945A869202c037205M12016q33170j923019J771685a22435A965819O73625F24227
35935A844504J154933A280846n32928O69332J860043o29212j055285a930677j819573
35926c750250J734153b3749B897270K379347r13595j22957M8438A593774G90596
35916f16349j511993f73880B158002k85843b215207k186275N36710p49396K00465
35907d413703K96609a846598M55757k579135k631187J552329A946773P33306e43873
35897d014736p77866R11110a267929C903065L566456M61446j821795j940304j729147
35888B439721o33133K715493j01734k171045F08833j25209J512812L087947j72410
35879D911973j715968J89069a063085o57992M1762A44143J093345B45090J055885
35870A300975J241257K08771Q69266N62925J893396k61812k349255k87454E65114
35860a574529p98016p9094k095162j196907b602729J045259j061403j279318l0070
35851c928261O50351E63853K860962j164080H45821K206671Q78519k27387J218467
35842D922091j513650H07783A24738a772653n77793J090537l10125b65080Q9574
35833a75506k866670j124955b060923C494583L272064n63129C024938k2703J390563
35824D392798A410196a959511r43804a238895k72846j09554H53641J657954O85887
35815C197482I86689a643515c43674B073050K131566K39398j545618H01495O27336
35806A428831k80343b74387A425720E85929M08665e63237k181561j146535C88988
35796B911947l11082E45913A39512e68638K53669j295424P22672r5796j803843
35787b787360n03137a462767b26250j343252o06798k580215q06584c03578C819437
35777E248289B213507e83313B177966K198380q618j643663g59803D26282g82227
35767a657195k25124B138256J777363D37850e214570O90975a285172C27440J976637
35758B304077L36157A037113Q69628K504813j638428a92352m05937k431429k612420
35749e642138R71857J337563o80013J307895J326375e28768A576912L181001j54689
35740D603224j105041q09389m47842R43323O87808K04205j509298j193740A23933
35730a444595l706008J726482B383986M868354K349260k194547l692980B86183
35721E08223Q73165A40121O19728L364927a079609k134908K74636J465949L16389
35712a157543j135446J50220B01601J927951o71507b382889l65955K80683k678056
35703e146217l32555b184966i36940j632609j209806i45983A204135R59754D62601
35693a529643D59022K753785O22815c41292k837475J534251b14173A231153K150141
35684C381294A638013A28638P76625B29982c41898a38466A8194J993466J851640
35675C863300J09671r40018o8358j97282c83313j837769b04414D676017K753807
35666G429824L213110l427113A740882E78973a860264D15495K557089M79311J638675
35657E090570n25820j063542K060879K67795I64547a255474k172340k120223L68725
35648e179312e01787B765886G15710f60999k747635J452520H02105P20241J446872
35639B969218q47384A20916J684017K527901A140802c450144P77584k034857l493408
35630h200825J785073a026859D48968b506495k63089q17900f81733B226730J59544
35621B386274J385775k05899j276186F20784h95802j049510B93578M8639a010609
35611a333713A500216D51396l1120J37039d046494j252976a772738B487302L782340
35602F269642R50715k450787A515708d87522B563950L51288b245441J539A951767
35592B677929K992954j74894j337462R06422m09170D30926e011425N69554K016418
35583b425453c44319j601637n85334p07258r57534O76899J665914O51046N11056
35574f91167c21521H35042d53020A032746J307963B43143J66095O76416J183647
35565B269301J768836A750301f67500j877968a75227A817663K65347k75586K423647
35556D231071k26867m4508o52095Q89958A144597c51502B614829n043n00386r75082
35546A134318K24338k59609m36875d5850I54475L63697j87322M60890J053156
35537B644896n18141J615327L263866p731o28803J52894B994534O56895J132367
35528D783796B343870a61463p24681K90634k221499j210720k546917j278071M34806
35519g417911M98414b024427d10320k462268k051085a462464b9336j635909k749665
35510d414910Q85345H94635P82126a181466n67526A551149R24140F15969a336271
35500A733778a64642k763896K11263a215929J48098p17105j29405A153077d50430
35490d884792j099276q62699j140222L739356a847325g86225A21967a068261j673936
35481b742197j468430M79318E6924Q00435L623997K563976k526876H80289a855608
35471a712110J03586f92491A959272K148329j022343q82912l89122k18555M35541
35462B030210g1645j410590O85199h4144B03931d49977L4928A304050E75477b499324
35451b331738M12094K77846B246168Q66669A473790f10147j220596m18777a066740
35441a620495l574810m34313o51634J077582J91233J449090a694533M28230o91541
35432a957844L23967k77368g08180o0319E8281J126681J467391a367479l881711
35423e249190K423702A815760l10357p1627o02515R75446O78856Q50080K940621
35414F276264o4316B869318a250523M64279c50241C35867N37105d745575m94047
35405e239622J243201J111786A58418M32283a605242j434150a100611B220699
35396C390422L06267n39994L14724F71789b330392r17670P26913p16251n95835
35387c833235m23097b025497h94256E22266P70050c37691k305790m08960M72602
35378b579839J213912C07696K363589h67271o122077O83807K920734a345236A570893
35368B629590I59974c214731J77815k23894M37216J010025j858936J501591F10234
35358A829125J293410r9112d85607D23817J32580a429092f28190p00764M01156
35349i27798c62924k492805l01646j125800j256985J512930J163221j713806j17314
35340d695129a580640a81915F61636J918589D30070b844372r01633j561029K594736
35331b712298J062654j170218j89722L65690L09844k077487m60287L28997j360708
35322e903535j724847l05127J728524K880258M3643a503652l22810G11663J282637
35313A994300L85298q92237e62685r09609A37648i9510j694250j579144h09121
35303I06425a218985n8674I19017K543501P51118N42243P13930l76995m56331
35294D636483A916399E18569g27542A651839K395854j878809b186430j77279b81210
35284a288691b43039D91200g95603h3101o1727r30295K10594J27541A561323J095845
35274B657168Q22902P00824R04912j202588m80355F22631K090145q88699P29101
35265B553178j75088D82045f08200A98274N47954J757825J60918e25686k676748
35256c202434e17958a74856C350500p55208a12102l284925m057507R01410M84643
35247f068481b059043A055575J715480M47993A478511n89443R5369C41025P9868
35238D20893b272028Q7783j397338l099460J037379a268500C0255a550168K73848
35229a276320A028938a302682p48331d53805A175440J51m57652K546398m65770
35220B798567g7863j294559l56552K69247A243980n7057c6539k256464a048183
35210B821653j77890A148676C03845O10775K70615M27066K647464K202266j374344
35201E087687j404881j410478N73769J398973q76279I07397h0000B63561d62500
35191b33420A239139L452500j077402a596596k309394a651522o14423c02326A1553
35181a694225j210554r80859l729738J26309b533948e29857A74403N94215J738421
35172B507039q15209J184468M35067b8778l027560l1675A007324P8255K68524
35163A354103D28130a278843r54321n32838d54459A781102a157407o02451j106679
35154b866537m28410r33599J785100R24025j083710k789197J350478J798980h41700
35144C027544J233804j345677j127548J886482K520933o70725l27922J515881
35136F712772k832335A220229K68653a416824j999300j91303n37699o62644b127163
35126a850279f09931H72316Q70716J81076C74284e34260A013523O94162o18132
35117A089553c94032j544547k128065a502317C725229n21934I38957h54389p0223
35108i24612k212094l34756r26331h33791F84588d1785G89729h36464j366536
35099b203000B092147K633282K097026k066128J327995l8983M31416K349631k056606
35090F769780A201433c33163f8908A915470K95286m59597E82617b96413j019012
35081a315425C78756K700104J288039j39636M4353A948016B44572J81538a306425
35071A290986J677934A080743A07908b362971m307265K400291A676159M907721
35063F583880K341702q70715j208683j995733j054469n41916J358816n78872G42464
35053A237520L39753C16036a380278e1551k797919K13890A031159m43348a29060
35043F75389c99580j194472j820046a119437q52589j737635J019266c62865j303702
35034a666567B04379J133229L63395J133747j269292k07912f58472k958363J066308
35025b550527J115590n60160L85365D76518J631600J31295H60322B16723d08343
35015f44526n64765N21235A118a573586E44978K313718J150598j61859i2604m79421
35005e72025K48357h8918j981955M3956h26720H81067N65943g50364k904201o20160
34995d274725K072360C856586L656113k757112j586506K2842j176099p19831L416536
34986D712529j197546b464987p53031M08848j644591n9121J619063F14112K437897
34977C052009j304734G36935k162h76268J16105l01653b96226A573484J271499
34968B844983f83859j461807o11849J219729P26294j328023m06174A105463l29643
34959G75820k74408e58265j179546M95536n04464k259383j088603M21768j089575
34950e762532b549373A536113L726640L54972R83881k195975k89710A101473a79626
34940b187395J81799k477960k809118R69919e85120K81333m91015G70191P93356
34931A563547q9256G5870B5156b658574j0830H44800P21438F90025A39434d94220
34920C68349K25777b003326j769065j172666K97578J892891C61497a538142l336981
34911d875123J984639j00845j515711J35166i57969l26313G11528P66705c768122
34901f864038J8979L119845a539052L45256b22981m21834j158228J43973k96232
34892a955302D73332a26829l705782j0776a282908L13765L1353j62778n39666
34883a640234j112489k805497M81585K45386K128473i27618J87602k922817k581563
34874f244396K175506J518707m36207j428083J68824a662847k74332O60802B849206
34864a433559l734518R64210j124728l655729J023676J745619l47463K662296
34856c900196O31970n971659k472716L439737L082605b498186j386764R95775
34848b889175r81307N01269a575019g11539j588314k055468j920167q74606J666727
34839e483367K486326a284196D69784b454064j304098a725869k285345j734815
34831e746029O21969b276271H47956J694236o68470p01912l80457b645615k276457
34822d922072a601699A435718b20248l255586j081592j03669k97254K352621A22436
34812D46626K313503P56397F47845a910076L90851B84608J673480J300639A63806
34802a835246k32378j891638j638668j045533o00106M49797k16940K556532R0003
34793d364177L19188J998328L93611n88485O72287B274002J204532Q55648n02954
34784C831228a574125k738617J977743a151304E31206J171190c85929l230166
34776c616095k39006d42319A190164J12499O37102J866891J830524K033993j020046
34767F651127l002001O3017j322809J510827A614338B68081b018532k357981a604452
34757b042628l74122F09410d45464j721358r15480o12812j376330O62834a928898
34747d77568a2400F48154J84989c097962o79896a92405I18087c041997r1725d77877
34736A312316J301001k67784E76750H7255a315690M53558k01349k452424a333182
34726D578648R54227K34954J240003N43026j606940B704791b23322G18065L203326
34717C921391M29044p36779A127896d066960j122844J80183O6179j81737K412948
34708b712231d56105o09152k23934r07837l011625j946880j030201J361807K888605
34699c935322I70458N93152b56275N6314B523878q78424L82851m00551O30902
34690B258656J384449J587959l7070k131275A264012K843926L180859k54893A924067
34680C40118I6926b020131Q56244A084461J812624R6563I24531b729502j639629
34671d369131a865282C290167M320665j355054k043808q77062R75021A486179
34662a436557q32403M8397j739265J547746H1823J481399K262078A835488G16136
34652b65621A130385J200894D38591c195035j51940Q343A95447O27156b12807
34642d2592e056l135861l365693j029265b974517a42962A468116N40512L216902
34633E225530K34349k169549j13760K555837B125026I55592K78918b86456A910188
34623B400785I25121k83857j52016g47741k001105p39163k09432a558113j42736
34614a700849j56580n51247k773208k220303o53876O81242c466730R37840m27756
34605b956646j175720L71284a551338C336189A394348h95419j295434d26590G02858
34595E05903b167055k303223k740937K49323L466285m33379j882936k450753o13146
34586h875821K921253b225111J076828B214210J337707J342565k396990a631751
34577c117567K19706j485847a720559k18813j720112j196747J366167a539369
34568B221776j18528G47683a207080o2402M39104B046371L210658J779201k942603
34559D093627A929908K42977O04499e89080k170953j099481J696840a008895q94725
34550a903620L12491N69270D74257a32596o41960A589859P08016d4131E4921M195980
34540D250901K672668k301088B216580A14636a889456k07159n51902a023079n09803
34531a532882j234359r8983L99672C38299J861965P79369n41819q59595J312182
34522B890401J557124J445044n56524k409284a437325j028242H14945K779828
34514C594773l16337j009236r8968p54600b181902L9597M13949e02104G24723
34504A035836N7455J134371R38378q57634n7053J750809j803224a010693k337292
34495c347985H65518j39256a166222q4965p83737p89468O84580N37873m54640
34486b056579f60267l161611j091163K130664A013470J856454R59357Q09408j647584
34477B991105A099460b044889L41912j567364k652582J334406b022583e4033o0668
34468a14701E03494L51797M9464c342669L15762D01298K03362J245711E43596
34458c363371m4425b19366B440262K330268o67460A638469D61992J569923L923510
34449E955425J763307l061519j619920A382384a222524k238098R95403n7728f16096
34439I50924h10219l081359j327871K226827d81857d2892j399918k999099r38098
34430e380007p13831l78771J006743P86232l62613J939422h99694k091585R28988
34421b062291a016408d35531A731303d91246l276038r09654l524530j434841J321355
34412h314954K902219J778555k095939p11360K058754J655530k259489j624498
34404f611182K145577b116812A356445K047291A678477C19535K294872J262742
34396C877149A212090i44238k40775B977675j158870a75831j371297A20222L24849
34387D45071b180460R66508C494606M983881k182357B586606B76642a984641j955058
34378c939699N06139J006174J078207r38859j796673k179297J586637J894069
34370b783302k76467R58848b55194q32921j853215E04753K250636J443895m58106
34361C741178A716847a58105A530585E35626K50780h86090k247732R98755B227399
34351D742231l16075j333824g98782b26685j911934l345755l59561J055003K7844
34342d761088J444875f46932k22050k19655L52139J07390b18574B555266B91810
34332b874407k451448k175840K878954K004002g88293C22377c49819r00344j833918
34323c084081p79151a131451A215267Q69815K929850K45244Q65608Q94632p60067
34314F260349B535994g97951c04538j032533E10657L732437A494958b01251j010904
34305a212155K39451l013051j075650a733619A648069N40800J312657j167232
34297B334294P62131Q3852j00067o0391G82869a037887D41639a83769E56506b917543
34286e912174l434519K537317c364246J88066J305105J16240g23392l953463k998411
34277g675266j960733p49745d582248A776743J147693p83433q63272b59244H57353
34267e2783p60389G90422L89162Q37713L70775j22273d39891A712910M573576
34258F286486O158j267359j341668j030142D72891j17496K11929N99736n49516
34249F17544a838804j443306l87211o10555K59165a330226k82322N92654D21206
34239F55368J536981e38297l484184J14578h33728L94647j256731l08169R8524
34230a905457L91408j127019j160512J356721d03698j495752j481176c30001A791321
34220B537330i98988m9642j308938O85551m898o39006D2296L620414L828844K528601
34210A0020155k851611l526943A143277Q53247e99628j394446B6207b782793j767242
34201d550035J26647M43454f73002C105784L410197k028446j891755o89338F16331
34191B262330Q65543J548141K263947j703949k475588I55745E6053K695066R3226
34182B844345A123523E26023A30168d51536p44426k146217O38907i12393p02648
34173a615041k277242J202808N82469N31390G79977M07044N5943P59644J070238
34164C072846K054100p00371O94928n82638B088910H12185N23719L79234E09653
34154C337956j314782a326381j668128Q07260K78777g68555B54226K915075A225923
34144A158920c08157B63250G9341P73115J618640j162088l14179N8000k1124M69693
34134A501398k12169J799701J898685k228101E03001k1730P96398a661951O33995
34125a027956B143464F85998K139163r44937d43982j473296j237341P45949J193339
34116a215331B218508p13928J46153M16844J760j32292b41110k833480j993646
34107e068236K459817A195514P3613n03279b76382j551821q86405k89851J417440
34098a587019E316138M637560l225359k426803Q43414k153391P50389j213923
34090B528025J33133l01442J323999K083396q12031n92366k154592D42453J330159
34081A772612P60114l58498k1411L19281M12184E3855d132118o00182j216727
34072e949027K872785c62027A280921J002542I64183K13821K036180E68554b463163
34062a784054A491393K534882J945428j839245D10323g03350k119694j39408K36924
34053b725528P30322c84373Q8346G59926h62119K17519j916174l783959b768612
34043A030974K391894R54132K368370q7822k043459r8207M385717K18736l492747
34034E627588j18862N95585j811036j000300j020607j065422b781159P74449j333488
34025c340198r9640J692022E62757M17281B34472d47652J14674A664668K64728
34016A929396K639431j450170a772641n075680J808822M61185M23877a870429
34007H10986J960094K69471o75748A178054J410042J156276j213592M38176r48228
33998B020728C56256A06346J308672j95693m08787J667387M43665a07142l590362
33989c697504L28438J254177l17007m67581j773868P36618J558138Q36093j597133
33980c139629k942667j109566J117169g89940A961805F32591J598662l52216d28521
33970c081444m21856J555924M59029l01977h79089K38181F79086b79717C670661
33960D178974d8140k263324g10992K99819q14749j614214j608748Q75507K07025
33951c366352O0965K07026Q10696g76012A37397R34249K783504K858640J300777
33942H014567k786666k452244r92033l80573M7017O72237P98476A352638c410647
33932a129273C95582M4998J782313L59280A017008a760789j070452B51988Q05093
33923A057081j3608M15916R70953p78129M17963O55554L38903H43800C43217d21907
33912A850630L01849J158222A037959b434313q04259m443575l410251J365493
33904i726905K833519a319264J2436j856140J339802f11563E38416i24554C39670
33894B003358l6943j87098c88537D86029b69182j01286j238593e20162A339185
33884B156535j074347i32261d08733I26699M4841l23313f43463I0824P28169A27036
33873A517062J34426c017048L51757a117377M21883P2250k148636l44672a337925
33863A879415Q77940H69112R87603l45310N907859J704649j157749j412107k317986
33854D236071o93052m33526k29348B85343a541456l377747j02912Q44462a917640
33844A056337K55621P61145O06936a600859l375567O58565b069187F40591K479817
33835C120408o77412K25599m56818N61221A124796a189978q41709n60394j181964
33826c774045N70760j352308m606848j862558L617549K880443L68779f26994D324182
33816E575922k282387j586352O51510K80162K27575O22805K84265q43115m11637
33807B518748m3402R70294J914772n90652j011981J274490K484897j064949k044827
33798D407390A909862A56682J004886E64097k79382f29714m70586A481655K183293
33789C664948N09335j214911A370724b693956P7935q65107o35379M75903j345207
33780d985811J092070J527457A11299M056100K905795A632446h41948j526199
33772b368147P34263H65290l77656b74637n92297k44089B213483K216039R28266
33763E357788R03390k108046e5358j074459r72595j655032J811927A651884K69875
33754A921759J049493r20985J493040J753574j636417K40169A821402C98705L18824
33745G17529g37734k450345L59475O92015F01568M48984D0607a461212d91802
33735a68081j531101l99653A657758J939841J565607J354482j044748j384032
33727D088908F28018d62338N8641A142199l83826l27000K074924M4670J127549
33718C678516j316711A046204a147026j174969p04228C01263J275969o91741J04743
33709I90234e77858a23043G99276l42276O26836J70839d35004A362916a906583
33699c163534a104283j525244l723413o72461K347126a815443j651214n69736
33691d036393a741320A94651c243933k542912K089402c33051C885596P82992A386881
33681A403135E58404J196883J43297a499526j807228K75453e70168B849726J151343
33672D001069j279236j314939R3017J319144A351792a66085k708754k671219N68058
33663d978000b006420A127376K739513J353293j113219o50370J243462M453792
33655I153847D244067b892021J94770a230871k495352k17550a773323p04690K31962
33646b246051G30870J420540I30955C79972j54691a643199j377631J016648L3614
33637a970568j521238j746723k09006b094236G79875d69760D81412J381741O57092
33628B520245d37202l908497q75825K488502B92467K185002m85073F53297J136588
33619A789885M17647b077422j829153l006549j17157b303266f96347A544685M680537
33610F225222O242j895297j333735j229121E17918a108841R1959K90637L11409
33601d14836j974392m050432J552555o56442q5041J683660c99278a26515l027919
33592c154434m107804j038970K856804b24680G57649a772838j607939j22102N76865
33583b926014J059762G53309J460427K972811j297221A841339o48926J471374
33575B663787J55901C72271N25845c5812l887920k080549K989110a376090n16732
33566a892822f81874F34209M60494Q91495j17172D89548g73304j551670l095500
33557e420474J839767h78257p6350j150043c11304A693423J582801J330037l27174
33548D279087n23371J030783q74021p50630A491806J114521J894530q99598q59572
33539B741687L23512j173763a440413k294781j110349J451868J597758A432475
33530A779476D07392b545755J232773J35722k149514a274894B949190R18401a67491
33520b876574a223234B117977L883621k131741j712906J276437j629639J7014
33512A820763G89434l33094a804922k174830k596234o12226a929568B532691j05947
33503B426744I09474a189126M28124A40249J103346a620687n46841j038886j31265
33494c337679a21534B955631L24407a008851l57910k13833r27027c32622k38279
33485e70901l94307m8657A221460d4965k815583J00800k57278J147989G62805
33475C462172G25729b672053l401817j156645c089629h55757A478932L04651a25988
33465B599980L083076j009900I87055C81589h63143l530775o14519L87866a721226
33455A639223Q78645q71675o00531K62819O61328J59915r51024l05358d04168
33445A509327K424592k31281j564650Q38410q03109a802010K45088I58389c69956
33435D82748R46330B01519e26474r1985o86122j274005j594435l728202k548806
33426a0450029K419171L596595J172673R06823h67489G54048H4972a643814g94168
33416a635239e81314A998877K520276l97453j531418m19916R37559M083246k42652
33407F948519k379876j339618K232449B228732i98161p37128l33286L66329E17297
33397B066170p6623J20488E00775e45663l61671A046309K19003M4220e07061B84721
33386B920362C87993a925769b32424l805636k301052b419591E52727J074873d22422
33376f91285A132205J321400K32835j191000a29578k178788j556095b42025C815762
33366B954969G54946b072981j542277a107179k69223I69970P31566k60137n22375
33357I19024M38786n03902a441800A539443J611724O24576j768115D32400I9087
33347C43721a278366k956338N40848j111048J39086J212896b72589B542991o34941
33338A908050I38301K010426O26479q88540l86896J603582p00144j452980Q96356
33329B646584J090601j259612a960969j948039a151694M30252k608877l79277
33321c709596n17571J515866a326995A496337J577522q55323R89389e97699m112877
33312d710576a313733e72479j387996o45454Q44362H22402g20804p55055A60134
33302h26937l812957j186310b558824B57348J481467K343147R05844Q01278k38761
33293E550323j172659j969931r99864d45946k690293k296482a542776k07365A62879
33283A150602I1356c25413n18654A056958J947244l07333L29359K28201j91006
33274C063423j000725a998978M48124L32738L98132k01386l29157B22422h30439
33264b554993q22629j314968K94859J668559a043013j90287l113668k072522p62020
33255g181510J768783J902341k14191l17066J85214q85175n03191j16842b566971
33245a54628C43433L921964L791512o5191j881764A238401d226602Q54308i71632
33235a847457o81789R8697a036081K17165m81972k14234A469895K401418p4213
33226C797100j136651j8956m96776a748493j834491B547979L387675q9981B148085
33216a414045j308142J300967a73510j719254l26078d7323B888656Q23543r83072
33207B729127P98250K40615C51453c493264a504291B33338K713791n35111J82114
33198B594132G72055a165678A162505R79848O92252K255769r03732j922598K8077
33189B292121r59823E71914L7457n053e19846A955576K90731l22231O5758J884752
33179C874586J635412j748301k56145j504924J097954R35394j660602q42182J17727
33170A648919k44639K285093J018388B171415a250329i7589m87646j231229B66729
33160A18915c597520j707638a572592I39020J141112J224663A064473J720754
33152B785227J966731p51144A701022F60467M66962O26883C90024K533113A133325
33142a860153J86385H44314J697828k09223I49387e36865A434379L516690R7183
33133E048252j149856C97398b278586j625339j850704J876896a293717D228K506769
33124B510997o51096j65191L397973R0378l94480k263797a638387l729181N04387
33115d863181J888834q1668L34515E30876J716362O59160j242578K254085K903517
33106F821422j531802A094025a725988P10704A541557K91875j03799F40641j17659
33097E22982D4330M46486N09642D66448b924209J282214H00296J929705l40115
33088B389886q66132O73801J716316A747559C02444M37485e26588j788070l41365
33079b656023a147416B73808L15221N64449n65589a723255B6745J394585O06891
33070B028221l61327a389791c55357A901752Q558N56268q5777e56037B128888
33060D064833J3652A0762a886911j877212J90035J757660c13199F8128P20679
33051G88807c07409K557p74532I08762M32108F04046a757753j985493j370912
33042e114158a840668A372925R33059o11096Q95520J500285p95305q17893O20081
33033C097576R60906J716995k429819I73802k08288J553443J2172J77924R94565
33024C503618J56287J119838J27471k045206j128398a67083C56410L405435K397559
33015F159404n88082j018087j929848c85816k607445m02125J088658j922060J101589
33006c127199r87689j99320b051605e26969Q0018k254662k395429J452075J08403
32997c536564R16966M33343H54449J806316m79460k67117J523257o27538I47653
32987G28153N50216i11805k770489P75372B42440K370305J391400j135955A192609
32977i715k918182j574171J771745g65226k566878j894151b588482d74364m48564
32968i22928k03637b58651B500001J74227E35026b610119A295229N83452J695660
32959C574341q94061E87365J610064J829319Q21807M23614m83819A163082i11278
32949i53497d58844A030364L45048A05917a624361k1375l74649D22915K686435
32940C109350D84372b119402p20183a289131l84289A475594J753495K465140K78581
32931E972810j172454A439172a910412j420529p1050a37863D87512d662904j699033
32922f361937J383692R56026i23354c71105j211517P29583B07912M76883f20246
32912c322690k74085k003817k754506K124051a474758D21140g18371C21064L963930
32903D284994j650503F72722a665509j818084m65510e01045C880403J282309k167512
32894B995200G21511a249114l636021k924025L264851K36315N22177j229643m67398
32885e482858R56640n2777R57337J175047B53499h76896j290177a075333q842
32876a084175m05349m284339k398288L30605L502190J323024g17544J20604k25989
32867h22929a82197F44564b240230k332889J302625J382490b80406A069441L912508
32858D981949J126958J40528l74529j821356p2310P69794J069399Q90167B831562
32848a496190k47698Q38452q79489k689889J429884a196999A018830K54811L0804
32839A304445m17656P74149o72735h90251A225229N18396a213075j578372l329915
32830f121362k28251k02228R54057J878784J497266f54542i3874j27666q96615
32821a118155A094224m08673b38198A425987D94919b407097q73689K9550R6865
32812c154371p0424j096365O80861P87490Q6868J132461d41960G2757R30971a079220
32801d213598J0424J488850d58221H251J407566O11607e43037j797004l484270
32792e824311L62696K677612b255A154790a509595j617180P13337a54050A244291
32782A068207G9291N74299b7338k112251q4405d08070B91207i10600h4759A120126
32771b051163m637571k330400J689082J207256K980187d6378D86411a052783M11312
32762f41471H18339K98549K25172J300636L005418j445308j830020D20458J707638
32753B128096F15738A93215K488726I00490l37020K766015I87953i06850C86149
32743e53728H876b688559e56633A67605h74891J55788J56106j82995k741614m670840
32733h158446Q92210L297008J383716p26343p12893l05104q64453G140K526174
32724B533314r11676J949442A095682b467058A38730K076574n02956K098328n13123
32715C297553A243626J65172D083e102680j799122K293385Q67780K77109O1200
32706c402328l33290K31089a677230I81898a034418j040959k08646H41220L014065
32697C855285j896520d13045J43752B333566L22686a072226j269854j709306L88423
32688c662963p66459a130743C012341c59548j410721A19667K072213q39599A85074
32678d312460p0501a760587F11707J47606J121477a770419j109292a49879I77555
32668C529038L767724N43033j665584o41911j610856j565370J590730j766954
32660B179850d38427F90290M283083m79489A723913J321072K054900K087672K60177
32651G447734k696374I60323D47204J639713r03648a166744m1843N31215A239143
32641H72414a20745B89403K014993J485939P99430K34485P25967k139149b501620
32631d829462Q77539a855547A075773J853363r80787L96444l20270D14572e33656
32621a878107h13417k46905n57365j003537D94501g11761j823341N87694b291
32611a254537o51881A51370N73457a80626D79554c08701B95870P66817g89312
32601a39373A988452n4997J030031R29892J319463q22530j591966Q99540L27623
32592D025508l50163j638512d41179k140889j552148N4706a156153H98835a60231
32582F32285j45509a707327n07117k584700K22509J710233a398464B205032K542919
32573D747951B203624q31172L09230a798552o48569j481656O78587m38795Q85079
32564b803906a161145j9705j813316q49666R27948r15709J282453c31257q0694
32555d11951k364950J026830C347853O79980l92068r61080e04034m06863J07542
32546h03355k549938N30803H07303h53970D14225P55017A114b477464j701789
32537d179253b074564E48119B34017P73567i37286k708314a440169r58632j573691
32528c972492k55434K80936K18604N38949J381820j409887J07033J452599j34558
32519a792430e31199D8832e19535r39730c16529B129260K76149J094035j649493
32510A849951j77930j1147M80887J687324P13472j966047g1624j045700j534981
32501b652305k23380a244290J20495A76581P73371M18314m724K631274N69962
32492D564778D61301a25144r70680k625522k53867m61964j476091N42083J0949
32483e360236J952966j608894n35673l38009J109966a478053A010397b302657
32474c174766B1480O04355R221b78514k316749l779227L042754r85642M00152
32465c917226J530561i6995i525k98631A495390K434867L09446k071227h2526
32455B175191n89247a064040c05329l609334l096508R15964b325120i92536B955770
32445C858410j905937b92070G74210b30388A65200a00419A805286M34205a408978
32435a950798e88280p19888N01624D25816M66888B92340h7924B73994J757452
32426B031446q98574d89582j30454B44079a66645k90984j546896r38091O80941
32417b261675K79604j02532d85740A898464a409227k915684o73192L28337N30813
32408d138953l48657r04111J561787j242976r88005K699176P64438O15859I79945
32398C543615j012495a19498l013306j069490l29656m91120b444295q19886q28051
32389d092232a020476A601988D18707b586700M27324e59688k169563q96323K1791
32380c603783K98270A061929K520803M205057r20975I21971b050656n26354g79401
32370i83218n09248j66908h13754L50650B67423h39561m47694C90661B4411g61643
32359c205822j651116j041803j412324c478472J309530l01630L60048j347892
32351c458416A227354O195938M28854n52029C534687b907243i44508L51356p29972
32342a323124p25720M03757k949833O20537p3545Q84836J325673n61883l145069
32333e544371j120640K469302J456794J059601O09540K69512A391468L348827
32325D740295l4613r72003j829627a113294j246356r65798O87823O76633d44964
32315B016322e77280j481792A42186K227627o70713A07276K54288Q28085g45833
32305d021096m22561a320118j163107f4948E511953Q49037B250988A03042Q4438
32296A87480K208098a6305j415383A479109B26049b349172A668317J782020j038665
32287B411672J455107j115482r12139l52561A35647b567125j398883a459696E63364
32277a849407l736258J206378a112834B286961J189633P52881B80209c709018
32268d198944J44443a004894P8254l714790a768136F45959h72326o7825G68059
32258A992571q88675a437791n1053M06661h0489j7087j96952I80029Q82663J561666
32248C424358j006959l24426O15880Q54716j7868F17121B89903a764645k349932
32239d114577r41875n2195J173103E02559J740342J156716q28254m84995A015384
32229B758755P62669P02089n62372D48171e63514q08919k532970j696614b799997
32219a282624l444835j621462K466331J36397j777801k71241K52529K347712f15255
32209e28308C41058J610168C61904J79795d45263l369718j04852a639409E88737
32199B367479O84332J990908K53096k009550E93270a318503B26667K937631n68710
32190B595588K430128j041773A974447m74702c41479A894056M156240K308204
32182H358500k723665A088238b117511M75794p80376m03752m05526Q25021i60544
32172b535297J052503d5627E41438c841246l256789K264249a573992B03724c45965
32162B544890I9144a764284c15374k626668k732697b200951J054705M02015J61701
32153e82530p17639j203672p70466a432936M25225E98658a566736J39164B716300
32143B265480l33391J113359j31705J811288k078689F36286j73128O45519m15272
32134F93405N76093m24197a426802r21747B760507J755769I91066b95599D92501
32124a040823k026859j180095d51369A002958c148510l9011k14037D70820L836300
32115D307120j179476O80152j341804A135203c11552k273257i93627A756269h6927
32105b558650H17893J121409J158708J197793N76106j084756p24180N84390k42952
32096C404411J07691R32112k057777b290288l767942P56609n25572k344113L997270
32087d174036D31885P95467a383638j077928j17727J067127B610261k43326b922737
32077e509696J537600J563194G66791M58491i232j05589C825407K782584Q35882
32068G443873j677065k374123j249377J144786J244559j596840j258283F32440
32059B312589Q668r65681K919032L38649j155073N51952M657929K968534k02442
32050A1434157l294434j079342j380422j324837k95284H85232J522319a728026
32041e094978l40688O97927m96542k33271k532266j492362L762287K041010k55911
32032c944794j201629M16641b293532a59890A699752q9400J846694J231786m40852
32023D247980R5010M16229p17312A857096m00136b594267l910866J822002a461461
32013h32850M2165m60603k639575l37285K113307k749876L68782J089079J168802
32004b238054P18650j03268G86252M49049J357738J702799J55722o04634p62983
31995C083943J585594A162233r1406J238241P5146r16885K657260L15303O55348
31986E095240O3082o79301j56700P75934n00069j300703r58554M74981m53734
31977B360176L79790j82699E25123a293309k327474k180207K328170R1614r27879
31968d309085k121288K35530K631763f00349O191r6098a0772C885879K050712
31959E936591j911521A224196B24432i99235K8047A83519M99916f01175B0857
31949h92675B856297J289396A563019e99299A282361K534876P88917j756618j084610
31940A764926J6803Q31369J12314j84384n19755M91513N98554O08263l87661P44734
31930D076676j117101r76713J788451j73462c28154j833825A148485K947452j766252
31921B329685J575023R84746B228238J194807L070189m77347A519671a15125a1553
31911H85556a77708r07615q01274j558218P02158Q30589j81076A408942O006705
31902G415647J620255m99318k43823j21365k539348j026199N52058j487625A300789
31892B95348g67443q9766A111148J081531D08226J042445L553574k54085A549891
31882H18699R26782K240019K590645m13413j009513K64940j260437j571050M62540
31873C049212P36460r29018A217301a15613q63874j663170A34193K693148A326848
31863a079622j057973k11922j225373a627524K47383j319860k785968Q66772a795026
31853a99089A6835P64642J24226b94485k040215a16945j718462j790357g19397
31843b31066I79833a534176k909964j2269o60329K115994j192661P06745K66727
31834c219933O90837C090P45502a889959b77327A703155K189028O47002A455351
31824c451776j376757K161106g98606H04954L67371a214309j161887A689821J687282
31815C377103J595318j43710A719111D39973b092697k367022J766155G16368J84004
31806I00372b86268k796001k817012j5045J145311a199663A311215L085249L91760
31797D788224B349020A091809Q50880m42951k10374J647053p8782J520750J96213
31788D574598j250824I6775a458002n9830l93458A840012M574466B767937b297835
31778c572294g34980A315682K33151f99924k530317j024505O36314P46686a132060
31768b269230b47515B028497h51937l021846l648532R63952L64183n87440J350579
31759e431041a135374E64813c62128q28316e28282A546574R18179o0712P69193
31750C173234J908679K549462J586980j590437C525413A142669A11574a863872
31741c056011O83046r00002j734170j043240b477940F24561h18783k395377k889327
31732f103487j267816j0493K114118a578721e13927j678586a010429I12341M50068
31723A362409c57956k271617j757805R64106j02713R5111Q64354K66492K4909
31714b275119o93684k503057K550970d68555j177264a79630c1020D02271J84505
31705E86776A50883c334059a005583a20907j423129C13113L960118J886784n96275
31696E563740A686019K534001J462171r40770j595688K017462J904019q36943
31688F230271A815702B27368N23687J484241a029628Q9876b02969K8602A942863
31678C473197L265039L012311j001588l252331m03798k446822p6457A039168Q0067
31669A119235J135506R55J67279P50095O92439j684787i66151k807027o4017J275705
31659b561490m00895h3932o5550q83548E60093j08584b781425k99882a310824
31649h99623A519452J859280r6886k84777a571184m194008p705b396507c07372
31639a861789j502393a193172B663781r78511B39718e68405E15282m4489a381132
31629E7402f02971k162693L03618m55958J172655A75806J161517M00591O24215
31620B362129n68312F63547L74005h82808k982026N44474M84504O59197c98071
31610c428420j255209i40485B607057J062260j286345G96943d709913J123422
31602c586491h21057D39470K705074K225091q91867k172249P58731P28828n47083
31593C245995A496501b98331k651512O71288i3771q43034L08504k451940m94591
31584c574832a386432I68401R27174m99423Q69733p15450a118409i668B464688
31574B151301N86104n95254M61929L827849Q39275k628077A424077J775540M74333
31565C673950J822731o16531j27380J328057q42969O99602l71440j053693k240619
31556B271708c332486j658457J647021Q24880O99353f48696l16552A704145p61135
31547I43010e25193B528211C34310c235307l515581L03965P04112K017902I84945
31537C732659j82204p44285J196543m49052O09770J186654J01208A73839b489283
31527e00789A464173g90913j534861A555700l73498k69342K517994K990316K773471
31518I194641k541273A991724e33091J58030J55085J3762l206136k051537j112019
31509f575906J139695a804904B036592i82090k606717r05692g59435K57972b24482
31499a531231j557433j41333J386058A80576J891205J771665P4399b170351k91490
31490b461841J212335C265876M208238q36871r01265B859046a408095j118436
31482b526531R79859a11924A46108k0115i51927k107027k022158k586950R62243
31473f705819i60613B371571I182c31228B276627l57255q23210e34563k638800
31464c173363j831776J293989j88983j988541O92919N43516J852090C70023K588686
31455B958709o18362q35452c29125j783375k84165R47054k913001O63548I8417
31445C3281h72144l055574n617309j003120K785589b800491B1882J949362M533378
31436F504622O06088h8237j038644G9414a571023k683620J63819A571009P1199
31427A642208e45154l42082B216130J886358A712760C82351Q34304J3734K730892
31418C961281J831779p74435j908108j216692J562757N98053j399701A170408
31409g37696k903277o52808J044056r92170J165966P27238A796653K29736J00594
31400B126983r30150C64998A67183C225i4705j58673A602974k47071a724512l98930
31390b123442f82456l267147j235424N56208j693K015161J080758j076803i73586
31380C469004J80820c81960k52958c2272j538300j174545j384928j516868J134786
31371d512127O41534D14416K471458M090245J807727j317601K79524Q31567l558355
31362E018981B69736a132840D88759K302117A209197b112190j47430K40813k811744
31353d830551j215688J378178Q32278k720385j474479R72044b222087m79472Q27002
31344a874557j748094k193505j231051r282J841927N84259b085891A672568K412599
31335D085167K335494j333605A478854b46031G46658b3699B21918B1931K02548
31326B24479a120550j364237N0436h82434A649051n37184J456824J102510D69951
31316b678442A389193J879566A205327F0794J65609L120522k95406l01461k86878
31307B463180M17122l62213J82972A196121b233732l357941j588215J271746a338130
31297B512597L151793J487451N05628J316124K03788m459902f87419k37818j267073
31288b192310j411025j464196O21210O37165j619403K218719A886166j361K428279
31279D313084A254589b510791a124882p16645J83886P85929J0426J34231q62616
31270a589671B8054J561574a546254k571489J93831J656368j48412h1671j433793
31261a515464R8826L97710A068251L45013o95489n8647K14473Q63034K715026
31252D451661l57346A820795c62203k130683k141658k219265m60302c070966p35764
31243c806730l36565J372699E67103K612917j433576e99038j148780M27255n27765
31234a848328m266162l177482J672895L101198h27756C59435J690705K314291
31226D364431k10363J06591A592633b425064J47410P32349f19971b56438I29934
31216F82974a595888r26805p01486l510705K06596o11587J927581J959377a308415
31206G07116i89548j449796k91729Q35042a95830B118628P86228E35602C2297
31196A865372n17481H0426c9962A804337A3601c59298r74072R8197B50547b162105
31185b588456j847818m093934Q81862K152950b259417I55185N1539M07525k4864
31176A389385b57187I7495J344159N87560f88482j628286j289529a674173I943
31166a904006r38942l447689j690644J87874j361127J590881c104952A89366J969035
31157B158401H10010c922693j378058j77346a419460I35369O63553c139487m336157
31148g475644K040851b543826F4416J789309K643720k239202b79260k622927a157598
31138A257252j57697J38103b612268j47748F48250M95882N86276g50165l78188
31129a128353I2805J723949g11919o92427A175751l95447e38896F81251L92190
31120A073441J994498j252405a676460k273188j500659N38548K072471B528369
31111C75783b511097R44167B78465b661000j714898J477612p34233M77821n2108
31102c206806k50669M40188N32822P66558G03311K726890Q91398q78010C27671
31092a843746A39108O95851k15113G5118d97557B081638q24290k68640K583276
31083C571984K483499j789931A224045B58286K78986J654i28569G35580M26106
31074A161686b069201o16736k675056j201755b803447c91518j143252C62170b71820
31064d261258j057623b008644H62242J665104k31614j40164a068026A22893J833517
31055A956410o63514a414365m37734A552832o28798b889485j304302a819595A126570
31045C413789j643318e33835K0887B173249J221661j76021J163688j739760A74531
31035D503150K701071m95949m60627j353178p56606j463270e51824j920892D74388
31025A047144C64668J003920k94504d01377m03198k07146j28922j371384l899880
31016f411907j285560L199797a369381n13210j116256i52212A298120K451232
31008C749352A519136a119466B60575b144291j962656J97673J937242f18877C719376
30998D559918J022677N07482k902085I34352D12709K097921N81492H84438J414299
30989B298737A91609a466307k81196i6162A096840e14905k257533a042834A11455
30979A591827J988675L511652k85622k882739A307610a172782j759461G30121
30970B411454J34159O21646k66116E33760k2807M174782p212I01722i93494L06784
30960f86710F54536M602202K777245l350273A195486M13054L15849k65306Q98968
30951B558051N77509J374718m53986C16950c31961A943657M06052A41911g91086
30941a048647A442380J234812K00533E33495b102841l85017j134429j13280a795025
30931a836729j685088j93589b74485A006558C83065J159718M477047r92318k30339
30922D797173K259023m17426j560498o83513k092863A14178b558343L11956P99189
30913a447198f11878E28624a99112j818563J39190M87090p57082e27187C879347
30903F667490K419835l083351L94756Q95935A714758e41327A291656N79599q12880
30894A058375J985185J229011F57845H8899P85841A30113a477524O07040j361349
30885b231833j338031O26744J318324B026538m45466E800J325394q2556a16157
30875A440318K404026N10843A485029b016106f71284A60169e19780A486962J74998
30866A661960O69343K175054K049609J686347m84038C324415b178145l130006
30858e308151j081131J100443N18628J81535K66813a955104N18253l0272j230042
30849b697165m34537E09090K961934J926597k486345f48695j079082o39076k078299
30840d445152J005222k67662k101163M07082J707383a079064q3264j05274M61367
30831h06235p75921k705124Q24895M84265j841316q95378b841681i53849l00826
30822a254675L81752k11655j603212M73883R75777A65172K95503B05647J684465
30813A890112l96202D3252L194481p44805a772224j383301a443356A959118a681675
30803d239807J393827P22130J031671E74694L94196a331126K93895A407933K042249
30794C450182m18499M10502P48884E20458h8601B189984Q15851P01579K2367n86428
30784C143353q7981j268143l92267L103680j992417n78386Q1465a157767j062964
30775b220731j058104j000656J084493f5913B461075p63160K22749J891233R36036
30766D747933n4928n32379A700493l99505c131611j999339a325725H99745d48225
30756E24342J202732c53216l034585k828305K950539A184008J585159M18718A370388
30746C68618J97678J456002J113550J821865J800134J557410j38354J481167m86046
30737I172024m423184j983164r99050a8301l049343K35632k47122N08686F98972
30727D099007A705904a079326m92228C96328o9898g67388E96232K684912K745183
30718F026327j1819P9841k418484F12712a972826j999548J968006E14293Q69923
30709A384216D38362f10989A036094J964218J920390A753675c258303j036980
30701d295283a863447e15767j232642m007431M91154e57521B621202L285689K087978
30692G994869B381781c211812K59230C08222J838782K78291K474265K643293j374248
30683F168605k505978K002554j186705j553861q07113B32407K71273c26686r22060
30674a248746j665618r44582A651276J858778j673623A55791J199641L97285j40251
30665A612466A17367i45483j653516P49494k53492k34663c88604A747268O71537
30656B418805I95749h05888i043A840530J293423j457487o50114a785570j951739
30647c737309J831074B47680K097783D41630a931675j3133B957310K425758k245401
30638C137667c01429q12917M80825C54971M67724B35061R1022J16781f65886F96910
30627B222090j80592E85192J844056J613247K510125n61358q07081B362401a904307
30617h05076I02959J539203d05399A010121j10276O48815L97707m19044a78154
30607A206392J772266K43369R21013P84987J248808j018821j784696r81836N28284
30598B919766J241183J13448G76704f16955B77980N18630J084023e92173k311814
30589b903987a350938F62172J02096g50674A304521r5275m23260L6438K771714
30580C594138J127887J082563r05217j791438q7145M2945G21754b696884K51435
30571b445449j605481l29417E2884J826808k95256J09405N45694d90890l025675
30562c516565j441606K179145C41433J634034M40411l52969o09022d78190n96396
30553a074586l2994A900310J903090j268190r83628K079663K117497k168293M4326
30544C624775M32460F69845b372166j023056J67128j776242L81605e60501D17799
30534a622806l319994J587777a49909D000029O72970j620153M46519J925693j833078
30525C591980A39223d554019j006352n35423k697221L338008b171358e19598B10511
30515b399630m021170j301933J361185b039203C68393J092121J07066n31795J4181
30506A049966a687340B41074h96198j233590j416750k403296P41085K390748j259710
30497d077711o69079a823107c31668B83116L272350m33818j360385B26577R53732
30488A180309J682804O60067A170391E59439J697131l75725q55311l56004A39715
30478b533038j651248J6009k80649k543511l034031M360727b656010J096265k195400
30469c755145j767744K324671e51314a43107k357950n8180A26026M48332J901083
30460B475441N47435A260153O99889J276514c051035m308983J589902J287042
30452d483074J987256B616785J28875A06318a893002k763239k461118J137023
30444e980336K278486B76387L76957a592500A369028K284533l04625J34792j133202
30435B350526K32890J374646q73276H52433a375012M17090F16414Q10916J340213
30426B767543L755588j67309k416186r96135J678528L628332j207666j619432
30418E423263j724797P16598j421373n55647P20266J061601j075654J286306j392836
30409C037727K22727p38585E91054Q32529d05357m25108j379669m49322J225077
30400a434379F19864b775164o23775A312650J41557a632235k271065J494342M09592
30391a999366R24750d17058R2212H60054B43260a143441N01249D27933j52203
30382B75730O04468L11880J111631J54566I52329J12801B7157J498076J843062
30373C368295r70113A066263a464529m471438k937466J841160a626400C356009
30364B531520B40091J079547Q09213K485292j212914A046951a078497n96319a81962
30354C37784K036640j142143k18989O91937P23403f35191k078273M84011k135171
30345d364624N26436A602702J853272r28745I50385K499698j252715b121095k855018
30336d976113k54733L28491l86544J558338N13450a424796A354486P66309k38501
30327A882294D28066a52609n58366q83154E92499J005790b446830n54530L59574
30318b641786j999154K46979M79151q77646j347750J749213J686833L87783C56786
30308a763896j615657J635812B025176L538905o59499J160996L073616k305007
30300F834187j268671J457429q45996J46183j325694B062074b678483k639450
30292e317933L80641b092445N28426l005812b096541G41197L64113A69810o8522
30283A01288J697853R9660E01979Q3551J349054J424256O77492J060576n38921
30274D557987k158875k72835l49745J450651L435568B353047A171201B37866J751432
30265A989298l49380o98738f98079j642744f33526E27757J534663I82728C90670
30255F68805J414370K266936l19644I64813C16125K915761Q33742D22142a194522
30245g78913n6656k34788r03879k086190P38343G31664K15280J08603j26871C61212
30234f70508I77145i59518l334945o90560K340528c37105B825428P48567P46081
30225D320076j860162C45530P0263J429174E89170c062431l669192L26619J804657
30216d600347J456836h40858C250704J291324q84112j268242L36717j264542o97609
30207G64240J97824a379297E45329d20798l013532o93588a927502B378540L741553
30198F120093m32334k360863j442052M29250K81228r36044m31809R78072q20481
30189A385060b047724k272180B636427K469414n29502j124316A490015f03690
30180d98747k401797a385207j038066b46153B666167a04228l128795j784831J722109
30171c295745g08348A571504A8562a448118J10869j115869k232901m214931o72485
30162i573435M753065h27498n21042j233519J249827A84236K551694A204844c235081
30152c943197Q12892h72953l84446N75646l11087p66499k425766E94772J508065
30143B102837I31849B21892g51355A66263J820831Q73883R72995q50923q82534
30134B100515a055887l421383o94508L58750J02311b068059A621671g02106k259753
30125b961859d65045j41420n11399H69499a420914j648098N67593R60891p90551
30116b331079k776911M46027P69308M31356k667360J322383M0180J153445k70328
30107c882979L79610K07652M76050J16085j339801l456454K121083b455472q15961
30098c271433j670958p24618j014187J603862a059673A636228h3492l987360J301166
30089b769686a255187j75105p56118j956084a397556a65284A680652M257191J437233
30080G375076j40410k809178B041270j70817n09705J228668J611319J586402L93813
30071F180950J08613j137595J10004A088104b144355P01211p06338N20557A917607
30061D226092A728906O88406p58179L00943P84582M43734H39249b655343a148883
30051b321082n004085J224022K814233K58624J500087j495468L06702J052909
30043a664058B283652M21808a994872j408498f25187G19477J149846J345930F33470
30033B714710J847884j972292G9187h38284K96519A024665K961022J4141N81434
30024D581262A601677a693705M18780A542819C2164d59696I49836l8110J294503
30015B206229K48590j074888g62779A649907L235005A943461a407527j78583R4257
30006a491853k460500k257260L87281J303823J61793J850793P22787f71422g4199
29996b98478n05873B19081a440400m7734e11173A494718J010065M00001J173184
29987D077968K043435j103259A872870D72316c674298K91861j830829K55200Q47125
29978d110941J807059i63103c14954A07934h41215C13420a215679k615304O845
29969c824138J446025J028049A498967J85482O53393H01640a014195A145259J033967
29960B179226a456239n503582m86520c566391E08609k35577K8100J233316a331614
29950a067134n58023l88798k3969j357683R09295e26160C5396K45587K525273
29941B806256q43198N9146L254704K745653o77468k912827j886717k07827J067237
29932C404959A372879c94493I79995K911034j47874j073321L80145A509580e21161
29922a96024C692701o74409D22284a09316G24218C23247a913450O0436D68353
29912a722835O59020A86145L579866Q92303p9383j430919F22806c53155l10818
29903f63973B600794A279626e48869j11937A796792M92599n40115D12025q9909
29894C22116J039357B29765c026542P6594a001652A8996J392579b334030M26053
29885a907977e32474m35768k075351P80331j178747J693747A192874M21356n32560
29876A081670f63636j473004C06904L233492N66103l34518c884825k779637J700294
29867d964168b015296M56894k897634l106890c721526D31324L49547e66038A246598
29857D232512J460597K06828O64191k17779m94273l21699q10599j480420E61334
29847b936374K02892B021740J254319A246158n63097A40224a525476j839090q0004
29838c444570j357457i32352C449230J220461j053875E02750b090470j42488a62263
29828C089954C83510a711588M7732D7483K731232L285957R70906k650070A256210
29818B090440q972g17917b08492r91234A13405a75283o01901k383296o19786J231582
29808b548684P56600l231889j562917b570968A652940J259912I78022j47770J622311
29799B452563J543313r15555o75964r59918c130396j290054j538551b706912a60433
29789a370974b90666I59447E6951g41568k444604R57234B370823K214476O11558
29780E196857j28953A077253a665398L52430f7335A534373c33948o23541n89072
29771a546561l296177Q77277a096831c27635k76939j664081k466956k262081K691939
29762d305753a751565A29289K418589K584390O26313k458913n44434J023021j697143
29753B081112C05179L95230b09624j398471B76082M33202K36716L29300k37970
29744A037330C69555A998a830915k42202A716373K64205h90676C32573J251318
29735A583891O20150p92619j56482O56171C63924b729701A573023N269342j390487
29726E451878j271034K77368L482169K40008j878272B909040I19295d96320C10871
29716b92442k73143l41320E74505J869530n67010J202669J650323j871012c55617
29706d91108k038l680745k660231j117859j72217c395546B269106K582893r49479
29697C902520A076364L923M4920f38210k996680J000965g42698j756981E87419
29687B939703H22985a904817M01681k050147j683750j929972l345416J889774
29679h622647K052758P57276b872567M62301A986453m36202g33599A614157l10671
29670A303486c502748l707892j532508o7766J92700k92485Q96739P9927O15734
29661g318299J061177J972802J521607E6654L69165g77352m44298B890481d89645
29651c294224l84999l02624l304398k094867d544850b184859i58925A102254N58299
29642A660553a40726j532771j237397r15052Q94435l051480j795258L419846R34808
29633c423595J179553A131218l8976K78266M07664M31181L052065M038349j862934
29624G436833l712506J194810K425140R39234k868921k153547p20579J349402
29616C889866j773231q08220a594780m06526l03033A203205J404092N13A277842
29606B095670J360466n55085M56153K305180O30441j535755k053859K103441J790010
29597F596662k525021A329172R07804L1906m49164L7795h8612o21225L06833A018784
29586b76488l152221o38993N97532O20193A51557a09690j204350j221448c7063
29576G30598J168080J752751I81517b143748f84273B406513J189398K650145J763241
29567H009297K966858K08063l670228C425564N41121J353750k018594q06097a522953
29557c437286J114622I13537K424418B35005c048243i99792B140536O50113G27088
29547d57679B0992J132052L34307b41479M6133H34253L95007L225183J695766
29538F150209k178173o3374j311700L18881A145073c183362J448291A340092J589768
29529B929860j138232L16100J936574J56227k02095A762760J246750M97343m71224
29520C035629A197247l30082g78439k59539k22369j719343f53523a07205r06169
29511a013374k458636a020803B292888O48886A240120b129966j966490k468902
29503f565358k074735J735556K929206N21734J696342Q9496l566241k217808c565324
29493A115107J220279m95507M39397a80258l214995n47600a837147a95285A433549
29483A399441b84246q29372j66169c5477B063533J875074J92051q50197A136908
29473F65385D5068P08788K42766g09571l021871N07416g59510B95475K50126M1946
29463E87547O3052a993410Q40334A656334L35070d49244I88582O22026R64809
29454B575417E41142j17703c06766j257329a2956C63560J056256L137795j34820
29445D422791h14405j341096j87129K0303J130517j251401j257657a018127p45377
29436a763504k17534N47675I05017M277919L119459r83689C623988C21507a314097
29426a893116q29266O47492M75681n8504N50051d0892C695094L46549r93749I1350
29415A155324E11076b232254O50843C578294R38213b214376k597005K151034e68809
29405C062324H50463o9428K827975J297546j582799k52648r19296M59376J383394
29396C994583J686776l579B224627C10019b517026j009553p09600c78430l81637
29387g60067m488858R5107K371409i22680i6053k879561M29588P37873j916784
29378c724937c69710D665193m87191b9590j081961A08101a027357j333956r88263
29369c349576k513255J888630a953194k337685j533174j098021k73584K511995
29361d683663J653980n71269K53010k610466J88004J853046L91286O63622M74381
29352b388069l875993N74232b224348A608896J275083J068239j835500q71218
29344A245500C64410b67933l5102B75775b33499D19238J653155r48483P36998
29335A860908A5191c91506A220239R23044d5011j784796j59456L90344J111c90918
29324A85114d307365l581556L058163A798137L194081k304650m61639c87473j979776
29315b367249N56135K53058j877978r09318K040529J63669j201099J574534j4915
29306a782634j994996j796528N45619Q9477j554780n60628K711018J873458Q23549
29297a646445c3378B38753E7305i12673r55901L47723q08185m44626i88823k34984
29287a223807k699154j13846K37965a451772l78182l395927j960404R27383J855447
29278d403455a340078d38010l430497l207192O00945a780052A149537e48656A667460
29268C811415H80316c403521k149878O17608l448348J624026a565784j956116
29260c521900k391137K180786j7463j553705b598707i2887H57838a692471k173179
29251c865650L41233C27388J742163e16968k699064j881891p60773J241451M97543
29242d119702O67859a404119D36737g66388b6784p626j900197e08793l16326l911720
29232d736839k767727J092287L130112A318631o16147a742266l711125j750182
29224g203573K595741J457686L81268k848602l18422b321289a100039j234541
29216b334580A407216J567104q93641j70412J292750L43899F40978a628173j17175
29207a745348N26990e44658k97731r57756r3107J12583K298j57265l424575o36759
29197e996970J770598a260600l39653j261583N45889d26116n87083l179105O62890
29188c529414a090516D22874c027300J307859l73066J68732h38001A438948p12767
29179G26181b933946o29804E09757N97852C21772a268467l405258j25033B78388
29169A314320N31264o50917b85378F05793L28015A34151a889728m187196k27824
29160f304748P24550K236955C82243J886901K93939K76760J826047q6864K265522
29151F844548k280483j837384A248697f84343A197403L070038j89473J228139
29143E306107K466325J92654j270444j232426M14605o31781q94751j299829l15672
29134B734788h93628r15813E96413c34097j553074B85498J063153K82674J208632
29125B839957K353616j956949o85577M64971q50931q53635b165650m360066L90714
29116f135002K519698L56794N73724a93892G15337N96414R09718F13820A58707
29106A034846f27084j142475j513114k349193J962080A64433J988033M62608J152370
29097C767444J844485B452932j050143b19140A44193M20401d247843q176836K36936
29088a2187743e312313a835058D03480K615968R36947A667296a583398j25527
29080a708925b90753F14992d3421k274255j198572k013821J31211b154888e22231
29070a413483c42222l19847k204357k21975P19028n02637a298955c10095G1902
29060C033288K526837o74906I17815a531218c11029A00512f88678G61849O54442
29051A416291B54525Q62016K447113o66111J057359L021579j528128k049857h58200
29041d286609Q96235J469041J64718O3434j94265N58143k82907k498940O51823
29032c459327F46405Q55353R75785K842400j939681O91452q62907F60074J861493
29023B521567I55955a646301E85123J516754r43411N01202j44151J100231L679876
29014F295624L71551j407814j101449F81286a26763I16691a071821k872180A67982
29004B808431A149646n59647F5758a098403a28307j270205k365713M24030O97928
28995b642267n33744l44937M34125K1915J246949A733370d80540k817391a456969
28985a343960f30296j357518k317460l09594h27978G05152C22178Q31820K447410
28976C601408n46633j264897o72426O44032K63019Q95562a737991k787418k273924
28967f799333j854306J557540c211180L29286J239066M26193I67323J294197J098396
28958C359916i07031m622436O82714K412629j864465a923796A719985r4718B70568
28948C57641j11642L534494J058709q3598n63444Q5747A845829H70852B33222
28938b559817r22056I30871J823506j138674b842028l467507j854195J507783
28930f655947b359452r21701l45682N47992J309992a74894j582508k385217j737826
28921e880445O25948b110953d20202C63623K90863M59972J456778J700498j440595
28912B831139L47436K06556A055992J833787l49481c471810k757074J736019a607392
28902b104695j020733J492071M26232o43991K95069g58559k982495M85370B122541
28892H61018c36507F9665c798870l053001K784230a030859G96981K277512K848963
28883E923456J218530L67830K133177l029598B77588a320264N00556I7689O69794
28874G67483A5646g42994o93165N08180r265c71289F08634h61982j094626j305420
28864c262028L53530M15074J150470D94629J471582A27690a218938L9041I53672
28854I19996A79789a144219H2109M053424j52785o28894J84382J446604L6786
28845E021626A757122c295809M90017C07400L088549F78690L55573J073290q61594
28836A245959M33262H7930b263943h21352L07827J75162A535622J371500A347896
28826A521105a217753r03624r15896k077524Q02545a878523g76941J85383a46402
28816b204708l210496o64066K331261I30634R91735c74546m91976j344816p69837
28807b981175n36091a121342M25660A243500q4219O15262L318441p10898I5119
28797h19245C96211A57825d57445J67221D95947m3004N0687a004717B321636J160941
28787C482577A038531I0326J61418L973929J866719p07876J99258B117809E35634
28777G26481i41263j025537N98647j048380j997372n59584a475869B671256J059749
28768C731005A373868J131430M065514J437906J27866J216965k701251j473097
28760E179201J239667M87658j277384j260114j070064j299113L19208C13368b152762
28750A306562A52762d802827k635331K710044P34010c42210A375726d565703m532061
28741i097764m01411K439506K476381b051765n41188k947677b649624K63156j451016
28732c837484q52837N53409N32042N45072a316116M76896j676204J004133c30734
28722A996507D67046d47211l62756l344431p72086J560903j965228J416386P06221
28713c208202j326815K70817a178533e45444n71519c84200C62001P50069d55431
28703a124877k76128r40581O66060E72249a402637N03297J3700j256144M5345
28694b096439m27731J256768p69035l615847P1078P76953d86506B85490O7819
28685C53309K0892J354224J542917j40951J215697p68362m64320k55456L16507
28676C174457K049112l28860A29879a219260G0017J853090J298455F13514b416636
28666a651842E19761N24150J96m61627a55632l57076a81952A135437K633341Q46342
28656D615120L317511M238934k107290j636273k396842k113893A584777l25484
28648A259293l47764A65441J671n1350P42568M22411K563315l83251j197956l52174
28638A910675K31181F39807a153086B77967K259795K593039J447063M52579k064701
28629D965742k095426o23745q07393J866656m16515o20116Q34G29081P76581J757963
28619C263625J577256j46300q62527A825099l62721M338622J511965j566661j210082
28610D536222j707771l70501Q20612j078348c53494l276063Q77382j334693L06997
28601c779871n29393J996892a30148F56167O74681o7010b2450B303868n97641
28592A706227R85033P0754F6584c077926a43465C511153p66181b2801r71387j276920
28582b271108o47199a132004j390054k425541P16592m29508n3560m47851n77485
28573e739411m33964K416225a374112L73022k22134N02612j767885q66547M81652
28564b873392j430401r02358a624006C01593Q51O14028J998548J321610p54028
28555C482602l24170O2366a311j370512G7650a810569n14668Q34818o05615p81754
28545b877788j006790Q8203a556574I82142K589599J007136k114640O42393j432931
28536A673699p57763J254940p88139o64638M015666K394709j092025m55837R76272
28527F556884j11385r40983l40732j864125l19587K90579J885657r75426O30076
28518D810958j64051k268579R88523n54642L375462Q18525q58541B952236J197953
28509D150189A472263C32979K58658b163216m29664a167562C143665j567122C76255
28499A080066c15533j538648o37963g0282B445380J206432j487221j41251J42610
28490B165950E90428G0520J545417J766536j073450f00794C90259K197012K02329
28481B789600A085272k71990M94795J304794m87042n70885p7693d0349o72275
28472g12624F81480K603716l37594n55277a85046p83259a92660r84617j960525
28463c137802J392429E04695e44065l442981j370925J943143b97471A664728m58382
28454A206346J34246n08910J197826E41549b574030o85092n80833j829352j910629
28445g579936J493260j74754J16558a028319G85719b183603j206890a587895L44355
28436a243540P3354b91399C2115c754181M79972I5758L174795J661216k339774
28427B591995A242346J842100a247194l765857l290960l377413K037729L050212
28419f593483J311397M42649k262179j317066d014700i39285B878562m91116q81263
28410A506183O48365j83524J793306L763113K223749C930480A642637D75308b183637
28400b807854M43782k004366k274803K324325h87313c29078C567797K226805e63817
28390d263664L5501f45498B298835h08337k646634k07848J84512r02532n713306
28381a0094145M24108K60142L198300K503730b83802n48393k97329A779995J052838
28372B832833g85135c1784k97712n31805C79904J075031O14598a196423k057255
28363c253678O04681K25598I92778J47876m29954c79616A377645o64848a341466
28353b720917j552856k25237M00201D13811j53569c244706l507320r71379J345117
28344f378288L015559b58942J26459j43137r50509C94132J522507Q37987K49528
28335C004154J805664k12851j015594K717325L77586B645523k24682m79168K90953
28326B232626J208114K44208r29059M82152K93883J12991R10718j192074k8222
28317C335337A108679a052564b61341B34219J053267L739452j294257a661789
28308d530943J331408a159756e01767C54056n2686P58668K706114L772373k115594
28299E422931j377530J490148k347875J504465N30621B573961A114931Q55348
28291A970279k06888L39530L23179r60437K35549Q30399r05518K114190O79541
28282D419824A657526e15306j319178e44361D51651A62481a943496k52963B240844
28272D324209j762433E0755f81213O6849k184308n16320a623205N5948k75048
28263a842305l121726j8383a697435H24577J875980m75869b813916o38942m45789
28254c898647j83286f38827A173618a442186D15626K857953K92122N12191P00049
28245D777941l21803p45842j428008a364121j696766G68124K911165J987396J154255
28236F820940l92653E53787h52786A420957L6254n64524J987454L172234k74105
28227E778270j610097J46608K460021k162941a344070l93772j754088a598804
28218b09635o64549h1785n34404b67803j68070F46886J39573c78902k156709r30887
28208c466498h17291B321594n04152H33575O25324Q7224J504404J391770J229583
28199E671880j957894A404264f59224a89386Q8398k626631j493687a034184c48354
28189b237487l291036J102673Q32486N86093F81467K710964k5354r06009K871406
28180E332474O73722j864262a14112l475237k234621P90770J877564K31846L71646
28171b552144k77031g98185n08077k031732L15948M04450E53816L395145k21989
28162C726972A529467H8830K058918P43418A161665b622439a118659C452041L817152
28153G269193n62516j363894J813143J331387l318979A820111d40837H65328K073761
28144B939089p8946N61300d18886n583180j545666J870003j465664K139860J447710
28135c555823M14944G56717a526913j723475A112733J051562r85504J633178m14445
28126B397524q95840a249677N52217A604189n66692J80542K74974N56696J870588
28117C920297q26650j076255E57268J618379a05394k673499k846355j078373L157955
28108c545666A245932K402057R75860m91822l51133J180911j169004I46244D35630
28098B130584J317595J715397L252453m49516l337128k306867E17824b459419
28089a980842A556305J766431p34913J687604J859689K10287B485604E98756M26948
28080A025704a621369j662132h98019F12659R8587a316623e96517B129962K607675
28071D737637L320835K565464m680184B736371C6967J800505J184164L13369J286374
28062D621379N113057J958674l211146C818245j819J357852R97358q94979r63006
28053D313651P95896j1571k438699F53626M90981d91830j349415k807342l281790
28044g930377J086484b471886i63940p25410j952812a363661N75723l080356a169015
28034A94686K083053K916608l48597k26185K60285J006714B656191d28653A865757
28024E75479J434421J390067n28618N88646j159178R16833j361343A60711h58053
28014a68173A523259Q67084e53964j277024I92525D93709f25018C21645J458436
28005A780081J536664K114953k325116c857823k163938o73513R94230K381965
27997c319079A054116L63268k21379O94286B44184e17468a50986B470529K781764
27988E252293j61747H50382m14133J179230g30146m289323J983518R62721r90612
27979c063842J451651l038802J382188K58754N9547J54548f83551C681072r0828
27970C590244Q97694j024736A507797g48140A29286K147347J094320j648502Q1583
27961A804034J645946J186340n49406A120666B0450g52651o53971N55107A162034
27951B423883j157649g89416p74820n78238k586936j189930k953808k56432L681207
27942e448373b281329E94953K902914K55756j336337d29404C76386q7624Q25589
27933A114351j51477N88911C21842a867364R12490k3388B69382b437448p36704
27924c174152g92790B995519Q15552j570238C57682K1462M302847J090155k621691
27915C150455A388233J487140L277114J296604j324429k303448A331999a086930
27906c558455l66174Q79732c150B322656r8534a87254j783140Q2147E74395K150371
27896B724766P13507j101993K20550E76414Q78215J869833A589721J670999K790858
27887F051578j420591j231616G04537a558603J94846A358522J539063e09835r12960
27878a422795d21279k36619b85884A183709J071932L262722q9960j596105B6090
27868c589946j256162j51217j136927q48322n24875J909783b778890N02042j104231
27859c381079J543081B544931O54204J803675B138463b970002J88669a74966A173507
27849A963162A75430b214269Q59327o0466A57611P10078f1055A1209L60152b35238
27838A66721P65748L140717J326014O66251l82965N33924j177074r02969K408809
27829F545176j007191k006920A454506J104633r88450c182186l474113J961112
27821d695187b115020K64975j779075F39970L603265j919601A131089C75531c43905
27811B391738K502061p31338j792083P80421l79088j29107Q0351D58667b420875
27801e943241j497526P96157J487647b462977B668662J287902j156397q91918
27793A908249O5690d85612k735310m46272M05516k203031p43919J242855a469463
27783B887K02733d45589o38576A56768O41164g06059o91688o35394N17549r25176
27773b440768a198269p56375j464104a689159A681433l08387f21561J00561p25788
27764a246788k21063k344635b82354C56135K56292R59852J453194j145757H56228
27754D238949O82793j296786l29925J455740q9662j426808j278382B32128b131411
27744e357349m95503b484311n95347J355615A969788K895377J679505j713148
27736D831522j671096k55607j325177f41437j40818B209525J032428A478051P59202
27727B237253d00479n01347B251299K363915J978772r27178N46064k132757A157814
27717C093733O78066C33215M54893B92810b92802D10736J403476A06467n1687
27708E4780K25674h55778j122883k852490p23146a414011p81723j072201k22032
27699c489967a157956e55534p29243j48574L68426d32981A23148M267595q41245
27690C549498n18139D0565d536168k529996O84049J678783J412607L59588a134544
27680a314395k896594J71399K006150j679285a551827A111516E17577a288717
27671b674835q97439Q82280a88922k81539K17123j145902l75992b840F2572g87249
27660a997602K41659K02282j898088J005563f92866D869758M36902e4638j838273
27651a892911l81397Q37091L95778j234468g61860j278668B99267K795728r06869
27642B188126h89460c06473A309258j31307a293357N41296b9387H91571Q93746
27633A785317K02195a039059j824512P63392A228821J010974K12581C73769D5182
27623B749972A020954k76150J384772A029804L26668O03797C92135J642632K989027
27614E023794n81945A570897i0654I68602P51250K278306J594423j615044j043582
27605B933955A25950a960883R58029B462024J513745M37276p13013F18902d293190
27595e160090k32431J117772J123467c15640A791881n26821l85806a175843k073037
27586c248880Q01415P95045D05664J54565O05708D76688a103987j381179F73638
27576A343317J123460G16473M55326K44460b54057B4647c13296g2261A191303
27566G64066b33265H2775f14543k802459L81730M98693f41563p31030e37550H68274
27555G1921L6019h07142l00711K99700o91472n31313j932025J29854J709851A46539
27544g82921B84858J610010N39738J75674J221694P88418r99075j320078q22981
27535A478258g66846K961j002139J73670c965C323365q08174j159440K535303
27526C891054J807227R32231r99835p8436j876893B51326e48142E02038g4879
27516e04434A318118L95966p98623g07638n30463N80725F68459J368738m24991
27507A612206B68779M23744b107879j06842K06098R10822A529827F48427c27585
27497A657999R10650I39244N79411K627847K976609R01393A201424b895757j455851
27488d351608a608490G1928a671445q41662q76161R93965O76990G94240E9159
27478b917270k312843K333678C148352Q31345b53282k525010j248497j127214
27470e154003j518367b978335B311653J800138j835211a552208e40505A048058
27461B871050J896199F34097f06121A504626E18176L395403M12709j708111K340729
27452D958906B159567b352974m60711N34946l51170F658J461136c12489k181234
27443b493723L28880H24680I7468b016610j757326a2464C556473l14588O68513
27434C910398m11368G43737B18422M18445N78342C9452J198265m80395A98110
27424B096412O6366G55788L71547c22957R1788A339814J388660f37509l59718
27415i97227A544978K954406o12744n68496J11482A667681b048901j419550j327295
27406d795746O71212Q21097a480574L04820G00144L566236j117169M97576J260408
27397D907195A711557o89631p9563J016930K331736j094678g64195j397258k4456
27388b185909k455095j198052m09431J095320M89187Q27057l029772P4736J241510
27379e550449a855051A860558O41703r77323J407834A31998a792828d44003H59557
27369H53038a7325j208534l066567K089431M40448f06056C57715J69588a53624
27359a097598m21779r92225o38592J87233j110982O17822a545488A181799d0083
27349a148707b60207g7664C2823J224029J470689N27144p81944L27241K439761
27340E239743j770283a319859n397830M54075K777903a026887A903251m69812
27332A433439B85189a779148l13235E10608f33030A36801O11600R3464j53557
27323F88308a189875j31787q65721k649851O80037j944087R39605J967321L42175
27314b852183a191166O9367o49311E6363J489165i28729D49011A91934b952653
27304e000204F12495K511821C96207b473678k757892k35663q76405m35285K143271
27295d635652o36575Q53025J68896J430503L21327j022674i82839I5212a0952
27285c20415H65899K655199j017850r56179K15270L34702H94016c170898K60025
27276b910873I50236C74156f8417n8885B963071R38339M68518n71895B40729b526928
27265c355190j028079b170226g28024A99739J247726P76740j038877a419490J00856
27256a318634h4448A481739m71518k07133N89417L71352K438311L607728L236687
27247A1046583k790270A304637a417094o80827M3886R18188j877402p68105j134768
27238d916122k315918K422746R99947P74437a011692G94684M5244N77690C47404
27228A644036L612178A143400e05602a80022C625649O74162o68580A383242m56065
27219I27177e37546l22951l439215p16358a324272B74711a895807d95008I02290
27209A087113M01087J554670J117095J179224p94144A31785d536822K087568M57604
27200a991650f44374b42201r82427J9558k88754b24556D604880N3330a372437
27190b414071Q8427n00506L1124r51981J044935a223255q76903j316695l671665
27181g088518J605517b540618l602214l335197M113093h40708A464991o26356
27173H38635J680787K28869M25519j19665A279340Q55643J624856M023028Q60094
27164H642961l943697g63341l082722a811998F34016e07597r9971A727361B6811
27154a009657A877144J488580Q60207A889828B97692O8696j35377Q67636Q96686
27145A995333a43151l08319A181501k37996e2810l714505O65344J351523o59275
27136b409723j216982O53406j812318n64143K141740R78231l09104E69404L756664
27127D326068A852172c036460l171472l2910K019907Q72896j08821Q16647K13466
27118b426747l25772L45121n75406j242914k403298k103790J280581K262542j979500
27109g169183k013222J168874c889480C55078K451266K019847J23475o73832A496461
27099e30968B79697J257357B5654a203313p5769B492480N77872j211660H1339
27089C37326r3204a954426m67502p2448r58236q64267a215059H67524b12970A871697
27078F19630B48495K693680O10558a53184k632477a165561A546269J263242d60824
27068d898302a554615C30961a162791m44073d8449G62318h53040l368175n49546
27059d770761J639199F88937J539310j07017b3221q51973m70960k88032l054873
27050d689059j88646J944494j021808r12130r93440J177374g55376A245636a061368
27040d749583n96796N85340J378509J650821l213j537233m83501M55526k054326
27031e354456r19055K930563E46560O95962D92032h9959E88571N10731n20883
27022E78419a051656E47967J408546b025112a66177B625648K291111m46841D77524
27012A09616a3210B67168K96696a214826r06206K13150I91082c63314a3787A670292
27001A377833a659319b14601B009208J331369E78499b076225k80241Q85609L88808
26992a082049m47175c86775A769777H29759M81118K404728j480387q56863K044575
26983C422930M69611j305847b10705j270684A534930L161599L14252J300145k21597
26974F089329B121316c172815O41766A26059J123274l79128A98658O67714f64688
26964B675817K366311j727267A139706a42924j623992K92445M39783a06965C10250
26954B911645J059757J23782j505952d53971n06776E17322j8079K02079P45234
26945A446556j3340e87537l698165j319862b663450F13647P3Q81168E77986d636803
26934d911634j321415k019420K207710J970432Q12665j013515m151773J105533
26926g321417c047367m378Q30434p5997j210716n01166P52885N19520j047975
26917c784760J574768J044598H8336L270449j507113b037614j587173J00178c24188
26907C439785A353572a084378a48325A323746i77198D80344J956493M73262J648599
26898D558698j324330K69775j275914b151147l714849L68501K164949C70316L528024
26889C898340J949394o00053k274604I55049l87352R61851C43214L45653b45501
26879A445488p02427b022154j311973R29681j149472j288124k519101O11574K912808
26870c836761J81449k40671j919021n5201J846837J225435n20180g69600A441383
26860A026727h13336i1914A058299K907261A941086E11467J013041J30204K48567
26851A903279g62145j204144a13203C242717A051173a732740j103636Q79698j4454
26842a971132j986313J136353d21324A53748i60483C40779O81684J328341E19603
26832a245779D22847J872308J483221A491417h15621m34378J09160A404134J03932
26823A508066p02548J242838m10442N7351n19435K10546f01390j160993d05864
26813A488313K310764K516264j404959A681499d87807I16866e69714n476745K63678
26804e782781K770005a381728b18132A40508K977025A454760a634978O81626A252747
26794B958897j300785a58686k610496P61367o76365Q10436h22256a46477c2691
26784e4263A396436R74747D73860i48496H31150h46659j857279j806335k676474
26775g186747K379722k45854j523567J132546b63902C950781L3174J15224j398203
26766B700976A222850i44913j654670q37875a233517N37917A183592j39552d4465
26756B39994K530410o30115b07070A540004K948087B06231d195116J055076j548103
26747d688143n54276N69735r20819n88591K137203E84164j42602h76662m5039
26738i21701K1103j94359C397818O40382j512804A044262d80865m6681A795605
26728A567107a393951k097925N04212k65933k378137j763821J539889b326904
26719C493138J227543m71978m13452m57770m4911O40257L381091J333080j690554
26710F996444q7794J575467m91460k480967k043116m92508R94427j707459i40842
26700a389980m70712e1042G19282G5484J220183J436378j239417n26500J03526
26691A069654c19864C2356c37913b137q19258j050738D6449L570359r23240q53243
26681A840325n53668i8458l112180J009765k83946L97404A679597Q91162j018615
26672A552144J3517J427420J970667J991241R7415k132838c41169B91861h10991
26662c368102J107787F67304K276559I05958b162122j28062j295166J585936j203664
26653c203078j124928a648546A981019J522458j638677j60390b418354R82428
26645a435926A096320L354381j438203k89978L703935R83947k935220A612294
26636G64270K035309J91567a264886l678272j524196j67883p03348o07749L488487
26627d457847J071111h34916A348949h5232j535304q53617a190365n66555e60499
26617e28085A376557P28665d44061M1950C71869a304657M03654K48304j650771
26608b303470L40438K26952o55844k763361m59638K768794Q5322J61533a154751
26598d394527q65540b368665C250276R22769n4512j156550C99156A56574K47991
26589D04565N07279J995676k42666o61818b208739j939035p50954b032325k98328
26580b330653J84732J050450e167l03700A205494b9799k796210k341934M80482
26571d687461j57099m38074N97914c03984D157372j520997a938854r98463B55857
26561a999636l498571K102534J563936j213702J23A215498J296202j147414J41173
26552A505459j0106P55633k05913L47743H60040k21750A26651N96644J260616
26543A983911K694003Q62534A479300k90589E20807c04127B98698L445752K776544
26534F520994j436134k236684C38651c09403e2486k701228k417658N8435h37234
26524I55085A20883c370647o79152d80994A312636a416805J13019J4883d0647
26514B879686J262721l96732A697986a013650l205055q9228I51056O01071a523212
26504b038933o9864p22293r72308K02718a024199A025475A7037a576898j058848
26495b635746B26715K31927A06581J235964M07304R89488N80594d3383k857865
26486b901248O79834j585846a788713B470433J337016j011918N09359N32399E91950
26476a705703P6949d27783B12192h34984k219288k972991O72898N72463n20748
26467e302650n363869j068826L643420K096730K870013R23835C48752B9007a868084
26457a478402l00339j24010E24723a03111B72093J22932f49976H89165N40836
26448A430001F60892B31350N41202K677985O75037j695720m10538M35075E21403
26438C52349c74816A259850a27365A430402J403089J600937n50439J77838j136336
26429B925491C29087d28081H0320O53189l37530D3915b219717k067288P22102
26420c564903a605624e58682k94889A259328l65245J052063J44531a676474l523839
26411e200313b515049E46541M792250L348904j151713l226686r38242I72184Q64647
26402A836831H01052J02361J616938j30637E28370a867432j798819n61078K94522
26393c932807i71087J57954j029079N03986A843959a760092j017084a234382c94256
26383h84619r90876f21252m50830A048884K770775A811955O82020p29809D47158
26373a275321J43834a07250o39501A056519J694445n19908O63545A324928n87877
26364G37051c187756j312658N21744k80196l331817L075643a588045O57399j629293
26355b559939j716491j668277j863416K385303D31850L118941J07046A588790
26346C661257A530808c367692R12066R73811k637875j345023J147822j118061
26338e434952q01610K599674Q90371a043679A906623K695969L292829j410332
26330F485089k574510j630968i74045n138982n90079K695343J22495l17125j843561
26321f045954l91756J002526a795101a29777j247764k763249k385294K002202
26313d523882J521389q81876R58594n59422L01738B003536M952606K07781A484788
26303b48292j560277j250151J391648c25559d0478j452423l8998q9447k008264
26294c629610k854034J587522b374795H39987J481691k75935R82481L14255j225339
26285B117140f02287b31174D882640J370436k290086K26426K944928l042853b3308
26275e4366B937409K14730j088209J347754K630496j200614r92214J698545p39598
26266D808299j519090j067457C86524J187931J378385d30768k494276O51998A413079
26256B449522A22222Q98143D57262k27655P77006J387705q98520b121056d89751
26246A899775P04520R62553q51504j211851d61091D26654b57158A712964K292338
26237D005302n09971A202465K165953L45109M46559m61879j76345O63235D70743
26227e99859j578200P33307A096285a557902m203268K430173J594280O88038A11211
26217a340367L8940B007381J643117j088347n84724E03514c495262l145051Q72287
26208e768026K805909f81409A336149c08439p93151A649302N01523G26660c326
26198A688621C27477d192182k993831j294102K042177P95489J225903J605973
26190b810573K8990F08165L0301B77005b017868P55048i8918k692923L13863j901063
26180d379041R75725E09824L669206j800492c46270p89587k25360j440529j377262
26171d179008J535846B84108J661542C67287B622i31256b33897A498115b067590
26161b631530L53279j04985L95243N28599L2993j358117J122776j21004O22696
26152a160050A385846K733217Q02898A276812c01453l67831B738321A131891E5318
26142D43559a442328p88725E18406J784587r2722H4311a664507l733874r07824
26133f306205J742452J297860l57396r10280p71153o05252J850959e18990j650954
26124b169944k561396R43229J541556f92736o96801e37926B281860K60376f30263
26114c098822j033842j88082i76392A881244A52677a73865C28699c031303c53477
26104D871268R74205k010610J525337J094701k431061j665848o20841E13354J322869
26095A836223l75304m40378j24848a71992j913204k519463j181088J259719j317721
26086e843749N11764J386445J232189J122201n29145m93517M48385R80223F64309
26076B075710K19432m10066i34768j455277J91638o86256J018923Q64251p08447
26067a709936j991542q0138a821807B463886K469975L974442j572258j412756
26059E923289r02054j09875k265651N35941K112701m32605Q21545M61474P19029
26050F863794j612460A852896J525710A564686a578822k052007g26197E46670
26041F05681J049926K064094L991F32291k42159J205927L61834n57856L61064
26032A761101o61542a234041b95552H80287h81298k057828N49872K74949r09276
26023c023581o10263k285648j561546L518198A961350J544912q25210o5180E13250
26013a371668j343251j127997a061571B264042N70198c03888l617219j957650
26005e878757J372678j756402j202271b902926i23068j137990l24665l96239a303980
25995b549564j48533J131784K61074l254364P868J090324j471456R31411a532910
25985a234689H17147L231646K499325j159443A312010g87253J06812A455264A34026
25975b687921a139585G70051a342175j719222k72814j691282K30180J822860O1949
25966b910504p17617B59916J491228Q41234K46447j235990C00013b753061j385772
25957d138833J259866a150338a85512G03325K464576J755478B270883j121775
25949A149108d9270o76520a45175A393121K378039M29390j355719I96791j16073
25940H80718L77398K083189j496259a490966k156096g12535J15372l27695k228898
25931c153756M47346p67272J297193J45037k084174a778036A810903N02912m90604
25922A823211R50114A348155h36672E41755c32359j141394L15832k03016o9921
25913a430858j977767k568634m99210m8721K434542a647998B57771L182913K025631
25904E466315K65033j774246k22244j263706F75444b018146O22195j163314k458554
25895e017819J359516O99522j2300k5951J475724K94659e01234A167546D46558
25885c107180j884233J891751a215466O02488j079784d72589A380997K841639
25877D222636K359760k757363j903888l47327J798819P16667M5955n02408P27422
25868D360273A933495b016613r63001k009503m449348K078023J889625j31835
25860e602652j88364L08489a698402g30196j559148j734251l350803P28700c106458
25850b972323p95891n47056a937431B162593P7514a269760l173862l551411J887979
25841f107054K598911n29935k09873b042827D97500k42200J790382A021317a141828
25831B0408a689979j064376Q43587b11430E28372O41151Q57180o76680k53976
25822A096047m38058P57893h577m660253k112775J24047n95082M73748K335741
25813d443151b095451j195054J467615A046424L470192j115413j666528g85180
25804c036452C58663K175147j185743l94296A93740j5273e26867j292808q01887
25795b621562e81995F57396A56542J62639Q13073E51212P06002a961504l397901
25786e359405Q57608b028340g65761B559074J173788A338065B29983M26244k72511
25777C83716b89620k61047o04612E87698J981068A142998a134513n16369H66647
25767A646515D43396b503944P30026p61845j440198k459144l034354j831151M81784
25758a0818826L151775Q55867Q96049L35263k489571j863616L622232J353426
25750d957401a468761A475058C17582f80967B051996C38761d835025k144053J550177
25741e428901K363135R84606j221622k213508j213254K080113b019494j76268
25733b195762k44593e77980A316571K013863I56361a883611r6648A80409e4028
25723b800336k66620f74265p1784k414089k1857j258051R95256J089689d344B454027
25712B315579l04932O71658I69227l64529j15652H8791G63b687208k644259N58709
25702d772758K252706G55754i39754G53628J327690p42916e53256j767968m80101
25693b801325J058499G0583b96105l347479j886226a768494b36998k285499K08366
25684b314131F21375J637947a699335j272084R78388A552311J284509q0055K93280
25675C050045l68681C70372e00406p70945M73521J59809A256113Q94559K47310
25666B397982J409857L74542j873362o70116E69370K10271A52354b91580A310128
25656A590572N96527a275p13032h7026C38729a874996o17768g46550j89804j779994
25646b716348j414520f34062B041067M43926J672302A145962b528951K74687e48145
25636a180757N49333J43552j652040k055134L47580L05445J487073N93102A431023
25626E086323q91359E51730a54286B178950J851683r54917J213361n80884r86094
25617B722099A224917L07510A83562b852674N48446P99538j48745o43098L38129
25608a958404e30520B649589Q32375A457525b15643j530235B74976h75668l71925
25599a247593A03020J047515J786503L383162K340399K447350o15442k412379
25591H080128l747120F72512b202069j332849a721940J59463l276473M3050J921978
25582b873922k56820R66293C17217L62903b884972m097176k109181j74675K633220
25573f632784L017120N02693k119260p0513J81225m355700K810282O58924J039024
25564d968989K290965N28544c34994H61188l13427a251113E07258O57648D41132
25554a672992l255151j727850j06523K71474J813464K017746J276766k659839
25546d042905k653625R11808K096227e56331K34761A939613P17060H70296j19747
25537G50549f42442A371849j81200J62652b85571j939275k039147r49249K591915
25528b621327e28124Q0142l70624E31877j43755g68660k47580H18364K627165
25519C445529M22114A068006d23507C296682K338994R10983Q08240l578553h38386
25509d342281j268007a981073r14475i34713C638586K056113k33118j527667n23015
25500C410899J574616l35094A994973i07484k01188l643849a391860B7511K6099
25491E3610J607419p74299M594473J961716l547198j838670C88342b340239J151587
25482a188652F60495P48286o34558J225566L598568j121566A587011N26139C82241
25472A957073K467500d448k933232k903562q73541J088105O27909a869223r59248
25463b828471k669288J268155a899274N08026m62618o58737R15443N38301J07388
25454i51471l87465q54732q49794j362330k49020a328041A201673j19746a811824
25444e383088k336181J08621J494485b874146B54522J491637O04334o70413a807366
25434b819100K28830N48313h11142J10832B457705J892442j020796p63771k15924
25425B349656L11067D10964a301937b32255D19734K254783o7708O26619r47064
25416B286364a475772o06456I3437a449162O789m74419j477466a364430B311384
25406C955877G94339f58902c3860B284290J555074J106031O50624j801056G23772
25396A913455J627616j035114D52714M87837L223177o07674o37367r788m64244
25387B444655J50326L813318m35452B955838r59960J332406A545614l2233o77401
25378H35980K552755A046809J86900K332423F46736A21730M39553R14850j81641
25369A294492a055124A97903L058951L470763k587818A89991J334439J564116
25361C088546L91317q94802J09584o0779q55457J144225Q89678m04368j545894
25352A862050d46268j621371j645218j642640K675439J001996D6546L29571b468329
25342b965039g98387a96737j304882d31845m17231k351623j367913j160276j591345
25333g320233J057560J240597J733698k267322k231242r55064L442059a332650
25324i65344I28889M972855j11118A893960G8216Q98446J245377L54955a622653
25314c178979L18265N73791J26269J068122A70777b999094a214562A946653m58143
25305A488510d26571j379584q02204J181962c68577H93041L88208D93120k1225
25296D71895K503426j391156a353569j794090J570361F34374b549591k428006
25288d977597m15647K163517g89477A802196E90041a545698n07478R95501Q5885
25279i71790m85892k008930p4283a312210C87005e74940c0366H64297O06217F67675
25268a583644j863442a304486d45568k101936m6571N26977D26398b149280M64530
25259a684750A091746N70656l03619K861364r79480j521070J594244l78996A97464
25249a395067f24314k793819O22302B3766L414399K59109k09647j513142a050863
25239b808240O74925h85267j24995k899255j242478J415426o5212n3027J318185
25230b536623j17025N87563j60846k006429J727364M80576I54169K357432j101931
25221B209670a372597l98986G30690O13109D96517J327370j6222c33822j031072
25212a364894A34458J768891k06233J493683n49054A34624J178329R08329A004416
25202A181259a627027k062460J823466K16052r07175j70945n35360n77448J512173
25193b328724A329798J916004l64276J107800m36197o59539o0749A229186a71541
25183d57852n17521d2004o3800A149256L063343n21690I88959K80262J441358
25174B710579l88999g13607n43814A321930J627089J389880j25965c36730j897613
25165b234343j9126C5205J427792a224349a43362B747850A199171K65599J189790
25156B654560o38054c15724j157669l98986O93094C03190K939456A242901I9562
25146a866301n10580j376384E18802n4172P19408c08527l603222k407061j10853
25137f429663R57762b624127A84354K609783A024293d116915p49959O02549K80811
25128c983514p30635J347401G79245K70367c16149p52430A16344J419698N57217
25119B093259H68241j96145J240978o93297b451224l707229k230814J150155K252174
25110d986938a761468P12506g3997B855554N80994a98230k974817J67407a205598
25100A628428F25523Q25616K848021K355786j573620A782087a502979j502727
25092c005706p59139J324990P34137c95689F28879c52821j413657r41849h00549
25082H71611J276288l79536o54228J288589k54832C14815b165311a036755B413666
25072F962338L253432m513817k511598q77263f04304k049804o77540a075550q57085
25063a932635k744979K159792a036504L84210j820853k797982j289056J245354
25055e314831K326855o31413a98046A898250C76074a810559l75805m82532R00960
25046a767936k62117g96550k49788l35832N57618B01119i06585A233698B92704
25036A340241J712929C16824a834841l154194l00822J2971a613738B45392J311555
25027A556947A53983g4757G30049L29353L72113J284014J419137j650257a566585
25017d915876q91939K414502J180088B75364b3147k517888k447744b335181d2722
25007E02831a166320L76528j567340k985705J670869f71024J66238m18464A945952
24997A897914J02553J123732p83902B54979a186195d71042k449241l847047J200934
24988e566396Q72988K158637B536158L438255K36786k731406J06107A677484D28168
24978A604121J890258j531907J693630m31564a250239H84837O16076b72123B42929
24968A353063H1146b782436J070211k75491a01221B494506O68382L91161o04818
24959B949231J700527q89128j212063n48478m50252r0171p5333B8565J728796
24950A757361o00749k15024b20583m157528p51717K226500i95111r75431A33034
24940D284286A059207a424392K08001j006017m37758f32069D077484J551832j134220
24931D495096j936290b740429g38753D134829L289712N18650j924218B431729
24922A35603Q30582f69359l254577j930356j821304M94583a621343B81334c006323
24912d575920J439262a515441J14577L94882k436227j87324N41167n61922a616538
24902b437375k656809M98001o18436J245786f15954G46917o7957J318090J992697
24893C989747P62139k055113e65379n69278N41079j554837k53522j891707j086491
24884e380135O73763P81336a383114I15372h97505q88108j187032q24422L7443
24875c759624M38602K1902k427031J291164b22672F10156c202082O86566c96962
24865c308533j022863J506118R98856k541363l761418K81053K453899l30033L751
24856e720533P21271J66411J845568f66696j002037p85495B00792p4017Q99225
24847A026000k54357a043298E76169Q62381a7246C76559L88393J923793J689586
24838D378331A431262o07214P83590j06856F45172J727244r5705Q64378K361201
24829E502290J069294o81079B796828a527991j092206k06109O41359K39654j002603
24820b947896J248477F74174l12072f0834j639281a06750A657683d22306m303170
24811d725476p5219a603313B312633K584734j161042C63816c405147J110920H70229
24801h2676l604483a337466j5068p50262N676j55454j004559J207209M11681k690331
24791d328574o95535J278840a181459a45452A816911Q23071Q59548N99466A802988
24781f60253l675997n38992M39442Q63954d39089C083781j530365M72392Q32713
24772B858521A049754e51489C99776K00818O93351K374933A449064E10445a705354
24762c396548l22377a546780F9693f47415A037292K752645o59649G22809a247337
24752a486665O88383G3566Q07429B11486a311198j322872J203008e82846k405938
24743b988784m364095j455703c111776C48726Q62122p3380a06333A733661M31805
24734B165466Q56214J294767j147187n20689a096701a63136B829836E99929a786668
24724a618458D56505J623373I52551k93190K547083J361412B127627a053014A242711
24714B212133I15624a652004M94701q26502n09008R15242j129591k094698j11098
24705d912958k31480K049819a091128c04544F81554J1842F3289f72231k273543
24696b945774q14798Q83744J282729F03104q1159b031773M53821I1089L646963
24687C738052o02696d41675j041083B583142J737358j82608l91863A722382a485491
24677H15261b91101O7112D039115K843025k48455A799165O147D65948a246777
24667i17462B087778K035925n00911A060673j99966L040527M8502N668L514941
24658G470345J256200p34427j022704j788134k28209j070916a124653k899160
24650d023813j253627Q25634d41843k152752R3360a68490D399585L484364K252168
24641A0136117j33672l774639k201725M60964r87304M53407R90499m75343j135060
24632C333244J321962P9574j0742J187345m62532J271731K64874k015432j584691
24623C385333n27575o64505L140142J86172j023242j429020m21174J264006J45487
24614D055624L19000K003958O81242J110325K158269j351185k760995j674112
24606D542126A895766a377674n77635R064j652730j203628a684637D136814L28038
24597D464852A997727J820384L162543q14409j35212K85042k971925H9644a00459
24587B959850J209474j711563o57996b57860j760078C2114K272706r38621a051213
24577c021495j300339m52271J338577D34490K937781j211996i73307d73246l74545
24568h47791k193651Q9448a98813B03566a422501j495183N69331a093803j090665
24559b184468m29837O94722j149174o23976b11059l13262k321419M18685M99923
24550a927132k550861k04556e13807G38891a697096k212976j906094J587070L83794
24541c845302J118341D35085K662309A96354b670725k686605N8738J268439L87265
24532c642888j702433r60030p26428J034305b681395H90220N36076J334502j104399
24523A656399b84095B767636J907949l03487n60096B08967N46393J94785a239155
24513d12226A258140c22243j203982C08836L448665j326197b93390r3475J44544
24504b42321A508684E51597J331475J596025G73571h69284n18369e91669J47976
24495d43693o10928d40025B69409J82504P7343d933455k238579K850033K44550
24486d077451j677339k72793K446383R2862r74449J296851a219478a40212j633260
24477a773472j850881M66826n6229k73304n921k830644m24383J907881p51505
24468e591632k439670N23344c584622A226984N33853a6235k25114B751171J721817
24459D472988M85456j48804r41792E79752c146329j5457d24095l57115h0670A155034
24448A756253m65199D27307B5029a105153d87182m12048G24099J325904b79795
24438f13938j570929M6185b91896E51304J155012K08187R7629F50104J291418
24429A941522p08523l85464g573j055124k18426c51512f8113j264190d65561A588872
24418A281340C82970J704317I10479a866157m11440O80726j303854Q9871k80367
24409c091221q37944h42652A667963B07100Q74287J3537h25848d00272j665298
24400b065570k498732R55029g75241A57419K91578K348641p59991k49398M66374
24391B254623j53364b177951j644294J584899M37690F32715b20384l171880k04564
24382c596828i50129B325377L37234E69878i46862j154610k483221J708154i45454
24372H40282P54127l45272J32435B83452N81122J522332h85999c45880o95726
24363a041606n23692g31968l156396l074245J385999a465199B570133L598769
24355F168902j30370j729341J226970M55131A688620c33139G09405J232848B77810
24345b700620j042717j28320J249057k115294j669157b271870J7062K44853B446259
24335B857519a681862k011134j981680n67456b290357A8729f6291r59281o92676
24326a718248A183979L028038A987476a57009H40224N49604l24437a747798j188020
24317b935818j149445L86021j054890m92989q54238J512030b27144A501173l43789
24308A157384k98966A47874K39070P68067K599206J406495j694057j680413e0395
24298c041879J198714A45719J274712E57505d06816F43993c79247j915030j980032
24289d274309M9960J649746P71565A757331J268781k89704J844856K149713k407641
24280D323336j958778l17029O45317r83003n09052m48349L53203K700542j859116
24271A947071J809310J288098j436042A361524J4012J376732N30429J412330j453701
24262C241326L03896j467349M3360J893057o01674C05518d759543k799433J159298
24253f399678P17841O25060J072994J962678o28686j236507r67502J794698A234059
24243B349050K30714J726862r7876j131091j376547D44732I084J977714M42976
24234B429774P69435d73244k362757A981380J515302A024066b830997j712616
24226d543613Q18023a111612B60180Q86315M7987a494304j79537k076761P38075
24217c012527b11926j235409f21838B812825K878438j928980A559653B16576J399307
24208A615883K98562p63869C57777L76725j51562A61897b94066c5664A616059
24198C466902J267153q48074j591371O1706M134640j702600j731827A489979l83309
24189A106670R21189k2013b3446k74044l020180l704914p40500b315127D91925
24179d99092j493795O79043k94079f2740D42834P58512O82957a06040I14387M90231
24169A404618Q09154a037134L78706D28677j21132b512903C138885L924330l16064
24160F747151k284967a08962l01562H08145a267760j622589Q84856k430339a747421
24150B538043j37197a439486G53778N001836k6465J876679Q05365l027514k441886
24141B941793H7028c522589k321282K121008J530493M53142l64306l33278K309
24132b434503R82870b03755C640390j171998b075019m83802L66289q0990M45565
24123a827957H38447P6798h88484D81914J08753i7951G61918a11055k67422F81864
24112E08116J901570k11107K931607M69963j036227B227403h98366h8905B511338
24102C892169J595207L76380n90534j731108N3960J482171m65957o29788a30652
24092b173438O24858A674815l57783a525565k973274J923703d57189A278190K152541
24083C430731k12303j023789o50145a060483l906469K240665O62758r72386j99564
24074c235479a264463c81177l86139j85630J35391H75257K037724L478249K248898
24065H640128j679505k825732j461542p80759g54114j771654g38332p73530k71270
24056a783132A097068m62714A5267N20113K059841M53484b87619j535615A82485
24046H7414b245658E3161J058544J041401m90901a788804p81591B41015a191203
24036d408426r01953J782721A187066N99461j56980M94388e73926A979373j09421
24027A869952b93208H15852k49647b267704F2291K256150H06132L28143J76625
24018A310900P39881J35862Q72519J241859p03384F20395a290024H81409K657223
24009C538632K212581k056236j048757p8489K450192K170843m81013k853979k39895
24000C613879n1846I76655e39600G03016f09723j96119j90311A037229J814218
23991B851447j116400G60624l58170b843723K52268h82145A425901J363838N71376
23982C361115j98161j543136b436268l99457P06472B560919Q19267A09763M90250
23973F00013K803226n20469D48690c03305j28562A940470F60955c41709B12004
23963g88850m37798B645525K939976j265026A064575O74728J048080J921415B345637
23953b501382p77063Q55301O61568r56694c87756B431324O17209j325774j216
23944A721543E3986a899384q88130a9173A746946a00865n411920O45798C21329
23934A946268J777339j207943d81714G51818J391794M06564H37504K393865K284066
23925E515435O83133j260390j18269J77388k290725D49150J044068N58722j33980
23916A917960L295574j140165H54298Q1339K409313j204407b233124j571253R20143
23907b884234J411268n83156Q07578B326318N67237j223408n96802g39346A27887
23897I58972A87425a351490J1050E90955N59234D92843c2463B993821K275907
23888E269728j953440B00721c4431j442479j83141I54989g00248k21902b02455
23878A87493N71320c058674j449788a815975h41011r18966l36143J020339a25262
23868A286845D14410J26472j76392L12605R43335c09424r16605A159840L728670
23859D888510N19194A672571n37200L407970J793449B552554j153145r6840h2160
23849A226129K25685E77468J584006J948758p77744c41508K4872G79659B80045
23839A555830L289040P6890j615906o17425K30479j044714b532878j159062j783075
23830e475015Q96301K030146J164551j267A647548J117158J347276n46847A420246
23820A491829J101529q55409K058005O35130E94365b240798j385050l50622R96270
23811b980200a413423b35503I66414K028119j97231A033308K036520l54648A277406
23801i93584C82665h07235j995998j10887k419704J343976J575671J109473C87565
23791A59304M25958f75560n42207p92145h84091k454764Q21357a080616o73121
23782a753737j89582j440058r05344Q79841J260425R89640m05050j866367q62398
23773d292630J939664g3671G81603K85728f65480F41035K065381M342961L117175
23764A0166552N0955k555769k877990A138082a441700r82882j593954m65998j15939
23755d600473a188351A628959E5896a655031b99760j670840j162405P73701l08676
23746b667980d20133A005774d03034B144631K136951K300265K8930C240068h89013
23736b510291e77750R8894j512472j810162j209853l417579j087558L221172K827012
23727c468296a90812A648570J813848R80026J804938j662209c136853n635982
23719h772835J01153L699656A684447i0072l443848l21821J136686j537185j109162
23710e365402J533234a23660A003336f35396J38356k907433j120834O330R66531
23701c552446J764986L67972M41526K79840F26669J584380J784442L15344J275577
23692E586412j535427c90424l294904Q71981B335292J59392n16943E87439b964217
23682e893537Q20608J001582P04421A641981Q87791A95240b653143k277334J333972
23673c596505J34452j42750J705369a68165C92333N34619L92842M1009L51876
23664A712679K543528j331423N7705P96886A412010D82876R49843J539954J148316
23655D120989j795150b132825j132625G16972K136474G54283L95048K879688m82450
23646C546569A064441f17478J15120f7343B832002P73696a272092n95744n96844
23637b464680L40458B14623J940913b077019l306150j309309K091509J481511
23629c119458j40655k4387l27825R48960B91338L923075J192246k066004C24911
23619a091265n36300I98016e65961k460581j421513J343985b32462m98408G16140
23609B462056A13625a621084H15717K64759L295853J337249k181956n66021k20590
23600B745011R6818Q89553j238766E6195b89867B58979K227177j037625E01639
23590H87965J900489j33539j170840K256097n2850j143762o6024D00599b036493
23580b126639j376986o02626A222087A7435b315024n35364J268669l83166m07344
23571b372229J134235D05354K195731J703751m39014K090463l29522J476031p90390
23562F312404J853222J742271k440202B278903F27763k39473c892216k171939
23554f064155O38167a181971A942926O06140J861309l00571A777013a20031B021177
23544h8872k309293f50429l91332p34685f31968o39807C97397N75297b11693E92701
23533H29523J635226K775311R20093k172187j817320m33354J194158J211219J773493
23524E916162A861904c36541J08866j542938l183290k69624K255077Q73644k624070
23515d718876j689241K578928B862064J335918I96405i27771q38124O16975F62767
23505a894332m668457j435276R84925b982362A5902f09852I37492J075158p96968
23496A215682J15253M51353j12364l80770L368783J149984A741358c699147M51447
23487c247700h37625K36956A590735L641011k487401j014414K31393J062158B19090
23477c690781q60162r80421b245842d11147o70408j690747a126378B528098j4450
23468B513648a011689b81770B244259Q23595k10814J887915q39057A444717J230203
23459B674920G34901e70319j768735K17866B429697L85982e77573k465974r80268
23450d023815j163728m09986J387287J984292A222864j14500d73152o39554c69840
23440A861601Q86595M27920K582895j542813J660119j538125l41620R71516B201359
23430A95548J037725j13846a295540j69229O57274p72736k166816J75524G89963
23420B820125o94432b32803k496758O02808E24203K500585o17677G71749a437801
23410a398199I98669Q28687q27642a230004I89614D9596M34990K47294J475706
23401B207586O20709O97923K831410j139601F53827i88594H11064R36359J070666
23392B818089F09190a635431l444916O42065a594361q44494M15019K75682M7832
23383a700322L87233k428609L9856j18110K59473a584380M89420k391028k290474
23374e776462o73913J495287a893808a38676F37715d66269M293B184682K424838
23365D609520A048051c22889l16562B723164M09119E68136a673000g45919b66612
23355d9665B940443O3551H35208a790916k194350j063504K232171J036037j031946
23346b812508i08269B201228o66438a457383p01224m4271a053194a87223D431025
23336E226201p95267j816827E3846K014611K508099j808755o1648J709367j717022
23327B698498K12741P678j183653C51290K08666M211561k225100N9205L165353
23318E770975K452470J456727k691869r57856j040427k219305j153738n4177L02024
23309A864824n20975i26838j955487J06869a143250D71922J567845J961432m97233
23300C503966B79642a745495b75010k50748k143152a245887B008233K607315K138157
23291F753705L14318j305686o61886K208197K82325C555231A520416D45415J704155
23282B149570J886897e7531B60550b43001m26904B0231J674976k9458i52674n25606
23272a478280M2438p98012J001139p96226b2143B272654K16603M05358J184340
23263D078955J730502M27186q10730j532090n57296M60242m38410r17801J806952
23254D247510K031716r30110B457772P86807J587885k57124L172513q09343B188279
23244b779432K67586o21519H65558L650820K417360j864664f10074j425235c31237
23234a261209Q1799N45892K46786k154401c67546A496356J33042A27716d97281
23224B01713b10827I39377m11580J417674J365403j038689G33171d006314l45837
23215d352151b50248A858844l54898j92861a348962l85425j672193n53580p34853
23206d695013K53627K018063M24959d30242l59513K09495F60785a193007k016584
23197c209591n03380a189432F28839g59058j061020g86531A273934P20649K481865
23188D476448J208183j332588j758892f99905j703309J042455c51667B674489
23179B278713j27491K504323N83745A391058b4174k0853k731075N52802B62040
23169B685032a296538m154984J405335J549162N56417E06593L960271B202061
23160A460717c93134p3662H51824J501350j139106g43410r654A29384Q92988a239607
23149c787749M96464h04000A428634L36807l21427a848347q21303F0652N43077
23140F03729a36833C3786L71445L234849j281312n88133c70505k799637o25131
23131c795273J507241L13026L08847P88795G37697J793235K372700K840380p30539
23122G013473k547136j279520A047883c117894p58812L56204N05414A386965R78018
23113B364983j164412e11233A347666o51397c11585A40661R49133a19980D2780
23103h51739p46779e75233a86892G09061J1232L80875P4064J272378N663543L109633
23093A1220786K63264k682454j857398B964084e44610J55762l98286J61438m45513
23084a071209A026510J51833c85612o86344A540038p8594Q52774m12098b64831
23074B37336f14023l163737J549676F41798K222863A324337a433396k120652c2981
23064C183421O46652j389053E46982J364695J120546J7805H37693a656952a74411
23054C02351J221156J345728J057993J168875j176560J222274B078398a354353
23045a343451L18043A401481G2925b354816k39254e43721A116758e40181B242152
23035D539523q05965j58075B8792f041377r89a564476k137777k870947K449832
23026d123368Q08642m24000J40393Q80934a067229j24574j332049j436142J794826
23017b165168A050755J343179j67811P63117L0440J182992j43726k010214o57132
23008A391600A96744b496840l13316a260474I60249K314739A077019b517153j641638
22999d158791O14593A172061J717785j34643a036693r86783m77135K54776O24870
22990a620965k318481n40704a403980n63723M9647j178409O53899a217714B36346
22980F46239F1565R06585B3554a216499j362882p88984g21591A277165f23736
22970a854436G5863L008693j48610p41606K98357r28815e65885n1159A368139
22960A883532K63941r08153J290680A53580b081198O84123c01943q04464B47570
22950a16698B742656L283168j10270j289261k051121L174927p4014k232212A679941
22940C261445P18390k75185H56098a535521n47559B324808L535335B408485i84087
22930C70982O05609a116561j464112j06125d42322B002350q77154b02428k740983
22921b943411J046875H98736J682255j238004h96873k011158O42417j126650p73191
22912d165455a449631o29334f38586K91582j882204J089025j93991j057605j79147
22903b570926I87174M159474j885473g11458j245723d14069E42910d97664k298682
22894b796346c22181C757806K7838O67151o92584P24550K32560j535029j028379
22885B153913I34761b309473k304143k59519J318352A108114H8706b386372j023844
22876c410216l070773c155241h18143j191219f66143m07581j988435p46518b99890
22866C221702l37196j176793J535459Q9o00022l78776J021377j30324c64758j179363
22856a544121A66679K150826J409705J311985k234073J837768L768749J240881
22848I652520B297349d783729q73071j328642J865622b476811m08433e66845A787438
22838H20234b144207n139098K041036P85803N44066J712598a05473o69520J88277
22829e86716j593387J012147G55900J508212O08777N89031q91791L23764I14179
22819b293556r28456O05759H45672L470918j58777p96572O63094l49926E24025
22809c739182j747482J704705M09046b52596E518995K035866l180215a898062
22800b966469M97530A408165K822690a19644C69536J924705I71852I1500N56465
22791F47965l13555J978751J867520J349630J155105q12332j906329n01588A465098
22781b180802d09616h2507B32077N07839F2322N92813L059151N55531B005837
22771A684867J105938j224012E24655a593292k1681o0736k668523j755647J737228
22762d362651N59200j05015J047835J031469E07444K803814l6190A422395R59163
22753B381558P94816A454507J493350j296693f6617j387786l63297j144449G94980
22743D405652j146893R39744J99621k049170A158488l21953b836052k570887K118769
22734c288170R76982M59551p38982l7594j667166r19648Q27119d23915A556689
22724B786094A279094h19922A934211K000320k31574q53969A107114a55916j086515
22715a242431L84558j71138j118303j303325r91590C45823J363771a227236l88573
22706a615809q31924l141026j713989K199801M2779k150530p48659j811204p1426
22697i841987J684468K917566J870069f43739C269381J674106k295181A07273
22688a073533L38133P9408G27348J623476k92818q33190m40599K58910L773761
22679D816888K067498B311099A58575e08169O7263B001954J424665p21440O06493
22670C311672R23570O74236B012476K09949J473377A435911J393227o89348O99345
22661B839135L4061A093047K945367K563030m78145j138727j46966k184480j003825
22652A649301o87416K835l06793f26644k858047n78261J735456d46614D37411
22642E83183a248862k070828J043636E27968L252680K068880j20979j923027A731191
22632a572602d40579B246982J428590j662833A80079J349051K48007i59082l293957
22623d253039a812626G49047j19493L53922A16326P0585J5725a192857p43514
22614a936371Q08225I92076l49874f09622l85441c81974J23710E08275B00557
22604H27351C90257i80380L38336j617025m56777j92630D65846Q59735k13199
22595A112382l35082c38865p91350E88193K702532L50863A417375A4699N66636
22586E81335J931061M21355N3588G77887R44011G54294a300844l276100N51737
22577d025207j144011K448093b45027A398757J102590o97413J01744K059072l84764
22568C579986K13274J362439l90023J295889K50474k951123A491667Q30551m13972
22559A908246G93275f50773j538549L15387k440287q8834a840262f98880j8349
22550g17229K05935G49012R03694E3090a121517M49210D23581K999208P62480
22541D185269j626666c02519C29107C2881c548226k926938b763745C7479b842040
22531f194561Q29761d33255A567180J04878h71890H61178K624795R18089l62782
22522D041280A1713i23665A353275L53932O62308o616g70105J13757A46516L08790
22512D55306K365779E54099e44010b46400K6778j072888k035982j836369k403330
22503g568191r84594J229720J950121K105308a014945c11785D69809K324934J151834
22494C946577o22295D43319c002147j970721J186091P92289J081331e50687A278167
22484d95941j407648P43477g7214E01157J817191K821496j976213B97115c76667
22474C95827J809177J311766j82155A533552o97604a906074b03435A76578a561656
22464A064762J205550k90567F36769a033544a31005F68974J189141K171556K916721
22455F946392k354982j798476d64771k567270J359221R8487N35297K04500n13465
22446a348001j389115p95171J03162J015915J147139D75762N22945k17378O57206
22437A438535b12349o60361J9121k518041k356916l48147b970355A14230J519791
22428A634021a432322j922494J321752f55192A43393N98018b481210j707591m28491
22419d617292j039341J634667Q3964K42396O88602j11816f88154B3380b432751
22409e351373j593444j958864O92030M18707K488789J966527J193491B558227
22400H519662j65462k792948C15748J313400N82023a496973j135382r57641N17528
22391c072468J483350g00196j421627j794905o6514g35165E03734a198495B546032
22381D311252j848410b121723l384618N27637K071663Q76267B569626L235276
22373E804902k112833A368428d92511r90939e09007D91120b39736l680855l229091
22364g149682k5193m322252p56660K744908J958597O20050j81531p39295M11068
22355g439990J009420a150508J46579l004729p04695J189850A50047K974509L316101
22346F440657J260771l329832j594547g92149m247109R40669J940504p4338e05452
22336E8265J43889c8217p24179F99015J977370K665118j024437A690934a144619
22326a089484j221227j428131b83424k01689r32592A507874n68886b732005j451567
22317d183572R60369H01213J473272K019301q20550A647450o42706H6360a181599
22307b971936k448152J377221O75218H00843K331343A519806H5576K780064K911489
22298E777129p4458J047423j113876B474346i02699C50195K716888O17660N81707
22289D266450A811241J92950G7438K45100J72333K0311A2047a709518o77986l444957
22279e832461l860379o79663L912345p38821J173889K058214J087300m17086j900145
22270e196807k187396q63861L021360J422666J503712J35231j881004J639495
22262b406604M41316A909559R35533K70631n93855b289920l739032J414679b016220
22252A596417R70751N77312C03157a713624j805774k286134O32531J848546j416391
22243d740846p35771K228202q1170c36192A918321N31138j045639n86525J015022
22234A832317J235685Q84694q15319a11727j616630r1664B918433M22921k064
22225C339290J449386A835728a02788o57431j306197P1754l55727J129801j216046
22216b436634j439282M55637J38683a253316C70450b68833L8415Q0353E53144
22206f75248o242517j180761K596833J64359K433218B620643J784523A283127
22197A922230J361616J091777k25830J07747j607615d711524l824688L364047
22189e172165a548290E95319c256161J228024e73804B513814A155429M16499J657349
22180C229277A135993B50390K063900q89377a89753l80866j597819k145998p85994
22171e100430J030465E74474J751837j041549L71234Q51957J146454L171736n50917
22162F275226k98967k231352I45644B08976J479663F5890J455702G32019a712584
22152A656705K530709j092891A224613c192638P47053e03082j217170M74030b18839
22142h09119j560390i08667B688115P16252F5490a63237k041471j313763Q26267
22133b692204a168748m06150p00414J71455D79382R94184d40635p97080k896391
22124d134106n71735J759534N98033j358566N14907Q56526b56164B243110J569542
22115C812652M66848a95769l249009J404826f46125j767721k1418a33764E52345
22105B152670J755371j096375P6070A094323J039636J075440J226509M7641o44528
22096C839021A718695d017573R06240J349183j617906k680676N55683n32296j52695
22087f190040Q70972K23002b329042B36888a426388m006364n009e07383B293225
22077A489408C03694a457756j284709m64285J601374K72473A859139E65537g194
22067i32031m035297k47056R32730k25812b179544d21742n92201r92976A258653
22057D633915B129437E12018e05404m52694o05192q20682D90118O16570m33115
22048F73573B17673q0032b653029o88141J87929b44999F90100i60942k43401F5753
22037C521204n83236a45136l528727j527200j388835K689842A167270K864974
22029D032244j405235j183772L13115n38427K057411K765198j197502j596074
22021C246958K92842K356342p25013A178951n82841a039614a75908A258858N22757
22012A781615J613549A257257a299992l11751A900179J796948P95187j798769
22004B693545j243634K216447K112280J384743K3714C166119Q58462K420379j515876
21995D929084N74913o22124A754097e42227j40315j412294O12240A09875i27956
21985d45418n40120a24752j040421j877442K30597Q82004j301318J79174J137191
21976a914967A983772l80235g65528A48699J204074J304383K977561M4980B089863
21966b203005e30090A436273a627053k322420J110159p40813c45026q28969l603165
21957d777160Q71352O82284r23164a526768A077693Q33954K230935q56777A336768
21947E76835l7878K34286L7689J750714M55333j248120L6546b34638o86205n47959
21937a468802m74000c92643A270579i46743j114364j337564j054503J224793j65100
21928c393481J500937A134110K00914n74804K23317Q69770K487981o80686I23137
21918a275463j409622j67776j179072Q15164J232872k989806k290377J191103
21910f072977j016557b073629C363482O30737C99572K0237Q80497g71047J47841
21901f23206j115573L7179j582631m3347a168409e09342G22496J941315n95959
21892B067852j012812L61787M14242a59119A90383J940432J836380L608206K424850
21883A0000251p46517l486477h51238q20883D29853f15054l096359R926o60802
21874d362289q40309k433442J32331c668557c21540A000522J41583h83218l26693
21865a209911c18500A10382J25518a430920H6617K510375Q45246m25847J316784
21856D333175q1434j914757g33801j309604O10559f25058B443394K809794j38970
21847E114218B147187q79536a265969j257900m04995J81342a229034N85482K21754
21838d21798a13815E69886J373374J032778p40742p59088O67187l90242d49037
21828e41175l23783j932011F08457K012728K92726N76930A502602J433282O34237
21819C570121o18015Q17896A399883b571564l51982q0303n87471j07800a724557
21809i04755c62483j09812B559942l62037a963578j761268j825998N54142a953956
21799b275485k758201J367761R57203L16657A510055K76877J056010A396476a554951
21789b494125q8663j66432h48066A283765l15594L896284o0167p9357j049383
21780C675548L41590A398325e48362N5600l151588J2615a177635j098921l575262
21771e851818J064308J732551i04010B28066a531960j842745J496720B060058
21762C482254j253266E19849J220535m34844e00230l83270B51077a83885l99774
21753e83659j311931g51475q20282M2911A575971L366975J617943j799629G90457
21743A119624P23664J992050l91256R76478J808643j317059G15213c841514J098600
21734b742914e27311A276855e71305j52017n97566n39867O55338N21118j957015
21725b641314k741837J369268a281857G73680h61885a29339G32698R64781Q16345
21716B513824K483019K656562J019265Q82902p48972m185500i95395J43164j650382
21707b502613n83753a037039p24387H36338Q84258m24385J097532J5777j4331
21698B395189m51233O64050P32287A309978J80163Q62365B85939d69973m18181
21689h88154b66929A822507K246286N76124A033535a586955B2947J401236a334050
21679E48709J660130H97361k80304N17797k48163M22922C46230a878956o97114
21670b576070i99127D50712e14605o34170A64459a75599A252191a688634k332250
21661d020884N15637P18568C50009J687680N72773O07859q09656A193243a013367
21651c437973a505743A625760r2736n96191i90092A90726M90168d17630B20095
21641b90120C68408a353799k641631a255317c15844j905n57850A346135F20482
21631b658978J056755C730758J761221k456219q96145j010634m6141D92466M022851
21622D515317J646439k365158j038178m06870J39207N51425A361843J620511K479273
21613E461627k396717I25014l761A02849a865501k363176Q77001h79081A142632
21603I58328I367N20991B970c183098j98246a268568B404049K564005r85966A83109
21592b827843o75025O67324R06193B830123j174814J82495d41266k390433k507314
21583e339013j138397K100947h33652L54523B3239O3991h0460B016005A4679a585841
21572d102328j616263J057719k859712N4826c354689G8992d2011m79018D22486
21562c18309A068559K79376a000915j760579J26517g08988A391903A35448K005380
21553B140828G36975J065590k09721l41507C21970I5343J618688j41469a841423
21543b218412m38045r91350J125906A688666M568934l04287J67304k343735j086751
21534B690131r82039J861376J868895j811945A735900D2342a3350I77102J902639
21525B879741K451006J249777o64608L04564J981560j373331C118726G91860C92895
21515E78387K165567A289535b385741l982472k748486K173855c310172a212868
21506a071765c82347G78018g34644F9781M33664a238349j48556C277230A082486
21496g1755A229845k01666a682771n12410h8165l42450a24894A421330L253031
21487D674361J554394A670867a842579j381410M5272g50629A06891L08939a002629
21477a290427e40366j080044j901221k894837j188869j004995K48366K597170
21469e764796i85295I61707c979496l941012J312526c203810a391708C30414h45433
21459B005720l19314J041108A284759k02089J92483c50397j398372k58576P92451
21450a214894E16849J393255J653199R55386k095473C70804a268034B76583L187725
21441C464308O23747O95776J517107J63412o03591p10869K517453J391082k950860
21432F107565B098190O37661r21069q66281f84527a26068j793267j185016L64182
21423b740169M57152o72053J28569N44780g80185B420963K775200N90834B754347
21413B394743A170389g66109j038099j175276j789059j416160J900297J086100
21405c198306R98151b04728h8914j189722J95398C228298J948179j346839l49016
21396C480622j428298l08155n36318a528554B71975K137561L661838K016175j179007
21387F908542k597737j57938j322135r5361P4728j358477b22912B444528J617164
21378D061692J911829K12727k842254n09237A06293b471809P0a133227A46719
21368I22872c350980l76134a754495H8432d90814k949279N05306r14784K51592
21359c597979a131518J34782r6603D63473J229287k63309J444005n70613I54432
21349a560244k453431Q58758O31501e52126j295047j422333M44690B186572J230760
21340C417332A52100b095771j45823f85570A78059L3206L74405K027236P08503
21331C321409j228295K97988K963931M30778A788465b332378j165145J376119
21323b121404k17452P0047p4390A424620L026123q27737o84649k80565n11176
21314B146616M28270K521978P31385k164689j321898B46323a057014m32216j004382
21305b493612k599643K102239k31965M47953j08050J5020K58358M80189M76966
21296a652545Q13951F69319a107332a90613E103742r75192j052524L31099A475905
21286D797c309127a517348K52060E34735K776481j086507c098668n17395H02030
21276A497308C94190J12558a086901k984157k103177J101166P33208J561414a040641
21266B239760J806257M10215J515841Q99682k929222i1198k180917m98012r81217
21257c751344k95557J414457n54899q31913a687031k378394j588020q81645J402500
21248e132590k52869K277584C79075J463888J632289N72147j7091R80862j982571
21239C028599E18531J02917J067187J712163K433229j979927F51091f4901C515881
21229E634489j292401l53751j091905A183489b31297j307550j89913A834582J825034
21220C659616j112532j090893B52716a843880r9445L18976k533176R40053F24965
21210B807049l93504I77163L85178L218190L555000Q43362p52164o48173O7541
21201G646097l14362Q41244j622740k430883A259394P34243J232074J388260P65330
21192E379301j231896A386404b72523B0551f8688m117906l671345J502348b527957
21182b001034j405484j654802j778723m88348K185968b097576a96179l78949k730275
21173c305403a227383A42908J828432K157537j844334G35772L18510J191551Q63065
21164C108898I86807c215002j59010f13161A510108J764263d1216j99581k74639
21155e15436j348866j035344a295247l76188k105194r69640J983676E4069J43645
21146A97714K622509J077990r92717A152372N7920K753807L395018J96529j587539
21137E968107k290714D43413K79887J535393j057297k91829B87023a268254k232345
21128c500599J324308h44115A297325c79518j904454k69237O50427b02835C28102
21118F4946b045617o57871a058471l725583l735186k027538o61905J982384J756598
21109g469701K422867a787456a57129o53389l153501O40064R15500M13933r40040
21100b934562L62492E7381K40511c192061k695349k038876J813562b991084j130998
21091d122082R19135J580111N67532m24307k426118o69776J472484o04379L50414
21082c356986A73939l1853c89832k976636q02585a296451d90567A56943d05502
21072A69103K88289K681678H85719a427460j540131P77511E5586e73583k712727
21063c286310k004400j159190o84384M78254L180911J193581j06894Q97183J64756
21054a326493j240034m64843k71174j654178k7439O32810J522174B746785K422673
21045E169458j447539f1780l435731q80079K68143J796987q15152a076338d90370
21035a68328A018061N9831a46616q87727B05953b88758j304204k639354l392307
21026g624623K870332k363187M51099K656140J264478J041911P82414A593709
21017B175163o3655D62072J390187J128111G41008p4070d85457j616063o31465
21008b732985j575340J15201J329933a257829B005291K479980A765648A59241
20999C337910J81657c82181B8198O54485a74836I40869N41842J827948P81337
20990D091996A200550d18120P0347C327604K18462j174879o54731K382178N49197
20981D647831O47298m57518j545333E40230k64575K646665o06401a876815j078231
20972b955046k27795J303598N16808J5966d13391A207372J49493A87594a936983
20962d583472Q70184a818773l691883J286031a853509d94544K0498p91787j18091
20953a383924j604472l252805Q15345J051236J330493L26917J30684q24467o0481
20944c471474o99827l927644M50824j67432L131002J162179R55909M74930o68088
20935b759621a315037H47485L449528j196992p6661K448837l44998J561263K303148
20926H991610l966253B307406A051974f74539k100061Q16490g78739A921459M551715
20917F473174p40694o12468J080723j55934B982214A192774J502206q56616k69805
20908A568559O95205J05444L360842L351965l698377k552560o38721h46227n92394
20899a438621a24479j330715k045824R62198C157183L764865Q41386p93377P9051
20890G049108j373297k734466L741q48863J890507j005876b249195j29845J126556
20881a252484A030756m22592a330785q02049j606969a774222A360439K86946B28575
20871a095786J58444k766338l267584N56129J512131J833405a039106r80682j0156
20862b029944a36598C594204K45686C27731c366722p85272j873044m88788K914968
20853c598858e31754D117187k55396c95581k57141m152912P42317a293776A269229
20843E353860k06048B252499Q94757M051117K04274C132569j228213M19792G52683
20833B27815J22277l8380M27406a056845o46845B534113J591877j523488o94777
20824A907725N4369p45208a236477A18457e62106j071607K09030A844052P99802
20815B643854C86740P26170Q47442O00191m38461e90023j658923j197333r67642
20806d413921J687511b29531f9688n42928n25834I26081L027234J010050A726858
20796I58603J30540K071226A033759a484847f10197B564112j12586F13587r0094
20787E23493b051733k002615q07277K200068D85331J019123C914J67034K249521
20778B420469o76504a758303k237731r17692j360330J435362f00831m04934j288028
20769b293793i15948j426303k344523J686340J285420N55773j947032B32346M008430
20760D240776n64484K5866j553290n33555R04474K25488K249233k8285j523926
20751C442297j74828j575973p52259J509760N032716J481269j901656j611500
20743E449826j243219M42485j933006e72437j151150A783146Q03503e36770k342031
20734b878801j097276n14520r71433J126491p79561N76527J617561A183769L476155
20725D659924k07118N6591j593984r9699A145740f33847j159833L66981m9089
20716a475788j018420g64536A408609J961648A466747d84388H23539m02464a597220
20706d352464j131622O39212a151307b11394j051131I67465O50996J061650J472182
20697D152293K656117J33514B961459j441439p56175b74810l04351G70957P84917
20688A555874o08691J020546q11284A1260L00936K96428f67219j801110O66837
20679a801492H6690L600705M854504k574426e31006m63880B36283a136981K30034
20670i06947l286876l485007K729862b177493a88633D05323g26036k698155R55131
20661b469060j081113j439991J343589J312694r49305j306683l48742b130104
20652a008963j235622l116649K649653a122550l13743j803123n97960k87663l195217
20643g320256j790984J226039c360341A448035J392154o27504I97266j47642a552420
20633a567667M28103F81893a421873k164972n92673J067007L19920b28253C816725
20623D822137A170577a29568A11588P88190J271013R19148p11530D05075N7441
20614D62516K383334K16901A074748a021346j080530J007240M76730D52664f2339
20604F87424Q73200J158194q81988K13204K012818o40858r1973J049413K159119
20595F538553R55332j851864O4959Q4303j934250A830978C63973a509611l18190
20586a827801G38333J968737c75339r75321m64036j67199j624281k7838J328303
20577b305711B74043K571234J328784A507864F82196J004129k82128J886767Q49206
20568D140170A566748m57510K082559J796863J055543j007379O06030j306802
20560D336052a056858j092840F33661N05082J083948A050743b105797K9102c44828
20550a446870k242301n48561g13686A745479m11984K319I3653d68651j526328
20541a994979K30765B30607K419407P90831A710603f15589o54102H10033c571586
20531f204158l52894b252783e68894j110957J35076B59915L206310I69903b502277
20521a753426j95395M92581r41435j636081L70954J22231k184261j84421N74180
20512e335073K092448J28575e41919B020434q45262c055348k654337J899257K46976
20503c563452J337104A731006l79591K14979K522021P55331A087085Q82377n86659
20494A382803N28247K275622N75136A100581b251162P9405c00965A422757i14144
20484b148676A457449K353966j103005n51766R78747J211985K859614L10211B755500
20474a467310q64247K80600i24517o09482b36543j38036l0318D26225L051859
20465C478084P12681a637732k965106k969193j069027L804861a185334A884017
20456A607000L0813O49455M46788A107523a71520B558755J888623K83103A867296
20446A904253m63353a513654j479092j219105J860605g27426j341116Q78371B258534
20436A057462B4877b086904j127542J242041F52260c27797r4096k397146l327075
20427f146114J113401J213144m09299N08209i7389H4505g92801A482832L200600
20418D683432J726945k677347F99123a204500j200552e09989A661967h72426c35591
20408C26847b467827O70273k461355k202395P36778N23511J261110a442053E86766
20398H24480j46324h72815M8927l17762j40520K14502j153923K57411O38940j381593
20388b706833k479940M9967b549592A119173J447703J641481j914348b5450k60696
20379b86146A013527j78933L782006K062207C291147a280840j677063j030403
20371c988306J372114C9830J88867A7441a873278j800251J532116A181306q950
20362A172356M75577J716323j045192F40527K727510K37928r72341j094171e40053
20352F54984J873199j010120a198115k970849j36640P44749a117347o9460r60930
20343b147737k037845k84416e91354C836465p14660f89325j563673f35640B206826
20333A845045N7459F72204c123409d31360G85441k35909J412708j37529j26758
20324A697953l31685J451404J311625H60297d27658k025528l824180J297172L13640
20315d666554l95044O75003K153837I9939O59916J179955J306450Q78062K039267
20306F163589k219557A581702B95710J116230J85288j89518K984431j398969R35799
20297C928971j251624k76181l0967F91951M199048J606051B444483a030696c26890
20287h52247k69321j196077q30075j967968j442372O40099K899033a214989L4870
20278a180119N11547j285475m80881O31919p45723k801005k010919J749676K164505
20269c446475Q098k698570p12324K880743c17695C635113L28584m04147J404066
20260D963616Q0417B520624I73457d70033r88649C9854M74705J947772k7212a288803
20249b663434K64243i54726C051765j312204F14629J548698K418218l06524J03834
20240D378855Q31985k226048N40760j47363O6062Q0558K050225K192410K6579
20231G794023k067632B538314P17431J403275J270996k404971N31542K318310
20223F374897Q7618p59113n98886B191656a463048j395861a170654c28782j077874
20214a406656k040669P58387c93149I47594h20506k853341j335217i95561A749686
20204A63999c029371a394857A51813J49106Q1368M11587b4867j848623j406988
20195c280478a163969C923015K122647j253984C52977A23792c20003m57838a2835
20185A367536b71383G74917M451265K818716k492464j500707P77669P1407J427642
20176F328445N39034C112078H02212M69835J413777J571904K016105j530208j560087
20167C183538K624007N36186A025011d094608k85582A247401m09481c475719j269576
20158d745295N89958a338656L90559A991219E21245j53303J005382A18767d51504
20148A219303L47176l20876l843J830349n28644a10389k321582K76539h28151
20138e89486A144508J806961J15933L350916M66428j803134j796565n27729F22551
20128A269609L140954j49091p12657A538252p62889a300388k61326j283177p42143
20119c587034J252938a31625H14397d65675K6717C175178Q15324A494923a748848
20109b752487L91321Q99588j618786k265478b201932E83039k08581b44565l064044
20100c308609c97923C144935J527187r11187A37064i5769D33729n1862f99139
20090A617321R72954L8292I60995c00362k80679l0452k81176A638a043678I71272
20079A476793o54386J921089J328254j08409F40494b397657j428729a801717K28022
20070a573695k860801j198992J975249g88708C89067c074402l337285J778353
20062d633334Q07560R04245a293528a03755D34747a939796k725111J730089P45211
20053b189607j26039E06752a265531k157478Q25930K57844N55284M79888L37290
20044i66773p81816K69342k068291l239891Q64847K022107a206445A907553f79335
20034c04112B325464p54319g12755q24462E30779N84423K684762L48021j242337
20025B905648A266267c45118j708103L09055d26362A853469L693202j409432a343347
20015d392152J636567a374287m87195f28152j051614k20125k08177D09229b91451
20005b491054j88287b50671H79458J412177J998283l37669J308987l8659F42365
19995i20242H55311a600517j830156j691320q48705k253902j836539K500942b473708
19985D208257L77237A479315b905355g56033A275743c75778j910436q17265c69169
19975B53118A2448K403800j00012O70379A333218A38977a635516P57091B066741
19965i758o87542l08527j756437B39094O49249J14176J846837R08490l57768Q33557
19955D233635o04918j119771p63h56257k332504i99198B762090J557945r12191
19946C407844l8843K564234j09887O28318k126515D05855a492276l81703P57300
19937a116679q40066l93878N35750K43904D070843J558852q47391q91415O40038
19928D530927j056493q52490q90047f76706q43867j640498i15764B011249J016261
19919C027510A470454a169316j875784L60851i22566C513419P13943j312758m27368
19910B487236J528304k9940m82076m7843q3962k85066K58302O73464j272065b56258
19899b446387k804457K89605J857122j895368K49566j674591M68592J707154b072128
19889a121528G94127K313597j525395a601648j291848K67602A60399K411264n45228
19880B026435N17717k35456R95218O41597q26681j075842r12241i5326k379209
19871b474535p79452L30305k174987b543240B72554N48055K325019r42954b049369
19861c736106g29464l642233l56492j13634l00652a015368k103814j140578J427852
19852b831908a067590j88756b43145E97597Q55197Q59414G53971c457971j180827
19843d638798k005193j364246K288964b606116o851J242644c45804l063971J063172
19834b346603d21492A009105g39516k527558R98559I63253a146986k273057a221914
19824C657188Q81299j312394J67581j423860a553733o17887j976324R25759J440712
19815a781473J54748H08723J946278p73808K17077G21555M3225Q54040b16335
19805a059687B795127L054075Q43356n39974k222868j171891n3266l19571g80853
19795B52276O50993J740994l51154G39549K043158M073655J594909k756909k086724
19786C607638L66705j81648j417711I82615J795999K360041B485136f58853j46077
19777h04930m59565r15004l031593J168125A431942K273398C11268J63207b732139
19767b046644r97313k369530o96854J095995J230962j20901J534487e36125a67457
19757a9946j277179k113174j400776K207583A785897H91332b851712j732776a232846
19747A844644K814913K052144o78870B958097A283242j3959J301526K187433J355102
19738F113344q55909B263782J07741m92137k82782F64402b273005O70444A453285
19728A973222O33964O05943a882359m398743J71297b610408J90532n85600E82487
19718B147597L30367P83876j620822c161820r65978l053210m39700J284920O03863
19709e731925b240898j141950p55545l19639J944707a007421j156647k237043
19701d401111J52968J960119g15708p08236f56763j408784l184264R89802I64955
19691B014462e05944j55972J00509D63999M87838l42496A61019a218506k915229
19682d133735r48713P65968J640379k610285j731728K18076J943287F27944J374216
19673B002160G90750b80080B413309J727278K53416j867579J62353G53454J566826
19664B320280A046744B99817J75637b205288l342554b661299d1167G71675L763341
19655D535016R40418M54207o88484B14724c388396Q86544K00253J9078J72871
19646b109650a046232K75504j681853R59097N09814j391394A74113J702634B68845
19636a70335A085119J94215b903758k547078R46890J211516J176280K59895L23814
19627a532441b18463C980072J949045j251165B301878H44162L191667o42418A119439
19617h78589k86625a10278B2066b226328r8718G72759K695131c22031k802010
19608c124041j506202k268279j766602l26723K097812K619628l08430J555158
19600c027679g51016a47667d4590r02545j874999g08645C031045M839922J779214
19591I650181j022938k141942B441081B65639J47005c84366l748258P91149C103999
19581G086791l271138p55261F99587b017885b25867B343644O11034k90050J03509
19572B768137r9575F4744a774523g97870j301158k278967m76354k42807q60317
19563e957473K926198Q31501j000602j606562l754838n23256K885726N20086M86685
19554e192535b329639A854697K70775P90426m84070b032622o44508P95046k74380
19545b156464j640989a043253A675812a553687j782890o02074k8639E15987K840567
19536C356554l06845b8595G19137L360946j090777K75631E67495M85397K612255
19527C665147j48136j519487f07372k413518J136438j41203B52489K383254I0102
19517C41387J53914L54843l56921b708493j013770j526133r80065K610703J040005
19508b577753M98169q85371M68318R7001J11912j74910I65532K461106M57560
19499C884198j362211j041975J135785J031317N78101J428809n22761A375608
19490B737632K721281k661823j159672C68291a103496C53276L730141R18792j216580
19481C785629O42084r74704j96362C50407J435825N55642A012645L020243L488303
19472G521191J260639J971442N95145j573779k024241k725903j192047J29925
19464C962372A93982b859781A22754K119277M47919i49397j467848o0084a230152
19454h20967j374514g67142A909117o28457n49305a136379k86701H48700K286770
19445C135470j008488a240283j113854J67060k408459K84497a962461D97105P44595
19436A241700K489144J81799j545950A155201K763393A760794b070605k90803
19428b361408j389888k78703J563160p51862k08577l46602j94440j17369l12917
19419d398606m90065K332840B392887L645639n73322k308005q28730G783b46178
19409a330849k905608J757479H25608F3486a475078o15482p42944A37823g54705
19399i77458A899140J555159A235023c86982r78855K48354A804630k0907d36008
19389a29034k810035k824964j191713J65556a890052g99651l123387J920769A74329
19379a664285k184811l609584j942405L832606J957080P99413f84596j857427
19371b542023j783391K008686C69807J9157a800375j642438J303225b46169A224349
19361E06767K271639O14241k26563o9335A232483M38749H19928M58397f03734
19351b28814o67649A088470Q58408a034242k041094o25512O83182J8058N16651
19342b482957j489729p62642O32101j616795K102924i92808K90615O6619B306196
19332D437526k084912i40012j460937j243470k909787J975953d44398A053540
19323A221375M26985m47554E97651f84664l10952k92448K64051i1262E48792a30274
19312C65672f3860k972632l436121j265244L286645J768304M17522m9059R38538
19303a375907j364039o36581K84322L41648a268547G20193Q59136K804731j896414
19294B487646c10922F70124R76193m96732a373720r11724j251128R10332F76283
19284A699810j08541O86563P58248K95215b016756k074365J674361C447440K545387
19275E992827B687342c81697E19094J098355B93168b240755k250604j985019K537567
19266c938811j334836n94818N46951J539775k231346j87176J225960J207872M57925
19257c308504i88233j9398d9823I84766g43773B214137M375467j749663A383147
19247B240604p50634A60460O89810C1891a320568l96178j72011J90320A888919
19237B276580H26419J540267o39307q30705b016770k711832k389542m15759J904094
19228e629809K721837M62573e47969n23155j813559a045923A1805R1675J163148
19219A266628o11512b11754A183029A43792h6802G95362h368B918077K417742
19210E335819j322733r45258H73527m35144O10055M95603b56394A327606L133353
19201D460959F56037a924574i38376j855059J041340j046378O96156i17421m87578
19192a404999l14443e45666g8473C80517J344505Q72460J791909B193349A36086
19182a104696H05282f9955p65180k23572k368554j585970L01508R90441a94972
19172i89552j067026R45930j66630j89063R614A487933j85814B88777d57785j868434
19162b326219n91279C2639J853432J196933j232864d0884k612284k118022j54527
19153d925717J703086a020850o76941l199148j287340J383632a780896c7814o09080
19144f46894A9762O61781N80715J036607k19844h66026j744989Q30260b20879
19134C914865R77887n10109J044039k584895J533266J256074j599558F93511g88047
19124b690942h8900I66124i92j611344r70388n14229J421717e56227j73788n6567
19114g86582l72928K66137l712799N05107b63785k36241q34362J97731n37510
19105a674167M76207J85007q16155O61105A145960i9717j477332E09545L70530
19096H80075L21083J90551m93286C58225b561878l355399M94224K184704A44346
19086D940757P50071k818110A214333f29487k49211p6511o95762f07705B125950
19076C492239A51726c065250N52215j427612j732794K029522j295583p20534K154450
19067c505586O23330m27268J084134A976830O57374j134441J357601A056929O30885
19058A687814E57153a43071A068654P12628A29634R27770J825116A106031b01464
19048I31351n5402K271723L986893K311265k455039k673327j395583j58558j312356
19039A450967e41891m40954L66695a22721A0312J173863O00771E21834B9457a423664
19028H48262K57216K101695j07981j497147i45810E08232N90514a087315k173853
19019c261168j279198N71880j314109l316479k94739n23065L016017b424786K75948
19010b148838N83791e72605r96670k3564j08717A022342P06031G66535L73409
19001A139944K102581n95564F79503i28404j771935l65271J435807f18767r55247
18992a574014b91984o52002A253437L79230C83922K29073b38133n733084M9693
18983e921524A18745M17304R03513j76285E29520a438947o51774k152418L17203
18974c925936J165382O3796o8193a092048B168403K703305O06842p83201B231970
18964D008778J446426k348395l79281L68199H70706J808785q9435c88860a54634
18954D59269a393471L42119b88371A074584m07400J297034K89385R91803p25915
18945B519491H30720C86561i52209k927333j111153J466063a230626a97845C59194
18935B237913J096564L13581k90155r29120n66445b73756k143716N59211j824950
18926c683211m41488J464789l163352j971678J151674K049585K33459J562844
18918b797378r03910J365378A737410M29137J49462l12007d05628j81760j121678
18909a709066K71650e78470I88522J524563a04392j247681A382330L560354J034373
18900E977057k057919j11459n91096D32567b562757j74884a75947p373C56630
18890A348744D45280Q90240E93213A83576J869961J642829B35337d6488F28659
18880A129740g38080j953410J029763A364306J950191P82521Q36176A651080b60736
18870a123690B93021K412894J500045l40288j315873A264849B19975O23004J240739
18861B083718g60368A238192M315281k021472C27346N51025b283423k265450P19248
18852c829625O35656j234307Q28583J298731a19800C146390O88950J140140j078536
18843C896944n08327k58739h15186k997587a106727C135650O51269E93329c105476
18833a701480I36372f94738q83907A358160K893389j002103J425489N44040k189862
18824C029113D96684a56221j13059o76025j243734k998861m526703M030195A41050
18814A123042L89728m47115l73592J043882C68789d97044D010207K111868k834063
18805C288012h7906l378133k078496a099267B284339J210487K473056j42468k07635
18796E617779l61394O6431j101886J585399K715880m184801k073093l85060n27167
18787A352088a229573k393464J620315C051900J228703j067291e95990m103148
18779d699138J603023j413098n633445k68912O79820d502384i63016j126500P22317
18770a367199m18655m388322L03548b895269a3159A149484N90842h97257o85158
18761a582415c04944a23600A420598J531375j065292q38170L26562a000037k893094
18752c893131O08009j29355k17982P1907a402942k69142q25989L82545d19509
18742h26672j113713l218931K076884a249208j420316J175214J13588k572956
18734c953678J25256h79827j033785j209654N45452P46022Q39753A033056K16459
18725A249515J95757a66533k5030m62680p90717Q0851c8260B12571c29313G6160
18714h58871o991l16637A228688J102584e83616j018903j432851n41792J013468
18705b563694J232617f00924j17676B183298L43484O65705j324871G9086K436577
18696B515663O55399I03357J68690h11061k244748m53831P5898J094249f31726
18686a862461K48451P15822p98733j076831l80875f60358N1248j263745q46307
18677b719162O18818L71368j229967j97016J352767g46011A818861J758581A508606
18667e46490b00697A372036J929703J461031O06175K10760K019443j832372d58646
18657d724375J586604E59250J782589m75973a45365A098655K158565K558746o52880
18648E163086k403157G50459a725078i8013C119011j32062h49070m297879k003317
18639g150266K634480K008385L08681l35539j562689a917970k094064P85816J390773
18630a835445A505903L485779n889A084950A62619J010614K57414L3015B37206
18620c60466A509134m49926f72834j7151n45483M1079A180692J761144l27846
18611B613990C21966a220625J75978K42188p50215g60689A769154E59575g44157
18601a551051d28376A50408a711332H19703O04646o37745B26205K00799J429451
18592A856455B05963R62783K558717K253769j921777f64813k871234r85997J424034
18583c098010A282156M49979H35740M57699K147267K2741D79610g30504j479305
18574b209809o24568g7206D395930M15036A65260a604688C51005L625632j104493
18565B872144l53282J795483K974832r0592k012029O56891j782916C02902b451332
18555b007517K17522M93921e87859A167117J702953l64641c45483m276029M34542
18546d186970B06488K956386r91181k8034n95904G07271K111196L012945Q74819
18537F706231j52116j521485p45734R83656k037390e55339l432453k025752j742580
18528g756124J582979i20492C544761J802786O402J103102O74373l242710a332847
18518a469682K56607B37324c32972D892J260026J239893L32183B53127K57166
18509E10293i28813k624733m53247J563300J89573r57643B67777L992292j093808
18500C166261A333189m17708b056355o39560Q10137b85777D287889J684122j394530
18491D577481B220462i3530j345740l196256m23984r4957J424406a530210f79063
18481c191781j345080J035055a193887j990671k11592J629565Q48948A74326e91543
18471F11120J836339N99344j268587a458600j343390k90224j008022b038102c90566
18461d50474k265059k466709K277549E05525K880251n65016j389834a680773M81948
18452a198825A115148i6527m116219j100208a880452A008026b5217j550697A396745
18442C655273j3989m50917A496689P57784O59548A386223J45704K117794J27729
18433C777450l82793A660730b620059m60390c75773E77611c221342L10650a143530
18423b08989o45690j120055A362212K39710P08186k43605K45685a94989B22479
18413B383879m35122a45802j877444k261132a484951b35577G98989A13136f90862
18403A35783L812223J191572j507455j762824i06387j408220i32417d6367j260030
18394a306397k247920j052945b186114C085739R08688j182868h34440k321450
18386c155890J188446g27558l0218G8671K042096b19531l5147A282182C80847
18376c1825D44631L682191J699627J289k122185c85802j519874j28151A40663
18366B838455E52757c152195a113110d34376E23658f10917b69860D98490O155
18357E04645J429426Q81194b30499k249130p674j527810r71306J498553a32521
18347I04677J685276R1266r49181p09673a603307j870670h78803j11259l763879
18338d753941k033359M3975L108846b32444j978470h12556C42745g25723r72522
18329a698245k265049a950392C828989K79141j100000j036623I00181G8861i34603
18319d49413A421167K820158p02407n19019J6273o141L61236K372194L239840
18310I003301l30408m079439A735326j83598n05347C79950c78950j323246l696299
18301e398495m62971E09234N435052j705030j649779j196619F13890M131636J562970
18292F308496B429639c037999j686619J186881m42063P33311a491556F21934O33725
18283A255659J500007J490178k087964A85278J34339M0749a538299e2021B097645
18273D32175d01667q7091l67395k71568E200K299990E99047a563668j998577J597579
18263a964666h49844k216217n96212a145881m94676j269321p41711j125707k000577
18254f777873J027782a638409A646655J53773a570425o5272B85674A8518K404267
18245B422785N57805G81575h6064B370218L0947C17124J818336m35615b055870
18235H55053K550378A349610b956014J157227I67096b152372k728040m14941j18462
18226e413815J973651J684876Q57334B437045R74436r21702A010609K44244F20411
18216B719074r40920a280573k57934k05377j507560j721836J863825R51225o04903
18207b763133c73282B017472J86715n2399a131011l448567P33758B6423K7984
18198E4407J15729J807641p46295D33782J521050Q69164J418417n54579b843189
18188h522192J747342J292327K726657R33493g63219j59596A542902J863060j305236
18179B100726E95802i19283n41441l92507j547698K91004P65596C16056f91071
18169c328350o08673i5886D122910k43292o64610A219001J10768N27413p30109
18160A127073B62596J189716g51063m247530K20409K122080h30014j217708K779
18151b044943a94760n9146A029026b84247A431279J232533F03826a210128a34776
18141A94652b78394j145639j930901l15952B91925K85221K04154J38266J795141
18132B714707a32637l678651o0140j99787Q79813P36262k2351g75373E87365K070832
18122B658197L20563k73279L91465B96354a035712A324800m38259a857081j516476
18113c373557Q48338I12614J419650j057458l58664J840628C89956f61135Q4183
18104e76952r37764B210192K141638J641596O13003j853879J559891K964098l1163
18095I245376j168518l618589A358557N67582Q71981I90773l92832b088138Q83994
18086a204144C5474c232003N5524Q93148N97201l930044k104181L383674a833998
18076A361443J276931q38579K012086P73445o95600p82168n23288D94308a376595
18066D23712a76840j683791d55050E26207J30415b20868j153935j50639O34904
18057h90538A168935J178908I69594i47751D78328J252465J477273q28988j044066
18048A335012J608878N55400m09149A369802A2717a437948N29536K73985p18795
18039a353222j325169j334895J32816a522631o49669Q78072q13946k654775m29238
18030e192187K241424N45976J023275n62980j007653a359882j012675J103711
18022a268846H22021R23149g77128p75619A662342K333194j899399A13680f59752
18012c0304A005444j08249d409066m050534K345506J634235i66247C94506P33022
18003A127528e57947A789668J295446r03462c20653B6773O18041M31956M54213
17994A530983J915631J611331j361599A747932B25688d875387p94694J908523
17986c761558K06928j673246k263451p49325K298355Q26622O25224J530929f99150
17976a507966k645800l99029J695390a182270E29073b373022j148707l84346a676780
17966a366179p95234k30082i94553F61871L050398j070560p53152a454289l946812
17957e401101j131257K134521a769677A318028D21909a745006A999965K377015
17949D376980A286693b161586q10778A11526K502951d91455m179771J495709A085062
17939A073051J3902J615655P19459k73724Q43316A668601E0753g87015F43233
17929A463413j56001Q06067J88939j08819G84744f04086J10144J59865A969135
17919D172971K801468K035076J043463l414299l274949N41773M31794j320618
17911C016679H00261b691273j151564Q56331h84412J62339j736876a015324A2292
17901b534520p76868l118454R98573R66576J153285a651768k065443k553435K061364
17892d209282J161934j026331L77400R87804C52235Q19323e27999B871713L40052
17883C211765D42648A02998a555148n10744O50153K17316p31486r94647i47478
17873A917122P8271B12660b821478q50950Q89355j538721j71114j272521b539099
17863A329380K230914A343957b721745r20756a708667A357665J901980n86180
17855B673465F25188A56371J258065J952549J510153j234202j131009J171846
17847C683773j256410E59218a455305f6446B103722K095055k52769p90777A303227
17837C95066P78311J327103k32711b76444q87353J17942B527252J919093j825447
17828B620898M12269k83385H52814b389321l385434J634952j67063e33541A953102
17818C985439p29293H48987J678774n20012H9178a570274J53448m72531l280722
17809e170079j104780e11949B131133C99279J02955A72038b252067j98967a145389
17799g22800Q6853B010579H45404l08870c014899p10781a453029j71209j140304
17790b764542M91263N05038r73091r71488P73145i42090M16675E91543B6848J146381
17780A173229Q48878n61296K071176K139804j036218K43216B084342c70022G85154
17770B096473P39133a07222l269308J087868j177589A07464K256022p23644J040031
17761B679873K300768o47523o14464j027199A040036k38684K975948j787669J560452
17752C550083J273636n89978C45024Q51662a88534l596462k970855N92514K911096
17743c252241J196899d47577A185578M33324E07477c99376r60159A126555J790287
17734B916842n64571H52141a65407k08155B94255J506522b499014l589864K012508
17725d076370P72496m89201a257189k6326j019077P84213q06566k025780P23789
17716c626936m31838J374521q33866k038004b648419A028952c311323o01776J114253
17707b798846Q10859h17587D586067L011091j235797Q8535K06510Q28834q78354
17698F606886B833589a180375k54018q72707R04648i2634k117171l344193K473606
17689c080392a523687j360969R89380M8770j478091Q98981M99939j894681j680796
17680e501154K454942i88992k640668k616267J248065b069296G53203K438383
17672C191586p64580J163007l5043j237448h13024A121381J325880J83479j049717
17663A581023a310278j022128d42701k524272j446915l55449K195837f84408A914202
17653B40787b223121j782605F1999J585770g19082o11604k881848o72003h48865
17643C08030b406985l47771F6064a72144q86710p51445G04572J266196O32723
17634B603491K86529N50817K974265K682535L63456q27641j243338j146011K557287
17625H801390o75059m010864A209144B47220d22772j526704f66322q3367l681040
17616d430729l256921N99971b472100f20561A060942J680144m81399L046125J035867
17607F341679C140671E03460P15703C87193J099910D75440b983906r90519N68042
17598c406383O26409f87467I8556a465173o91915A302996K275536O60509A934913
17588a068379k187574j999089l063097j83435K23050K723895J282694q82750p99375
17579e954060J887182a902779B823795m80824F14608Q77865L697764L1452k263853
17570B957836j433280L85960j84941B53184L0004b016151k616855j284838a762577
17560C5431K154446e49802a06442B139380P62078K825178Q78822k231170H62573
17550h06428K5825a12001A48426a321799k026454a486992J46951d72409B775973
17540E573360k491754b464472j441522Q66171a032360G88432a451508f1315A368027
17530B244520p14510C50083J306348N5022G60990N03980q4928a146537k40475
17521a387012k510784j088798b025053e82494G52957L91121b193325l114797k60283
17512e568405Q95018q00253k702355L786840A992103L043378j237839r26573L219908
17503F090977K45598B544931d96646b33240G34896a376038l38289c79632L2207
17494c47425I36736J03479R00521D77564L3651D9312c066460k116126J863944
17485c318642a232737e21068D25862N00715b69181j136890j267588q06587j914699
17476e394945N22970K238112a169018l16445r14324j079546h09571B29451f81738
17466B020648J668040j443203a124891j896734J110406o92686P33857a24175A732712
17456D107312j386300j305934d32698G42018O77355K470636J617547j825817j669597
17447B012142J690825K898283C205291b857797l078705K902039d35343C1697a750123
17437a249794A523165L565118k254565m81178A126173R25256j016454f15454A450589
17427C037642L91805j47165A46175c401253k37097j649353j167229K900943A308588
17417F73006a27252A57031c210174k670597j05291R91402J767898J097886c70065
17407B412982K572016o90143A542973Q59223j76546j33973H85377d10047j889709
17398b299756k71723k396022j925965n68732J367699a480567A101214J943127
17390C044341m9750I01721b883416J190699g02788H79337J824585B80377a18227
17380B033355F70787b549452Q6499b78957C171725J40392c77486k844105m85127
17371c706718J193983j088563j566697a929977G28330L36845C7881K93096K679281
17362C010258J409206j312862j232104B2642J417102j19068B49272g25046K63251
17353d61795k80996j667583R68825B623220Q11590R6504D66114a137969r25451
17344b063420m09228h21253A839889L694778k83735A514856o86448f63385l396205
17335d059590J597882G02410A52520b998938r5638H47812K051957O66247Q71886
17326D437902r51596j664710J602274N97207K557863K87239k726200A948826o12753
17317A336073a876185l677436M63992P63553j173641K520494L09295l773936j466981
17308g910845j977473M431871a962044l70789k478921J312288a581946j888595
17300c470541N36464J317012M59685l362848K80337h10895C289358B15033b773597
17290a910638G73507K86932J554264M327031L372804j270420l450781K01492j032446
17281D762383j545061J216894N06806A245911a568573j926930q45907a285805
17272e16209F31991J341977l96718l46733K775378k52137j485941D36623M61433
17263H98056L647550K00736A468484D71970J680637N70701o30648m99683O77939
17254B270916H93017P2713Q06239K518875O220698K174840k855613k730003j22937
17245F977829J148758D020839j655440J868971Q30390B335094m64806R29995M14773
17236C215056j333671l41440O3473J997769N7195p46224A426385O72657K473223
17227D572265r8485k097353M68071j108821a112963J97029C192854K879879J899463
17218G972196P6807j230563C352672A303816K859572M097694j2581C236481a225489
17208b349637a123289B68373K395979Q32396j283275G93347J365501J084868J152753
17199D396469K80058K156296L534896Q9689k545570k784222b16522o06206C40042
17189a482333M9882A696424M62018J762776A782929a900958j167916B243895J994639
17180D238534I79364A38989L594034K487142m73301m59693j166583j738122b040961
17170b785904l688786K93031b417924e11362A092444k410J89870J333689K660070
17161E273663j575278A562324B58959c119972m65915O13709E63279L268209I44162
17151a32413B413032J39788p45234J899758L281008k530745q08722k49469A195468
17141a21130j184943K05360k497137M09843R80019j143635A47060K263393G67191
17131a609523g32527k339188j532243p26687j439100K039078b210217d52815B830529
17121B031489l26915K57018b9381j650645j2849A225688b05566q3222A957227
17111A890977K583715o72827K04935M8642F20485c73005p25522m74736c61148
17101A128546O31599p02496b264601j831051j46406a700525l29649J29134B542446
17091D85874c252382j151394n19703J821088d74686I98271l67942M96574J659409
17082B786312j071908J50594P7382q53264M01645j76235b481890j526790a584387
17072C9228J366223J628328Q85901k31214K781180r07797L27613P59386k907678
17063C741170F04879i39801l110575J682082A340814J753936L702341o06328k294532
17054C896231J001974B160473Q63963K110272P04069K93674l65181A770224d73845
17044d01649j80719A149468J83688J61855k8651N3432J66298L564074j499062
17035C751102A834903B19083M42200J99624L73936J251109q02738j89081G23889
17025A773515J245045j038355L635713J012446B448034a076876j339779l08832
17017b725487j297541L35841I89307M82427C20946h70069o86561A705700N717179
17008G422879j585787B467899B81291J123849L935853m45953d25496k087792I7937
16998E88122J085433b07796l459985j001858j70276J442995a135882K45558J62880
16989g27444K29553m23916j652791l044023r28916J977837D049939K112823k698297
16980C464465j538045o44947i88480j723294l436369l054970Q41791L104416J193641
16971d063265m52513a220999c18133r63375F83208L536356J387549P82006k982715
16962C406404G58262d37003A81757M45993P47551J153212n18212n36159Q39570
16953B313712a014596m229535O43243F32647N780296O83820B883215f28456m151241
16944d779697j528899b180447B251546l53460n85858n24876R46211a241585k88950
16935a530535A021354b34167j946610m35733M54194K41489J50693j704986g67332
16925A939133J853784A62055b890794k569323m70746k31094J957779J581753l93514
16916c015939J161159H96251L155095N3337A933715A15046c914766j315178J572702
16907c657242k37017j44600P72505d67421I2251g44078j013758g83682I42967
16897F74626b328258J37091H41717J421632G24017i79897J05229q3101k18254
16888a176023j106629j727235J353063C33254j08389O59328J432350J800780J230962
16879E348285r46177q12003A215494i08700m07277A843690m14026c89755E04587
16869A574050k28911M03923m77056K42738K762846m08740r93957j55399g04226
16859b790158F60051O92373L17340c64478p62059d9668p21723b79936C18282K538646
16849B856928o4758I21473c19023l311044l498633K391828b271697R80997k305155
16840c595855q17791q0001N31449J824051k229498P50436j25577J701416j645596
16831c686966l460035L00968b902209A164367K330208k33258A582126O37680m33478
16822A786328B38742J577235K627847k07217A583928i19407A56971K349138A087936
16812g48157j06718j28931k389134j163669M63174J365593A72901P94531m09878
16803E57554c040403k644175b486925B556809J06483A26917a133885j021940f77254
16793a023543a25958B208482Q08841a274226k388780J64276J246352h61843j46006
16784a007849K78785A812174l5512j29290l46007J178771a537956l15240k09368
16775b062564N58479C52391Q59778j5358l14635j53526K771369J270810J783416
16766F554245o31324k844456c41666l271862l384382K163884a331812e66589n93799
16757a160388j84792E68068Q73868b824011r73815N23400j262025j819041r90588
16748g346080K257325J949441R86090j362346j441207j482935J924669D12247
16739D31520e69096m59426j466338M96519M04121r75612j256159J269170j172472
16730c729293j950411r35343a043845C367496A571638d722464j387580b711324
16721b258232M62645K46752B44228J862471j032258A04806Q49092a362951m88180
16712a851131l57023k489405j581070J993092J409485o42328l52136J095117H17727
16702E422232k90521B14443d869263M17886a814145o49049M8767l65498B47882
16692A331057c88219n08988A658711J914863j558664b60358A241097J919844B98879
16682i12859b86234j109275M76790d6285A056334h39910j913837Q50595b70191
16672A727881K06340i63271l760271k488458N71711K170523c58204E3636c058215
16662e880665K257454J535800R51859l758115L83128e13909C33213J5273a774923
16652b054029A873648J049695j216729J278059L58081A076696D11086N23362M38985
16643A373433i11590A763155K753483A876613F74225h8985B449054A179807a084588
16633G5464g34173A347991J901430O28354n03674j145398O74369r22158a870468
16623a190193A950643K442168Q62280n44301K23584p30650J636308J118875p32011
16614F226896k868255o51656Q11072A133927h29330j137985q80651a001196A084909
16604A994824m43320l67131E4584d05085k041055j558161J078539q61656J340543
16595b446875A012823L235384R3097j880983J012614j97681J80552l65641J455356
16586D545521j886736D71137g49133A731638L172407q97140p21280O2156K993466
16577F341247L76600l128206A64823h70740L16563L8122B146312L653475j797962
16568D001825F2698L48293K956078l18235o15381p47805b78982j862923M48048
16559a693857M84351o8257f11594j998364a270199N83667m09074j369853j388167
16550c853626L20323h64732E57138J670473B86230a836946J17592j897626m116673
16541g733653j056204J005590O51252n2431J64582l55181N05867K905364h16877
16531B346408j026200a160899m203945l50786K831939D96880c05131A508400J384015
16522B892415h59704j868343a092286k704670l264727j507354L783033a812155
16513C20306J031445F01894c25004B54551R5630M581664K400188j044163k842013
16504C445857L28065j403377i07633k375995R98915k55059J152950B038354g11755
16494a952152l80853Q55579o71726l828229j759422L96281R77351O7864j694303
16485g989610j804394M013294e14668B206472J623926M48342E55531b388696Q69329
16476a519367M91531A39723b41373H05262c0395o86975A223286K186803J955774
16467E365863k524008b89849k978209n14842J049024J143005J86112Q9126A096628
16457C02322a751097n36106L75977j057563q70366p1839J043486a354793L4941
16448a319852n42467k535082K27209a633089e15191A604321n2683d90599j031173
16439a521772p74783R53848j129932R39585E49312J223430n94518m92680Q01444
16430A486988L50846a388572j428712J188672q94174N58700N16943k591009j215905
16421e254057j63969J061381J403833L57519D86706J758157E68124M42906e64632
16411c680186J104090Q90253Q39636G95675P76455h29238k7328H26181L469336
16402D295517J149560b24288k119570j257536e39476B113828b39033O6750H50406
16392a321234k126821Q96308m27151j680350j152384K51229J493235a960145j457999
16383c418144q89622k304020o02498J447646K03610b569653K41121j883151K085296
16374b126387c00666A269126J008896O08914n95113E27081d011969l425377K588587
16365d848759J719463j296639l043371L37811L298780J856558n60679R86315D49372
16355G76353R19065J453455d87459j015663M77894C51835c828m51326k771383
16346c226537p1295d46830B379857E70137b834332J49220j582419Q52488Q47659
16337b567384Q7935O55743B063141Q88189j043821d34679k228788j915821l51676
16328d930964j378934K923613d97013H54832J231599L9845g03006o12460q1838
16319a397304j718486M85551A086473L125432J89001j521895A089520a752616
16310c064038m010497P81440a787952E73008K9397a735206N70309d79748C62660
16300c72786l621331j361712K357632e47524D5704c90125l76719M8995I90339
16290a303867l353706K122225a53509A578883b19940I50889J685792J951256K214596
16281F802533l77326k359902l156k001870o75945D63241f80006A127817J798779
16272B926596A240744a390760B057227J642542p06138l43929A181330J850769
16264C032099j216423r00937p8150b21334D45297a284063g4112E3216R04798i96044
16253c811021b55391F6476b803536n6658j096513j55783j814017L12284j296704
16244f910927j56985L439829B344317M57522A062128d86470A372031K265312n99043
16235C038300F04089b664090q07048d73359B744722L815045k335191r42163K225921
16226E508334k394346A377402O44823N4673G25088R58711o60263b867225h33450
16216B243798K912507j348713j460018o98753f38711D05824M28230e40648k594893
16207c135541R32739B74366J447144J92058g80780p88908A848221J756525r49887
16198B654859e02688n01806C350840r76633D89950a321383m6462o71517J53462
16189a885900g60660A505491J241400J442326j348196a883268l084053j172688
16181f140009r93411K426849a070429A049678K282292P93866h84960m991287J910797
16172c965450E49915K555218J181363K222189q01903B258516q76369n15545J051404
16163A918006m24355b272634a13034B225582c42832D52000K0993a334804j08591
16154a443395r55546N82070B96787J757136L560599K014647q05155A344067B29397
16144d392603o85192J05877b262428B79479J936996L076141j485651A870754p64933
16135A105821c15487L9431j243223q6423N44660A529901L413070N66887A496200
16125e13659j671632l21860k699473o25267b865102H10325J519479e07220k573524
16116c080744k992045k224994J382350K644065J171346J044199M25927H23914
16107B796796I53164i5600C1898c488197K41657f48089I03923D1799a269762j526685
16097b796447r83098K37238k005772j116948b288209D189772l67650j352471K387816
16088D857467P23210j554732A908075n53178b242029l50879q17230j560364k54048
16079e224550J105634a568814I53626K032094N67014N9534A725195d38885m85705
16070i24590o17462A57177P1941J29272K765670o53845a198358m10578L00005
16061a308931A0430Q64114B77687a056157j250386j273308j92568J816705Q2979
16052a872735j265278R32489i06907B863844L587383j900092A112019C91104j17888
16043B73216K81346A94090J582070K10578E57073c676038j284904J89245k004723
16034f776420J59970c215075B083341J356431K092570m92554j511684j90486A169801
16024G74005K713114K729072m06006m54475j972882j134308a898055j250002M39201
16015b708856L7961q80349J384885h52881j420827R5894A427389J432525D45626
16005b306424l0230A205173k61336i82237k105848l58087N51695j80561M31321
15996b643717Q14904n45385g30242A776366J963031o71342A37266J73488L913376
15987D224130j764273g81022j233180a001363R3070J43542m10202E84188O95915
15978A280103a232190k042088k656305r52189J970284J728591J224004j075946
15970c035839J143410i13938D78791O5644a43660j343832m57357E05407a02969
15960d47349B207232J778335c80765m507867K022150j178299l031500o77857c638187
15950a21637r96504A37732K650460N65505A46158a952779l915044k702836K667387
15941e903272J334083m46056J255494k781231k668468O93402J417139K377239
15933d721670k6833a917612j125141k522369L9752N3119K098524A222776K496097
15924C718873G50390h63109H98053e56679n243476Q02986K451285l21355o19122
15915c486361P40766a176489j385296J233496B879792J353314M73204J047733
15907E754043L50096R2903q76611j506144r24125R89096K469257L13987j254872
15898E407630m49316L54006r69227m17638j926503B19389a670526A127143K758148
15889C885291j82107A789740a161198p95053G1093j5882f51698k824984a416655
15879C042809J616106j867971a827490j468612l00414j009944K209099q87942
15871c285303j537212K175060A30610K059396N77551Q92482n30907o47391E96045
15861a197490Q946B26921J288793c323720k598216n66670j921766N72226J713026
15852f125120Q70285J186220h34901F64098K197734L146992k898182b620951j100696
15843c721647h06739A19341J009851a67717k094934o14340O79990J12255k008730
15834d093476l072809P70664J27881l31121b954949P73543H10679O619189L271243
15825A0701111m322389l138493A120747A40329d90830H01841a667558k562229
15817d229787J689857A289762K849263J642934j175523H71981a991467Q73838
15809a117629k417265J031533a175401D71451N65559B70119e88520m17334j492397
15800b498251k795654k372056O56287J959492a920214K78996e68542B034065K61912
15791B295977a854478k655814J679715a050948A862265l10854N48099m61712L12072
15782A949870c42734j985288k058242k059268P44685a277188G82484Q9786C96791
15772I13936J313376K20635j222852B63474a559423l064861J576939c25587A986830
15762F66982a976052k369943J127088A633425P824N57995j76592c117116N71850
15753b545266C791631R9132A704361b40540A523671E47566a051621L55879B048519
15743B431694E13792b29700q75398o14153j193826l13126n50409l756522K505286
15734e027848b420356i67164A71264a143534d06624C68726h71865a05458l64079
15725d69537o96327B528354M072111o8409k46249k091708j455474q57174I31267
15715a992880j908208P95917j213463L0751R35283a216720L93246r9338C207673
15705A196552a008091k772699P05723I37141K052169J181459l58129a499205d30893
15695B036874O18081A178404J39907J073115L33967B32898c321373a409472H36313
15685A929961e77913j515609b07966B71671Q11173O8869J428342p9738j085972
15676A414345A6145b452791k026308A210180O131217K742731o23267k609286B340608
15666f19278m339442R61568a020285j345054k17660L03274j831196K81833r3299
15657c922387k461249M00688K434249a124533C534450j90576b056049m42336f80398
15647D20478L026838j720278h77714D18364J21514h13093j247346a006143q72880
15638a879023j435414J075295D91580c55902a00969n01082I94941c58296j894553
15629b252849j67706l99647j567285Q16322k02316J329287k47705K22125r51241
15620c421015j705665J462448f44128B950222m65437p76768p88712b447763j749873
15611d197636j052588a569194B595748Q78070j383748h54706q79719O05502L00769
15602h28154L4194n78947B871497O20681A453725a410509p52683O63238B31310
15592C028135J23400O97072N0819j762711E31377a189392l118091j108385J533459
15583c882409a879441d58314j486998g48675A318790o57931O6208a807774j969476
15574c777250a266434B123567J364859J232401J263293j353066B249878j54294
15566B095584Q38466L134444j68924B170653D64844K268764J53392r73513J818717
15557C732204j68381A666195C46606a835979c33137C085838O28443G23126k72243
15548D50883b019233l679220b034457B588309L519644k358604E14276a440420
15539d14622B324743J269966J905206l35354j328260A824144J161223J728927
15531D714294o30543r91870a673631M78525B659038l20480g55188m474613L77777
15522d852024a065167d90405o30456l77506I20125K055933O7687G79005A51891
15512a908439l768152j026520K251302a452377l54956g19881B604809k53281h96099
15502C37563N799538J848895k855134I64682c005584j424191g64630B027908A35303
15492A983700F74898O82926R98334L876347k955699A581054K362984Q02912B214790
15482G53920a17873r35844j6050b93556m06539A238108K715668j606567A120606
15472C542540p54225H9252a337636k421569o98014a893922A529719L697582j697563
15463C529738j183816K665315N42507j660391j683900k62093N78928J050029j633026
15454A943291a361458K17867o50675A497453N54489b332675j364847a813509l36353
15445b149862k62254j022262j74129k439835o82418J144941J577073b00701o06685
15436h07386Q4354B214596Q60587r06837c165134k375331b666754Q5861h20289
15426a14622j278263A978809N98145j048650M80930K279559A115604a186459j402192
15417b588651c56925I14191A3087b464793b86704A900755J038882L165245j216618
15408D888264k304549q92819M12280q58850b284074l45334j29493d48799A872209
15398C207569b89169k36749b9587B663681j033006F62577j20796b132778d21877
15388B241698J928230K65563j316879j494204D73794P3102J873237Q58712A124451
15378c351171j703422J773981d25491j914327l049259J099502J976044N75546
15370a737985K13791a43616B362623J758768E87265a750407C78722K176967J485612
15361D041301R68977p95059A087319a11521B130676q05705a191566r20637M70177
15352a642026j05996D90112J815559J837848j148755j175836O45293N49205J922187
15343D935613j092947E13717i26130A82343c429485l403922J333591A6661L043584
15334C060245A365639c617562k674522K873334i45904A280113K503684n27718
15326C256079h85014b82983E683954k57665J38767o41575j901162A402707O11610
15317B014317R01479Q97214r14213e08417k661409r90192q55403k13309J684465
15308c544265a518740O72889D32915N72593d26771j753111e72539A452511d664603
15298f209311b987840c79574k327388j946983n72721P86929J280430M73134q3026
15289b769199P44691G43391K487315K72266j331903d032749k175901N22586b182394
15279F73735a501740l35108r87396A123031K066526a151618k538164j118967P12863
15270d095886b041481h15717b68294l00783o69133B87013J232800M60582F79166
15260I32172P84923K612110K227723j140965B090689g1251D71239J267881J614146
15251C353266a146153k749519J198080O25665c95746l07765k486159J097865h49856
15241A583211J010572J670959l16696q25925J891508k64765j667737o81948q56732
15232A542447f21772q70508l61363m81855C76602N43836a308141p01045L18033
15223a691153K85481p71833j73233a154377j105317n44265k167579j836532Q83856
15214e924214R45401b07698F37466b844462a339097F23245a941689r93372c11224
15204C37304d099827N83789N78147a392128e16790E91448b129238j718382a442875
15194h09675l25441j4986o03260k300306j392690b061694H70962J226808J918822
15185D016592j871410a059734A67034K491788Q21610G67583R35093O49576n96395
15176A755857C50920d017778l8775i50891k68385m90627B56458L096523J541172
15167D894153r38223i81825j0769M16943j796618j472111J371391Q79577D76801
15157I08771h03663q89760B506273r04807l25018R89183l56064L76191c76442
15147c277778i15266a23287B535961L153745Q01396k379737H61068a191846J96734
15138i95112i1570q72968q93519j6358j712581J630698b02261k024229l308870
15129e535360j758K171893a360723j41401B54419J855523d0397k14596A208043
15119I73804d85714q8952A37812a971265j385280j424730j615805J028345a149949
15109c15694l202037m639399j367370L364651K994745a048899J77256k397054
15101c268697A0679L931353j105614I91019a117308J53608A510324K889522A356992
15091A461858o42643I1760a134175k381692j199652J801506h4323l90186o35640
15082a110149A295722K57784o93327m06322a69660A020102a488234j00421N85823
15073a002832q58925J67323L39603m19857h05773k031946J37780h07413j612677
15064b420090o45728A111605L260709J837633J394869k124511j420017A378447
15055b835429l196731k74882J30167P94468j27389l47510J337667B210K241258
15046B243468j089309f48262j98521D78802L53052D6805c424858J372877C35508
15036B900563R37712i68982k402993i88455H23878K774577A249973c95015A549765
15026b28984k921185k215190j923153K346865a025624e01786m59621H70804P1434
15017I42238B08087K228276R15146i8109l500571Q17325a105493A030698P89671
15008A820369K1893R44213A217491c281118j515871J90685a861889A25302K846408
14999B971710R58978g52475j423850N09323O22847L04196p23091K96454H16402
14989H16301a192886r6637C114811K152298k19782k180831B96783J669484K156494
14980D122761k76935H51922b709910d21608j922192N26627M99542A923335K351440
14971D274775P94602B529605K587920M64954k602883A318428f08241D36607g60820
14961b11464h773k467272M18582m23547J083116E81260K187290J426472j686544
14952B508478j006438m71326g26705m77949r89385k174583l422831j219322L203824
14943e806951b489560a115310A04227J870942c96462J46689A800835K493541J498569
14934E792945j607596k96640J403942j358608A430529e18147m705162Q9774K193865
14925b939670A496233G23335b575419d03354A824253b5970n192786k113605K293601
14916e038760b094799a17255k199599P37559A166118R13314c60203k880624m57443
14907c698270j50235n44758J418142i30242E75976a77170k734043B8790K394814
14898B423604o23495J106715K533008j244625G39119P52916J059742B83852a202086
14888c28667C53053a025726k65465B446856J959327l13059A121830Q94733p52569
14879A263994b662841r4542R33357j650273j896040l36628K473617J327092i01723
14869A302149L05303g79973k859328R80661I66703J67941b745687j523101b125622
14859b810571l779929M71505a285223A682778a20147l394700k18434a347205B12591
14849B266712A050357a292568j818365R70538q39103O99598D65623c12064k129180
14840b441244j588952k985864r71457r99537c488288B073504J527280j090938
14832B509846g47682k294727J498246D718272P6416A666692K777395N624331l089888
14823F978530B637309b219938j719241o4157a768391N581r02933E5749L088886
14814C144635R17945a257862l313822k83200J531304G69139J935039r05386C56438
14804b381905L76163o65398A161033M774172k388775A648971b69628C1325L93939
14795D25264J353005K078613j006108j300241J806132j003741a17636I77967c34272
14785f5675C116023r9498J47754f8735q41832L39045A958558J318488P2013j080317
14775B268742L92423j4700G3489h91598j645312P36818A015761K785281J224183
14766E025225j39723j812080a714829m760654K21277b739459C065707M96610m11316
14757C151001n30776J70070n9457c11055o46451E47194J355359G2339a510664
14747c173914m324987b672779F0446M08815J370700a190437j425771J83227k223785
14738d656766J099390P21366p33819l46964a701506j198479n85671M09091P45855
14729b330710G87642M66747Q35061F15419a03391k700681n138195J142661K714678
14720d084928D86824J323415a539587m53040g98307K17878j831226J68516A352321
14710H85745i73515C658791K840617M26974B424742b088231K85338J55789p65214
14701b412318k104j133960M70118b83609A072956Q70914a484799k411725R58538
14692b937986k174506K452738A757127J821030m33768R07597q92287a634989j784970
14683c419959j408083a751894E79150e55421M2094I07489D41493L489041M029213
14674G959747k67492C104116c57831F27012L202648O32625k223768D96651h2766
14664a389757m2116H32129J446118p87614N11091I7071K20112M14630d3118p21097
14654g64215b34032G27500K633546j283988c69146J04687m43232g2164B99366
14644b730190q18589n64865J20900a851972K80500j094441c56570A010047J269361
14635B279408J769035J832310J32027j104723F54929a146248B896198J28739a914225
14625b517584l02434j173426a857134B196438D02287e468464M12525b036236B244359
14615D680468k062138B95543L075040J990138m47547B291240a853493j636164
14607c489657k779252k801997L183809K025372P83383K21263N79913c51371B457437
14597E226443B390955h64844B50177a424289m406135J98287b550690k02832j215807
14588c969329n4403J583108b9331A277418B9872a180826Q1950A412343P258911
14579H671254K171777k423893C335017A02999c341997J222097h1318j302596j499116
14570b883030m073862l31276k76352K197080a817327B12698J531595J232276B03908
14560I02158J802445Q6213j097052f53039l332349J05990N82953J77115l34016
14551c453346J059937C09194a048997d06475p30693j015640k064507l97186J446136
14542c168365a267693c07090A450587A24367a657872b20002B228243O67223j405191
14533A490275E74348e64817k397069k670568P86820o22151J413591a242384A388056
14523A461645O4780J948939J30013R73900q60706L03135j115447A446062M63960
14514A910022J268642m17164Q62197A767728E62904J649088A059388a998513k94698
14505b293211J124329F7321b477339j900827L0150J296555K91610O60399B533234
14495E086981J43725k598598E50061f26353p37921o43506l908574n47073J155175
14486e308252j695433J159472m20154n09636J491425j485721j0340K753555A24274
14476F76861a389881j97828j068751j071643j604016k346757J347434a245529
14467A917034f70744j424574J46126g94316A82103K443986I80491a619578k751297
14458d370875O79068C30030M268243k027186a159676j498494K58454o91195J05652
14449b985259j292431J456805e69728D284673j607512c908997k300386K061389
14441d147994J223514D70518K226424g48870k672774j902694j357589p13399K382169
14432e013157J732259l89252N34484a453977d67248l55637i4497B54275L26788
14423E81063h26399A278925D99147D7097J886908N60022A186014a121959J01113
14414a020846C19677J682249r27225a526210m96353M20066a94326A358418c82690
14404e134299k636135J118051K366684i15060n00618J88573d08015k912082m41400
14395c761497a345056a11099o92904A221789D72853j43109K567484K042459N41578
14386E481265B474312a82387B463715L128701j524748j289775k13734j252906
14378A311253b206075j942588P08290o2158J706479A401362L362116k046843b200653
14368a095177H95118B9277d56229r24516A108437K711392K99948j445878K592474
14359E266373J078730j06839k727516D23919d3558A413516R76390o42181c1453
14349a501437j097391J282541C08647O08620J67613J715341p87130b2294k299558
14340b321852j634387J382505a017849p34436o870489q70785K212806J453543
14332e827210N44535K22145b137414j027231k72271a614349m008267l820317K084587
14323g358346K380471J9070J605070i63549K48699F94220l03834c479617J083140
14314b396477D37733K748541L37647J28495J543422J037541j089727k491806h29689
14304A700677J546025q83823k32306n56618j26034L185757M98231J176400n22320
14295E785989N96689k123917F75603a409101j956160e69291C969142J738241R30475
14286F637858k070751j042246A092127d24066k273603J056218A931105J195505
14278C126610o25972j29627c83710k149584R81997o35261N42980O23431C85057
14268E19111M66173a034021j537410f07338C75725J725967m85322I1246K077643
14259B168889P40623d42912l029835J078512i76439b51114H76957K290016K071889
14250E238862K187876m84054l325074A167073J31160K307975A505804B40557R0011
14241C30568i44462m976323n94663J407285j93262k607094k391919J923900Q73546
14232g502992J077749K74603J157464m47462j657651m82140l34947P79610O5258
14223g070508k001124J557011L519213J065232J084202j94988l32741R53117a08118
14213c31096E15357a635715p89529J110867M92292H77769A7822K34129g19373
14203c201489j542407p67078j184648P47788K142503a714716M76026M73348E11179
14193B098533r08735b371593j414848J717457r78912Q70164A807665j92563c356754
14183c485573B081427J100458n46879O71135k95246J145324j773298i2260q63531
14174i55791c96866A353954K450703j068815K70338K024352k353892b749659j772417
14165d522076d98128A485006a514679l484910L73465J24894r00827K623107m775
14156b783725j370026a623739a94019o65708k651089J387577K4272q09031o05133
14147c513131j033295k712979j018658J829895c079985j523513o2570J325407
14139c340661j6835k84324f84860B209144K177687N82347n3700J341904j834087
14130D423295n12014L68778j735279A210374L68404o11814B98258K962015m23550
14121B836723K788497P31175p27326J902601M307341K887315K343656N458592
14113B2528574J2856053J6585243K3318617M8057718R0350271J41125935J27679687
14106D82502098l3430080j43652264j19679521p0269361l8162988k0305960r988452
14099D7013472j0308170n586456k293436l754810n318399j673491m281182n066803
14091H730725l494474R63437P72634M46072N63292J158303j41667j700705n73606
14082F724011r80684J812760n92548J466001m19934k077092B847312p24991h33389
14072b506643J227651C05169J09653a317683m791614R94265J359655n10931r85896
14063e252204g44407B896250P37970A724727d124902r09131a907713B200119J058231
14054C258350K364134k97767A962618D41059K400434K190948o92313A077093P74856
14045A851949m68619J579652O74501j249338K088J347097K6490j239904J165428
14036C689344A702836m15435M614152Q26881K14756m88560Q32338l132631A091891
14026b131789c64270C62497Q32813b82393G0416R78886K635474K092230J830234
14017G607240k669794A326120e53983n4125j618003j081636k760345J931148g69921
14007a137103a07257B77148i70787H54315J348858P97179I75605d44378A206276
13997g14062o18391A227496K4928a939581j641119J119979B431181P96891H81904
13987a405956k60494O82260K79398o95619H64578L052588B06994a100746A637714
13977B934751r01600b33759l706874l40627Q16492l36221k244173k48841J909030
13968d384973J485276G56033i7478j843528J98199k03157j175372Q57476H07337
13958C51765b663550k266137j477239N85908J970453a281838F85250J903423K4179
13949B612852A022153L74424J465674p54517B56653a255377A863295K310641j444411
13940B729525m62091K99962a59531l197410i01286m50853F6507M198211L77981
13931D642699G44740c078839Q99640L06529o33633k252408J002633a698180G91035
13921a643117j179603n40881J071814R49967l85497K3036p56024o87559F36014
13911C347953A568124b683185k865897n73541j814380R3982K386432J499979a649233
13901F64495a332245r42441D91548R92579D06854K84748K52646l12780b040747
13891c509155a225664A080181N64103m01766Q50336J914525A871581k83441L05176
13882A893316q33611J317119m92779b43162k374630F04156J774591J409460j86087
13873C602120j509905F08372c72042P8524A862421J35580k50764L3165h86155
13863D2854L073867J141358Q99410P01144p0317j067713l93893j623109f13423
13853c077826a509173j583725i37877A86766L366098k38944l86101K081842n9804
13844D949857j71924n27421j973747A046337R48620P03498K211099l74613J246212
13835E781153K103919J216174O486481L553916K647720P611375J0956251J7124335
13827E7481324L1680140N1404747R5601349J56907930J30832580m0853980j54031104
13820C29022986j27541296p3586155m1278473k5791938j7291715r266598m843163
13813B9423648m172030m698400j335970j597502j888972l901367k836725j23801
13805H868881K827125M80983j206370m308705A409883b61245j36934A386182K309855
13796C696037L474512l87672q61231j298701o12038A941733m22655L735616L025443
13787H280137J420517j646356p17182k07298l192557j804718R61669n9675A281113
13777A307423K101472J972131k379117J99263p18797K8423J540279M82714R8470
13768D632261K040932k170546j729731J56970P33302J313653j376464J032283
13760D632660j607228a183600o7095B135065J667090j730779J766844J71329j265391
13751B744158m02169J543210K24367j739647D84349K039230A205445C02495K392297
13742B694792J932112K347445j798853k261989R30028L34932A650628E98587d66401
13732b305469j91773A381171K761483K119505K290556K8763l764892B093503J260429
13723C353932A314965f58198B717231L91829F15496j85884O57614J197765n37230
13714A747761h82014A586756L43873D60892J769864A036093P10403J385031p32496
13705B399031H30805g76598b08057E07273B11924f92263C01362O30289J177754
13696B109405J893586Q11786k78475A580554i25465o87186j172223k324844j663068
13687f772786j636016Q97308K781477M71409o76993P0158N07896r47618F83165
13677D730169j457826j387539G8136i50470j374853A960363L309625k627790l48874
13668B293324L51539J210705r6618q59377A174615f46204m52984q02277q59282
13659b760747d789A571169K041067L90001j650246J62346j208120B18803c99485
13649i6007A56598P68983a744181o93651P10621k046619L3695C35721J264926
13640A600647K62320a379810j937799L84843a141859A60003J075150K081185j369661
13631A946677h34893k176459k156535K148956k035326k806636j158109j121088
13623a0140090K588536c235071f4466C27749J565542n30078N36289l6891o01739
13614A260872A37419b033226N47179k380486j04658N64710l9743Q13066J208076
13605a425082j329008M99772f2707B909220j060204e39794A781881J462261m08012
13596B836130E93971a140167k040171k69057j412649J46762R45319N41220M8276
13587c180467O94932q16991k355034j318723K402242J922725C74540Q00552B5343
13577c73194r88870d18094n47826p30374q6555k72284J01210F49326J755302l84004
13567B020624c203956J39075K86226K56741l32709J040695B077952N433107O12511
13558H123570l026400P74552J681107l642882p99673L78345K22431A536469a067471
13548a497177m43332j06685j892818k016260K074420Q21426J111888D29746L027212
13539C456958m97390a37898F93412J579533J80918o45970l01063n7000A10187
13529b807087f32585A878123K65914o93989J405630j262856d37903C05282b175310
13519c812647j557534J517527h64863A001537J147272n35101E17225R00962M774497
13510F192684o46352E27473b877188L32682g81968B199189J221784R08864j084953
13501C244884i49466j970587Q4716N87135j864453r74478j42767n40614J167659
13492d602855a294882C057922K205204P40025k755728A530058d31488j11607B185483
13482C916371J47720B63949f93648J90584A459394B08103J213420J846335m83009
13473B784849h71321m378522l04442j95444K533805L03415j311422o28473N76302
13464d276102j884817k45018L94873N80139b098806o08007j413420N21446a724441
13454C010431J894037J157671j288613A073646J35664k37706P3886k88881J324480
13445B081089P40653H85343d04265A549164J227138P30475J811756Q42899j682750
13436D478682E43074J112150k6299a18498k668101j146120J800976c22333G46074
13426a83085j324373l08753l6136A118701J409442J642190j153684H66204E8916
13416i47925m57418k57560L09790m27768j100713j040105a325909E02113d72289
13406A77253h43853o94836k027548m89269B89759K486163o5855G48460f97071
13396A32152b051905j858881P11651j313583K133609J030303b01414j09019j992077
13387b302510m79876O54182J33431p15703a007857n00945k349438q87084J356552
13378c388772A67990K88319J00424i22296k744224J428951J54705c79691A550510
13368A360274a25746A147266M604128j486874j621759j116244d33782k174946
13360b608728j336872j195033K114135Q55793K39506a05255I20504J011357J735615
13351C667476K54814A021487a518508J65448p94660J19030L635F23251J231767
13342A855018b48101j898557f78924F25643c43173l860443l085257J110112J107950
13333e070811M14277k753891K259308a006721j591646k005059a142988B217667
13324A616030K53500R87528e7949j006299A14510J620280i4517j112974M77O8240
13314a138774p82050j758019J311491c13353q42640m3834r4887q8114c39049D05077
13303f45043q12694l72717r1874h71834L82898C77596b18031j166501j080623
13294b465155N65907f68724B790904k68679C74553L470630Q16791l79636J299079
13285E581417B499266a630908q30242J013897E8901J028804a57104l348303a740836
13275A555287a20806l554184L64786P0718k047392J678098n03641j601293j034540
13266f748254K283090a808294J4458N47921D57211P97640K54208a570483k844983
13257d415466J415088a489612o5946j19369N45564P9111B61924g02730l307139
13248d009869N01290A433826M722629k536417A72134b871229J11439i84053j093741
13239b077794i75508k17022N51720j866177r71808a612335a43447k996415j533441
13230d673303b147643A265816K495291K38568P59906K339237k257772j638217
13222C202829L75995k94916q39146j150578n9762J948674A434956i04973j486791
13213b391764k976348b004477A351830g75915j125875j031300a286149l33055
13205a619204g6712r70118C21257L058737j623669c45319n60456A84018c842283
13195e223119J083106J380716e15036g5405j24330k058404N33914r45303l60030
13186c029558M26046J129145O21927b45294A583037L7272o97819a378810p85069
13177b163879b38120B69284L911075O118H59832e22019H34525K94698P89841Q26672
13167B745736L156N48727j042801K198060K293846j180943M94350k269932A130101
13157B638429J6809J272853A946687o61093O09489E90796a329651e82875j321076
13148a903951j090475N66508L26786M28562k21361j191146k16128f32710b97974
13138A180100K5200E22072J014043Q7489J453723M7004A496945B18943a413520
13128c483827h30896B028706K733925B90391d070070J581269a50072G16223K725982
13119C442205H70786a319811F0019M90328n2377k0925J01297Q62717J310153J229206
13109C980418J240773q09863K976578L84687k777888j569613A282403o35725J124722
13100A771400i63856B28981J327711k87088J862861I60583a893355O9781h78717
13090a896565J30794A246419a841568j055170j887873m23225J070213P58255P27611
13081b651757A213546M312099K036851r3520L103851r07463k738393j233975p42569
13072D950427c75570r03538A879481L17053K260155O4252j170463j243388K48045
13063B355135J294579o30198r68509b4238k182248k167869J85425a479078O61651
13054h17427b17399n63524A366035q7974F33944M72583L041206r22877q35487
13045B389369K066937a51224k796565F51644K350664O6899j200750h29286q05004
13036a634290A075959K345944g3538j906742J43061D02174J101844d71713l066580
13027c538293m208622n70100M020299J311893n58881O07115R09057B35799p9950
13018A55849K79105J7194F3416J896852a201712l252892J291460C55993K225956
13009B581949M62483R31406J235098M66336k326146j091381J038235A312772f52479
12999d484417r20632O68267a863302D82198A39167l9446J822420F20484b948706
12989d998854M18378j586208m102554J524889L805021J966439M16178j258424
12981c815135n39964l13926J47168L97478j249426J213421p27440o3296J798039
12972c153081J94786r17980r28987J957015J008551G62166K888493J04155L00274
12963D055088j210835p10800o97049j11067m77477K95831a097605a16812C010142
12953a259443l105754a709837B390130P23823m00867K003644r52379o71027Q66125
12944C959449A692551J015397R28335n57070N47398n76207A120022J491426K224123
12935D835571K469301J24166l448004g83915l525800a114892j13094K49539b65142
12925b166274J83315a15409k848230L04979R76040K23276L50234a56940p6370
12916b33310m76444k377037k520512K340455a41155B432223q42103a244032m044326
12907e288358Q54114J291654q84426J102951J126707k920886l779355J594298
12899f903301b980246N63705M32084n55728j962618M22857J116585n27047L18355
12890c172053J448452O64563F92246e43491E73948K482041j365490d76126A095038
12880A186635K72427K95265M65535r38124j62129J615127K98744A476578L145615
12871D622193L433364C387961A058882j51628d91938j12925a40417B029405n78466
12862A450939O41554J177576J5117K06622j139795c201785j643903J010559a684567
12852d38722A864745j88638E72185c4055k280661l926811k956511K226970R1644
12843f879424l87394J833939J522168j143812m59081b052939a63354A401427d46733
12833B19934J453826F00840a613034j149285N16804j40044h74730C41861a039990
12823A356417L054359O98093k304090p57227r32255M78774J041425J181036j223522
12814B593010g61422A55249K299315m61854I59656Q22725O28G29701K1088j92910
12804E57879A57699c33823A120853K454544l83974r3972a430070k903478o42321
12795d975869K319076G60999J496233o00877b642083j215892J730959O65913q73460
12786b334563j754719P92951H33325J163058b10547l104685l338908q1296K176337
12777d559099b195466g60212c10815G95903K628031M67484Q2994A066823l71546
12768F95277K775628A659823C79502K271614E87630B0317J820769G46363a10214
12758e12363l503167J644093o7205i48554E17420J365315K438052j581532c9572
12748a249859n06195G2801J156759l84509e77140j425996A707196q4517a299867
12738E3541K332291K95202J930586J589195q02653G22203b225497j60910M86216
12729a900191d4134l11882k066702l37204C27386O47440i36599p42376N90571
12720a088404k215736P80486e91390B3628K221515M243702K86323j112741p09163
12711D953264B172754b208801O23531b56524j50658l136601m13497L97577j233109
12702d792812M64155a842872A817536R0561F58216M7469c039580a273391E99483
12692A365934R23567i45427j503413E16307A0174a509403k078188k98564a559207
12682A209417D31399O4488J363393g95679r68640l18508Q03584A316401a795374
12672c713292a249310A99932J15619e8441C39843a40514m79020j417405p8042
12663b114981P46250O51482p56589k724341L43201J070858a379825j728492j145913
12654d254230q00763J474176O66054O74865J21693d41323D043971R8960j16100
12645D026831j372035H33091a871904I87576N377176q37499A729092H2721e50257
12635A645601I8413a627009p89779r14123p55530a916191r17948J139209L89945
12626a304985j534380L40695N18660A032674a1997k606950O69065o00630j383830
12617c934342J279249a287183j196508j019500J676290f83250B934529L076061
12609F010590k221107r52933J91584l3312h40455l043622P33614A442104f76372
12599e4670G35629K05892J56720A33278b217826D75091B26808e50605j901673
12590b452278j48567j162944R57895M04736j4997h06213j430287r46444j866662
12581e049606R67505K48942k084766j160006J475070a274580D61862b048773k438869
12572d487642o76899J302466g90471E269615L059498C525962b577125k097314
12564d674439J473493J64363o39217l36572h32838I85696k46566J695669R10722
12555C345521A457338p16313K61536c4502n92257m39829c76213p18983H62818
12545A540049F82296a56377q40755j027826l108578J577110A98677J551194a092575
12535c512675o94268n91494J419805K08332r59204j625046J706692A471598J348651
12526B820249I49648a053354L71601a62505j185019n23N0138A249352J524318
12517B773670d43981j767300E08510J711854C96316h49739k865245r80253a899363
12507b905891P12209q90669a334595b13592A30121O92099J385312Q02360q09971
12498B199921n18205A09438a638848k46170O60069B052099D92364b238458a037218
12488B921969n41275B80944a239405j173396O3978e02598c6757l33457B014302
12478D464608k138871j021539O04639N52470e00064B174212J190544A139767a220675
12468a072045a24951A311398J010077a671068j559352L60640i53020L70707B9070
12458C27657b709094j565717R85036J443042k997219j361187b293937G96115O95677
12449A491792a466507j649089m29674K50901m00736N00484Q71290o78425f41606
12439C083811J340124H20994l47656j28844a092600j639699O7674L86001g505
12429A740656M41376J895359K30736O0128j436552B08059a159033j250262N2105
12420b357190a039955J96309k869460O20544a064959C685902M748720J679885
12412A0114507m405291r88151J56395A307244b147318j934258l389344o00291
12404h071211L428829a322656B342982K4751a268368k901118P82151a329969p81391
12395b111360j095427a91119A669291J53906K63592j13208H97143K035958I69502
12385h2698j023154j77336E09703O73680J980122j030273D02956J75195b6068
12375a067565A410113N76501l8945N30959L83579A320566N447K658041j802155
12366B181899p19342o4251a007103l10290E70577c046840q17453a726851d13079
12356I12595a242190k564869J209151B2479J724027N1877K084790p81027k99693
12347B802453j274957C524J027967d89797p55649h9764A826319J461856J61762
12338C449937j066092N11158K55591p72610O48066J452434J38169O0894a80113
12328a848908B059546o17594a907122k764782m00110b243767B35206J81772a040886
12318A718100H00790J32315M671191J098897l201609A078328a14373B077864J070407
12309C148271C196b97008G43155K025310k27921M5601H40884b657528J20940c48681
12298A744024G00681N44213b607471j263743L52431j058339k762367J87056J111756
12289f040677b411926A096029E37083c183262J29235L46046k756158j192643J854778
12280d802004a666307e57308H4220K332875J508040r25553B88384c621036L17949
12271c303087M57709k184876j888466p70319K748894a660556e33905r77166j119190
12262b630261J00349K03466g36072C681841k63279j545877a848015k170461J811668
12253b206808C15118J456690l13709a112137m32862l376849j316125J549997R99347
12244c688629P13098j408543j783778J660275a929756o40002m60453m79067j639469
12235e148747j681017q9349b242776a090499j609030j080947J432109c85764j395402
12226a781166j140910J387135k74448j539531a365384l66213p56571O39478j25605
12217a974295J2848k018863j383830n95915J833479a435031k345369j496325J121495
12208d155230k94121m9399a694697B05817K053172M06032n16686r06808K152483
12199C394010L76004j587407j0134N47161B0407b763907j207679J895793R68669
12190a107124A462284N90778P991l97763n84769i81468l18272J78222l114473
12181d235991j248557a853553H35083J398494E52127a026286l580939j128248
12173e735473K606962j526368j795726J493888J067336h97462c06965q43155n86717
12164a736837J56691G77898a56674l975867J80462J405961j100068N62474C64856
12154G24509J311047j10039P4733p54975a006628o83979K41822A693719a380825
12144d262598k05133M40913J188376J404314G1971K27628b329967a53331B797610
12134C417925A457128F0313d08575A64041a647544l8229b30016B190429J450064
12125C640493J026377J03480j606314n76349j150764E1847b310446i38173I52351
12115B095178k4671J41325b6320r38132a75564A49944R2410L634681K994887m95427
12105F376495k062161A677735K201a146674j479936J163021C27919M156819K958168
12096G442906l623891d66806p68833G62010J173739n13949J063955Q75141j034761
12087B326135C49519g50560j51375l485373k780237a815505B448390r27438J629413
12078C150365J390680C53093b438360c10954B306905J683766j281613J664739
12070D373797m6265o40644K239431j159209j646180d45586k917645m36491k920295
12061f720017j038434N82007K149732a566719A661890M30081K92979E53336b067679
12051f131730l294337L031219K664063j283171L46727l04208a900317J75442k25503
12042a950378C83315L753005p01307j509125b352072o64927q33077j348567b128309
12032A401951K576392N36277A312799J784172K336411k87299B000943a577094
12023e239516m8678b309634f06150D6930a180050A080075O67232d99702k643563
12014c143265L01887h71578c62927r31168k016421J226526J99550M86378B710218
12004D491348p18815A377798K24678J731560L145278K509394l96387j993430j802747
11995D796144j954358d12274j671476l83241a53237A693024C70381N68109A16047
11985d44323j867632k413454J961823B60512J394371E34359J59385K297823N72932
11976C564499J616423K891101J463865j544244l596202q16057o16363j28419L24173
11967C158776m0705N51649L178836k562047j258116J141442j856365b162763l409832
11958e572595j483631J73094J402691K639002n39024q7327f60231F98561J079469
11949A778030C80007d191009j85266d18158E97514d43826j928683J96063B349537
11939B348313i13350E11032J439083l41364l4560n83916J986186j311626b05442
11929b237464r32099J400736D50335K096372K167091J792431j835816k294848
11921B375565I79991c478593j181242P63794i80936B846181Q68175p67799A111030
11911A54752a406429o64073p76294o78345J31723n55891J600164A230489L33844
11902A564333b12613B20015N45703J175949J285712m35451a541351m072877j536071
11893g150299L35587b776436A351681B04866g78501Q3985j251300r18991n84964
11884c449771o2096l354233J007854J946502g62438A261774a213744P5748m19745
11875a557741j811641n81535a404916E81363J371279J288012J279435A691939
11866E15385b6983A714126F9738d009285l401428K756515a978099P55329j4326
11857a237096J68070J19391d11997E631145K897354K095341j000924l088264k776280
11848C758372A605686d017346J250937g94759q97864O36570A044006f55441l781322
11839d436763r12486j268767l23873M41089J378786K455141L58321j45774j52588
11830b606914Q91602c24393B119347K875695O56264j935010M99862D94633d844332
11820b772944h53366q79068h27230C546889K17116k89727j47003J574037A746572
11810A675442M62535A13882J255631K826276O26328k023452A094944k24911K883464
11801C753497J834017k402277e8132l393972L04742J348206k303915K039167B145176
11791C983553K109286K269708l378040d11373j248270C49103a013618p118C539358
11781F365047k595749D58357a632698b67743A535787N03041B7683a155825K39724
11772i16101A780335i65517j253892k44019B34549a105814A480712L650758n4929
11763E076541B423121I07308m03734g28783k184214j86723B9514J801218C52793
11753I68956J16959c00801H30710A5090a970106N91908H37999K015325K355331
11744E208655j118311j419428j213310a619674j510776A081432L275469l01968
11736D054933j596977J151833R62585l04131A983464p92092J638384R70302a337104
11726b800699M60513Q05006E5634L22036N36096O40808m66329m75619J546024
11717B158650J990137A863039E67185J508165e70220m729154K55173J861669J320180
11708a862352P99116K22284A53472C0635c56804A699941a031184k259777a102431
11698b067283o26277l73604j166451J578627L4215q82055j402705K261385F97570
11688C80309f18872l93619r01643p99931P25942j019647R88360L91620D19947
11678A879733a61572k37394j711576o08562l283610K406974e83799j198570l29382
11669b111751i44779F26657K276239J237415N17287j477244j278128F21020d27893
11659i38685B17646a201071j108633b88807J05955l07180o78712o61606A700618
11649A52305a397886J1859l79361q15168k8901H32736m11832a957288M92838m21390
11639a885840K03469c17922A877603J143191R96062F85259H5563J848611M60110
11630B394284C33873N58088J310643Q66917A520340l10603a449855j283455n25677
11621c258987m89486L02641J00215k137173n10663K424938d28353Q4404j21731
11612d65680j754636L81603m66832h60915p9131l577917j050887P81858J17058
11603d669934J153241j904823o7673f30165l98804p92901O99175b6068k363372
11594b389440N79175B94741a504288l565347K414351A514572K229961p83051O06894
11585C568376r5592M49894J42880l61042K496232J095472l293193I86911L4053
11576A020964k47795K30811J935163P41784M45887k01220J025490J087364N77822
11567F616270j356563J04036j377310q58897l54999D97437f63357j354379m51740
11558b469476E1941d9811A422262R74057q46232b463207l23517K76372j404831
11549c915183R4031J649650A070901J433611K272345j337645m81130N12154a07761
11539b178193a067264J75231j803543b83640B685744O90166A641574l59818R53837
11530B235593I59046J166238K634103J322550K013091K349460r63717k353747
11522G127024A292740a304561k133608J205237r84145j089167k34767n38163a936334
11512A516881C6295K09163h87957m86953k632946M13564a761919B45688J457236
11503A702924m37587J398370K601441J626382J014938k354684k763741q99025
11495A889018E20007c081504j395617a596079b06172j811764m53002c15193A328349
11485C019323K686751L324468j881530C339456J183322j99897A320604k26512
11477A094092B94391J738694P01011j142312l56608A78220c83301B059894L909511
11468E969405M77660l01797j978955A803189n35116D73870b800111k771644O9765
11459e501990J460059J855136A160683P25159f94712a30294C176339p16941A42903
11449c295643q06843N36549b2992D005166j478998j235467J665679J376647q95859
11440C437168j359203K70259J695348j493497l44202L284195M67966o62313A189373
11430c886544n602248K943957a362001E00137J089917m05080c81260a04194C580236
11420D338395j826385L612782K550516j007440j718735B868783D05219Q70924
11412A276143f9581j27178j126500j367155A899859J019925q83591i23449r66361
11403a889810A570159k92740J456828C83685b448801h82257A36462J212082J112026
11394B460570l82322j16732J805926A99078c168754g66278A539776L548491Q03356
11385E891623j866362r944b41230j671291B023010Q49968M0721j055413J175447
11376C033733A158700c045814k113352k52682k72495J817344a662055c60446E44644
11366H35472k63050b977567p18883A329566K044378o37945K209124K354633j473258
11357E826498k876963o66771K244568j237646A064182B81244J645461O23641j96068
11348B354278J712508J976870j156922J896815n54367B601674p16052a353110
11339d338131J313256I71628Q95295d19909m96566j84814m79031j218425g65905
11329f57157j088428a42339k141334l87670J284193J32556b90269n75128o41805
11320a507202f27857E17776J475612m79073L643958J245649A870244a507285j303821
11311b811106j63728f67246D60862K98766J33470O97754M66078G53957k78839
11302D75118J177251B09568a682946A14335b194640l171202J213610a856825B556271
11292A579954m82854K964464p68345H50026c573216O73563g01154C5719b691824
11282b061769b67537D95409P71614M62819n40498l28708b21191l74750j581468
11273b177409O53154A336723q1128b047633o53982j970241K040560F32030J389065
11264B021095J828850q64475j407353R13695L802207j957422A143486K186114
11256C329600A485261C25442J064204K813811q48085l16722Q21870j698880j024403
11247A137237J334796J840183P29831O94302p36146m91279J118412k040508j431129
11238B155699H38461a992673f1359E32906J967220J095652H19998a181038N11988
11229f69050b67224k632170p90810a636726h11424j423004j185272a206573I14089
11219A542274Q7058J44762L015669K191255k906811A67076b342852r50142L99525
11210b893469a368158A400198L464968J497560l145186j603869j44891p05952
11202G62828a180916M91175Q5938o38364o69765c69279A10979a232162L28271
11193i03891A372231P76995h68718l838954J319158P65130r12265J366037Q30632
11184a338980l05453n82789j985118P62021a384631B80102O007015M52445E68667
11174b692053g95033A464643C38803e10613A946433J513290J091193n12834A596927
11164A804262n08568O82890o37094c2521D45685J370056G41560c43489n25254
11155h68743m51772k149829l932314k801121n3462M96890k150297K895584L120013
11146e895051J600139J634720a186614L04042l765010J384008J547987j62425
11138a878012m38672a006184k84090j141894j843651j297274N02178h55953H98595
11128A687703l96082f22833E38876A75084b926687K32490d48831A776735K1370
11119A798105o47611e07348B099671J161364j3603j45813o42343J082998J19365
11110C661639J75216j351134F37251b511134j762334J204609J055027O90020m20314
11101a744126q30512K74278Q19246k98674k0795k766721l86993K226672A775425
11091D226718p90878m8087m27709H62747A7772a587325j142292p51199J271645
11082b209171A795289D89716c096247i52820E42762a311669l41769N52462K51109
11073h49867J02327L48173B216846o34236c028102q13158i51483E53987n8995
11064D94992k08848a091263k914738N16705a647061d95495D2952d71876a58908
11054A560674n747L26934J611276L21139j10453a3902j727463l28964j721111
11045c791440j20426J818804i76538J79689r61177o192555K24134J307236J282579
11036e136632J416640J281699i04718I52951J464528N70578j038924J899540O78338
11027D527011j857188B38142c299550p05715a211466C862896L857125k666326
11019E053695B310401M52500H62896K17651K179085J965374j202730A170710a4347
11009e617732Q6684b163006k65477p96105B68455K468365J214612P72772o24285
11000D099919A786186a816582j923754C36105L531578j314285a589896M58202
10992a131694M99973k59730C785712K726072k47500J291121j610384k329941f41501
10982c273716C64250K536735A322152a742248p98049r28136j150553j623309o62933
10973f905228o47584j187960J013037b293672A7864a554509j459999J194452a33751
10963a498887q77181J034801B66666J916334m18592a929006m609763Q78710K790451
10954b869608P90139e42840A268924K184839j619644o35819K910352A454454b52187
10944B698321J833254j198589j496852J685938A643246a8951A735411L726139
10936E461550j134746g83505j695479P86586E05523L866545j596803e25413j623445
10927b148858d09517B238418M59385n61836c23960j754099A30945J653008R10833
10918B694786B96640b39266C785274L699163o14654k362231j077919K818938C067126
10908a624485n17508o16451j5183R73268e21685l525215j285935j338834k25533
10899f897202j456187O10366c312870a218837j0955a45780j236547o81469k82455
10890b346251q33122k705486o16136b848549I90527J547583r09442n18120J545832
10881B656380J799332j699115I9847d89047D04734J078364n47832o2530L97163
10872A269899E42645L18103N80492l50172K674769K168095k525729A576695a880432
10862c591042a749147k05205q68937B1323K224021p08585J887309j332054B01909
10852b991213N67936Q44688j7845j287872j050289j088017J156093k93029Q49586
10843c309962J363590j526475q06121a986398b52173P3805B918953j02455A5700
10833b33259A581652a22756E72407M389537j747493c638232n036595J68455K905712
10824e600660M41380k218226O55131J247188J802854f40431a34174j17038q39737
10815a090949k792584r48816J517507e31126n12531l09197A948342J965854m04594
10806C509602b83109l644534f70110B026907h0218D81784b412790j333641j121759
10797d868190J197706J617969J02465n25286J136570n89848l304378o31599K372139
10788c492452Q02235n14350j155494O35554O24186j207332j80573r04563J578021
10779c814768i62169P119j251695a058321M93720m13777k127860J110249l8852
10770b034841j771422Q9459o27277a496668C52069A11952M725972n26256J069989
10761E381657j733033A02317b78104p26905j157292j833675Q02420N38038O67074
10752a988444a64066A120998E18877h57057E05354a265692j423413j129248j236134
10743e054487j059079K59356b264638J45237h83999G94036J890545K458795j54435
10734D988941j842808I63970N99302J749267P40495r12943q28005p28891J594719
10725C177914R69539l75176j016952j291340m11987J901812l51591E86495p1442
10716E15053J96544J75949i85666j489334j958561j486613J685099a079097D26339
10706b264146l286162K594277L65982G85860Q71862m63672D35606a909040m028605
10697e937645J803945J327215i77392M12827C24224b07948F33717K428443P56138
10688C818298O1579O1072J194714j644597o20918E60316a079197K52189D23713
10678a84135q60021A221276J003783J917643o44306g02636n295574N51263K198090
10669c248857C29169J614208B14459b782531m211220J233056a788172b45265n36558
10660g81823k676465j175876Q90745f23365L09426m28827B693515M336627j540992
10651E489150j735120n60229m0123l62942d81930k721900j756077J741091j45345
10642c364161j737702J525993J718808d73629E297130j793521F51781a694173
10633b200459j421529j931645K758306b8301A421530A41678d379511L81517J996039
10624b001955l24302C7439K113347j029351a482228k112426j541112a614842I14784
10614d36502k467181M59720R20468j151704P42475P27512b41048p30224j170592
10605b141864a008292H77821i50475l872946r6564b022543d55714E49576i78778
10595c424819J67006P10805n96965J348615c53795H77002J966221o78231a509574
10585B93413a982653N39928q81269q31715k807705o82121b617255K6406o54017
10576c244866i46725k077388P70005A205174C6889a863861n62061j090832a081719
10566C23864J005397M66188q29736c682540o93993J017395a574631F73899J605755
10557B279654a79396K8327H52093J678267I23085b078236j522073j551345J548503
10548c603151K3176r77045j605724k481613m35772L391144Q66040N30518J406766
10539b885661Q401h85185m76851B84976b225029m893357k228751K804712K274056
10530d268369M41438k62350p55956L68607k293017m04501K637675a936475o85888
10521b622363o61219Q84612a196381K36119A418438O28770d02479j119183k866169
10512d387831q1796A358958K701304j633089r8764k76709J768204K879701M01649
10503G101254q52031j124159j249794J405701L39379q92652o63869n26673R47487
10494D484643K589983J3813B944790f62687j151663N36830A590018J148471P67549
10485C506038M71485j951609p31783K268467C94536a550864H61652M132876j804988
10476C189540J37500L66144A135356a147331a55867j404335J32419o26836b87599
10466A026409m47715N24144N22979A62511c904616l80383P52808Q10998n35656
10457c256849k31237g52269C701856L039328k620702E37032i2318I06265B25183
10447a629412j893533J650406G19447j44868G2240a196033k171948j210242j309994
10438e888217j616599J188196J830013j97744J248209J316465C31647O84422J185406
10429B201475p96767L490799J091327k119818j136146J317054M4169p26197n62213
10420B803683j366534O49948O05886Q14520A10716c463469a174389A582255j86527
10411A395728M08145J286931b90290o39854L96949k86129D17594a362834k83078
10402a645912J49763k329252a215501d39176l194544m2979I3130K322997R48919
10393C365046J763583Q08418n62177J222315J565022k97808C705234b773357N78410
10384b194947L82875p92009D21868M55432d451284k292836J581690j246293J613368
10375d795355J100748J662165A615773K75464F25303N103M95368K32909L60851
10366A719534J448651R97866N47809J235637j575433j401960A391068J719287
10358C110355J62346a937718k889242j21617m40556j95052a826525B636371J383862
10349D020233p15139b34016o81799q6690A2153J658698J077028K192804l91019
10340D549664j426824j416945D04309O46647M301369j682172A336733j40675b369247
10330f292048k24293R61132J542423p25396J102890R36165r79572N35307J357652
10321a785740m36895k110390Q89088j328490r93679M20240J825977Q57711k204859
10312d867037P25578M45655j485653j86997a862481A094563K611044n10227q71007
10303B324373B39725a769681j34247M40186N41981j76232C24556L505281M788128
10294H617965j152370k179536j284720E89432i19594A668218K899860J75308A921897
10284B985504j194012f26481I75265j73533O20820P35339k63097k88672M5443
10275A651565C16939d076546L77587P16614J172081A250426p9391Q73292J546965
10266C591292O14888E94666g52467l69822I66855m79721d494802N3026l11894
10257d753670a217913A479326P84321J336201A194592b523074L49975l21922k341439
10248d836460a509994A308520M298971k011387a079721l964334k561954n22677
10240h128686J722897b006704b48775j471550M40232b75206H62177K810917L212215
10231F885309n78506k700153A141574f3144j519432q30103N37465E90252f86264
10221c704715r35246R94690H57093J352703K077264j223500A398599o72123P74982
10212A501458h14542j922694a332657O28162b63417A415966b180756Q55753j720126
10203c045129a505290B091958J84348A34111e63480b49624k108389o81899k88490
10194c328402g24944a32798l80587l76442j89065a54013l28403j886356O8316
10185b300456a139943j211431r28261g93361I43915A32777a532694c66684l99897
10176g66581j562622j131909Q44675M95523n46128p80250J335891k36510j226530
10167c574441m19458m44669j702100J089013J941456K02033a306816N60130j337672
10158b084358k631739J123100B2297J487850l44342J209778K544947l48897j350670
10149C220963H71138L12930R68450j61709J676400K89364O89532J357308J677543
10140G680956K955256k955899B648763b142295k179434J094676i84020c4873B388089
10130D802107j621892g2911l455941l786084J747327B86630b62924k950781k420674
10121e634379J630688f80778D21126j61792O13254k07368a264269c70021A614865
10111A515664R99602J2443k52600B12912d57981B009667J241181a946356l765838
10102e712194J731767c01480A870382K318905j37710N19602G33188c517468l947060
10093g464528k51584J396714K49044K912981j473732r45746K373822B07044J801625
10084B008669b04984o25696E09996K379387K651001J839862m77055j789320l32750
10075D781121l50046j516970J91677n19268p4061a131943m089191l077356K054005
10066f244485J949917k042196l669404K451479K893053P64636O09865h98432k03255
10057a101687r07061p65515J161918l95457m996641l84648K957792J572368a153655
10047A698971N700715J772483J052986j976270k344244k821279l70204k45849
10039B467309o88112a174687j533520r06501a672847h4544j48602r09647a16665
10029a881566O92816k48164C25779e3349r12575D71286A85860b03971q93705C95519
10018A03954a82967C727209O994A778098l05307i496H28422L234880l84833A597727
10007b78407j62673A340365J137899Q11892Q50171H36299A16961a796467p13622
9998b510089N99091l64786A92119g6500n03305b17385C323524K548682J752317
9989G624523j487838k776150A366810F63110b64781A195419M77338o04927N34548
9980A602378Q75427J787368j95355L08305q59605o06366p40161b580756k009310
9971d590066N2117K049249B153707K423606q89724O3479o03263j028464E34474
9961F575a741632l29234I81438b282092k075696j600088Q31032b084660k65969
9952b350629r09316a289122B69597a900379j304628M36895D74623a718134k725060
9943d443194n19540M70714J727993a27651n45493F42811J493786B15914a445369
9933G23226K208867A136445b077565P78593I91276a532080o68885i41742b98844
9923D99799L00837A83468J252916F84676i49621O945j48507p84046N20666B133445
9912F228032J89797A373509D15442N097436q89608j383738j249675a22678I73059
9902F58028a538228j44388C580139L408368C073503d100577K87244j298030R07105
9893d204258Q01590j867039J173097O4215J472098M52418b69348A135208K152915
9884C288123A625400P0870J16973l80828g35922j455091J55509D2911K088425
9875B131336n61213a9947j870676i42624E62337O13130J566132K383283j9800
9866E105082A988328F92811a64110A866512L36675L33377A112516f82974j841914
9857b524888a223835N05929A504139J547896J263401k70447K96129j788949C08707
9847d80703q54834e22164p65777k769770J635207A674029R74284j323291A58570
9837b175347k968802j919034L493826e3134A292255e249425n840149O98060J934389
9828h457125K132936L114398E8473M445444j018487o47728r22119A11173O3604
9819A74777b968180j363498J023659j5909J620464D03853K154223N66042j399831
9810A724287l1666E28331d27417D89838g2656B27508K17642R21035l8246C04211
9799a429259J99498d67662B231218M49982l36195D95248a210781N59892A994611
9789A592686p93644a947341h91636H66127f94493n64733k662350q56943r27494
9780e706013k31111N76941l19826J105791l62998b378768j523948p16215n45939
9771e164870J078944a885134o38230M93559e9539A304556c95279D95676R67101
9762A462777F5578h3509C235016K012537k204159b114819k954566Q56542a003901
9752c32929p18015j059520A38108f9479j547600c99527D77120J515142b213202
9742d869858J153893a052583d95301l521043j121267J2152L72058e80925B737185
9732B679933C19641b618770j82357P82145j915376J249206M68075r83965q25339
9723d026381l08704j176051K634822a80660A013183a261549j802090j511449K18228
9714d356860J868632J30409k249792J534134C83758P8597d993059j044338K362984
9705c674413A365477K600344K546493J29717K80091J85595l521699j213665o32535
9696A739818b077206f85300A247461K295221r96282J279248L34873l97092J042960
9687D806389j819597j285256J098922J143322Q5166I00367J772141M44726f46702
9677a927450p16438k174999b165253i59711A169644K462186A034077a474479j193493
9668b667972a081971l54796N49474j620378J121676A184548L615636l94007q45387
9659C560790Q32013j95321a382660k635148g23371c61641N217F45326J490275
9650B135601K78753F0189d283320j550623J798137b68436A676672M63547H04590
9640c27140k341038k467626J255277J340249g81836n47295l882A07659L10867
9631D18526g14346k1562k010229j831806Q82351e77359E33708B48581K67841L044585
9621C561007P75921Q20183k568203f42344a50761j101591k71414A963864L650972
9612E614836n01093J087133j545599p83630n04414J802145K84587N31261j280576
9603D704650j568825j058612L66092L079514k592315b447404k162718J026750
9595c583372J477128M86136j923203n24413Q29190O20747k91226l204412j371594
9586g485019j745531o8082c880585J924701r65718k19538J520655l353538M58362
9577d515661c99380r62470p62355k21380e82353A729095D48939g35643k155121
9568b890764a22721B23157f57353O0709n52820L90441j386635j735636a739790
9558I11301D00729K629498L827404q57925M43135j869148F94899A92372b287829
9548b865455j978759j416691P19863j880521K142694b025768g24189K86932B499869
9538D898596k73650A412701o35344J802083r63531G90076f78467J23081j220172
9529a775558B310332c39620k262641j512032r8143J288104P5164Q3462j781454
9520d547160r4422m08309k04052J413084d73566A373575Q6078h06251j3906L82402
9510d37755A53396d020200k339958k027429K088537K595841M08269J016756N3018
9501b225166A390171N5809A14228k5773O8531N90946L545974l8288A364939E10821
9490I8436K89957K35310K72713O83450p06373N28715K410757j136815a34098k377533
9480b511631o85358P85617j276442P62379D7362L31196a493207j159980j884520
9471d537707k100368J602407a488060l17165A195461K49843g95184j014807G28929
9461I47567B93268b176750h74540E386547O23959k039739O5908M52818P23067
9452E212560k218408a553667P6531A53109a396607m384453n76513K76009K718253
9443c363311g58130o43046k396959J847135R34011j586158k431323r99226b605606
9433A407343K652731O56296j648548J774248B029645b448272j204034a765348
9424a062299o03052l353779J565877e04241A89503R10989K407937l08376C33637
9414B581260J285982J367924A742523a304357f12852M6983B473173f23315A434738
9404h23118j338842M70278B669337M130297o6699j930835A136384n17384J864555
9395B483555o41671F96878Q65001J199709K540457K751012q11364C135966r74883
9386B161083J329392N84700A050713b42672A495900B25604c507952j482660J027119
9377c963493R85289p92723q55475J55049L48248a610066A364852b574895l36648
9368b911543K02079j015157b37080B024199I83785J235493j47793l1017G21892
9358a574691b17244A097548M777526J659917C333898j122554J278519O59033j176684
9349B972212A103772b874054n51153L40670b75737A775619a463450l448102J16226
9340d795326a945700H80845f58387H45259g17831l66133N22186I07585g51988
9330a097742b2012E21036L87247J208013J578459j309291A83721a346404A154964
9320C228209e69073k147907j322847J424318a188672H03372J459597k88799L19631
9311B293801E25476f99893j346464B39174N173363q35401o91761J205488B130053
9301E71073J163747R66702l38379k80687m5700K014140L359840o84468j877174
9292D849094C56238g47294b87891B40764P89539A31715d90544B759296m34322
9283B324974A039867K219595L86748R50886r90079j458219K154681L670099j746779
9274F226799A350075P1352m56714d32420A859504J700580J012180j778618m60083
9265B333563A83596J322809J801293Q00658p12285I78786b133003O1395B09834
9255a127496j171975a136982k55748j063550j910836J281505d32487m67287b9161
9245A923276L208984k066152I76142J723043k84977A38914p525i08095k667217
9236c575312n4703j059314b133406L29391J35271E91833d94978j863202L72087
9227a986093d9758C521230j615807a586595g60422A770645J151681G10258f97934
9217A489609L811364j028005j88396o10048i40800L20871G68939h06859A40311
9207a72307j051624d51906A416337N92899N18309R48795a484929j878801O33439
9198b730291P59684B4118J602558a58762F49379J285675J138726r77794K837306
9189D933292O37701k577945f47681m751271Q17465a962969H70182J938736C26675
9179A964996F7372c47096j105053c45743l04480l023886k302668a777228B54840
9169a414829j937296J187177B98770K569382K80323l21561J221309K45020G66085
9159B89037J716962J435281B47983d857373k359542o55981R64187J962426O35584
9150d310699J987857a082131l718332r81607l7345b116547I13779f75297K92127
9141c83170C337626L146740l35023j472191n7349n56431K985531O875937P224303
9132B1149143M605132P014550J0719391K2762616L0300421N9585073J20570164
9125B76706490J83259333R1037221j25204404j68146347j05131748n6314961l1870864
9118F4334720j7470047q572790q980360n870534k027179n27358m316903k45249
9110A6324300K024650j741335l230512l250992J738022j624398k616768j353219
9102F269748j488040J823034J255001j708171m48724j547146J104347J676958
9094F937007m74489k232711A084623k81615B98927K597080q64852a770401j057026
9085b827427A643168L574357P5073K5271J568836m27631B235592C41803L193171
9076C534974k14265R30475J108284k36303p44518r34952K20112j677594a005613
9066b817514J060672K16327K19988m77660A391067K194196K133046j588517A608171
9056A055279b64414a26733B850588J737686k007437D49731e70252j039734C4863
9046A360587J91043l20182c88258k085218k415568b293164P517K99776l028602
9037e014473q83055b033160a24884k207004j742283J101169J175315J17209d35424
9027c498140k715276J620548i19403j122145j372924j296876N99908b95162C038296
9017A911736F89506b219530o18532O87695N62945A1140J247649J1167J227620
9008B497576B22787c144729O18758d06119A282742j99049P86110I23869k88437
8999F35432K376139A039805n18678J035460J855698J816007j216243A691821N54793
8990B246614D42477a841980q05138l62452k572110j52599l44698j449343K629032
8981d899288b123364j092741a208127M93878A98086J083471K154615J108120J064731
8972E609023j523086K497825L37118C448645d45425C81569J238811M50955a261860
8962b369542G52247k10083O12249K668972j047756F53995L77767K70627O71211
8953A973600q16156j23683a76710j951003j016471J263243A28303J036328m53534
8944G11097e60099l1087j564588j259899j724464O75748Q92396Q71318J081369
8935a619306j037951g98955B187994p17274R04577K021650Q57947l90581B107661
8925C93269J809860K877211j841760j495931M61805g74034j113060j165775q05470
8916c858339p25914k83275b122518D17328N49755l00262R09832m72598m22874
8907F81181A29700a975851m699135j383477c268272b06130A748295b84971j761914
8898b046885N73975c77006j19366q05879k526680J019687J245617k941052n07291
8889e011970j314825J144812o83642q34068J98082K950334a712274K16479N08250
8880i87545K33954j599744j413597a448897c37991j556959k956975r39307b064723
8870G37476K11028a403045n64375n53711k53627h44329A896854J474047j375510
8861A995391G77784b098902l43948R59129j852276a162426A966355F07663a042139
8851b578325J193844A117363J397841J009772J945565j99872k30687A639121A0162
8841A919593J160766O1908A174405j89415K382730J078432j288102J642460K82542
8832E083052B129279o69342n88868D04109K654055n75358j27564l34261c069718
8822d146180A47183J583443c79014l572560k143233R0583K29512L92968a122023
8812A805830P12862j145404b454818k125115J610633A963862J180145E44667b62454
8802B017996J060279n68416G0454c391395q56391J516243A641497K375260j838210
8793B178547F46197P16364o08300J408985K331829p14405F91868J51769K323174
8784C166811K811553j533034A274480a833816n06597i97137B55888L216169J217419
8775D689476A703931o79070N50703A2450h10474p19765l99561j32286P42607E58806
8764B962160q80104p35224n71107K292873O59824C60230K74560J355410J714069
8755C704269o27844j366676G24636K160359j014150h30317L31992j228268L48133
8746a378460M53343k68198j922221a398983D5132J135512B29872a54309A020714
8736h94775j40590A272114g56551l1846A737314K858601N68807A816514J670480
8727C486994J363129k419899c180379l75289a218499A091786J79183n29346Q21265
8718A562888C63300d37774A061786R48410J481256m10352J056395Q86566A888685
8708b44431j446335A033103K867548k94451q87971j153319O38927J989029J36636
8699D329502j015933p19611C83781a15165k795840k399627m05203K602428j619951
8690d733358m318929J996134c223128a207515j595258n34903J048582O76114e54209
8680c338769j736254M86159j369757K509165a020025G53374M34895n60661B28560
8670d67875j017301r60823a120587M66684j61420E59620a462295p61391j11131
8661b334817k640547k014775P7571b740241Q56801B00170J826236O94974r19166
8652A802214b323738k313376l539481J150942L110296J561416P60045K82441m62349
8643a773804M75166M61844r27414M22019j09457j774779J348611A078080m01226
8634F76854M58278b90640l2941A750181J153236L368710k792232E54750i41690
8624I35375K417268K74279n99999C46735K304013K740486J638109q89814B667667
8614i46845d38071C554564O13153A979487I89446J467272K209775L84530j781510
8605C269513H40999J648472K732382K518420L01319j192950k040122j942649q15493
8596B050378J155058M29256p33885P48259J633236j777972A613695b274439i93041
8586A16596a662805j47854l72213K076p65432o99993r2860a748552O22448K23118
8576i02986p89463M81973A038927R80221n95073M6586J479995l57410o70241a824114
8565b751213e04190k172534l013902R53359n5371K14833j289108j568745K705951
8556d729707c37995C008771A89247b292202j235032P35471j817646L1456J575503
8547c002450h18227A704274J365218j020657B8870b594999O66290f60044B053230
8537B791741n20234N59797E95454c001875j300621a406755A886367L161776I83251
8527a456382C888220L364018j957857B488866b236019j708638J408703P93430
8519a742524A150701j85005K022302J176125K57199q81454j583844a431059F8436
8509B511566o48307f96199k281161k446276J707917a825386a69268B92547O65371
8500I57918g69265A255335L42445n68407p7133R04662E64224i11062j284464j321001
8490c516527P48651J303153B243225n68998f24656a82667F4911J973115M57287
8481B495313r22545q2006K203718J200740j619380A045398D06304a967884N40259
8472a427625A437029m92749a917592m842976c248822a174548k15272p25710g14518
8462a643599j680559C69684K847280J37113C97115h01024I47468K213558K443317
8453E604343P6291B421123a554179m82247A518482M344084q83022B389029k79193
8444B109836K43987E19662e34378j671724r04122a026048E40801J421772B18920
8434H63031O72225a443685j290214k085255j802149j14667J665362h54300A552600
8424E51721E2841a392729F90682Q82624A49995J61393a22919j533A872447J329493
8414C201940k63165J938414J712012R34916j563574k540476o5884r06440J553731
8405D001474P81898A169561N29700N38902q69061K178488B40469b267387n43051
8396b810438h4353r01229L48106p59229c96235l4722l81701l42851e05756N6030
8386d49726k935121n42729R31260M51291j6044c13778D7078J458116a499956l656456
8376e156412K270918O90821J076633A809522R78012A271470b931374l678905P39197
8367e871082b123010A267988C78563L55789J500290j20766o93825J45975G29228
8357B797093K419292K24998A875914B41521g46836l22392k532755Q1271i06450
8347A113784R99945I16314c653750j89550A840773K679447k03648G69041c33603
8337F33959L19245L284278j83209j115066J180272j481146l37358R76129J175740
8328D452844j712244A199756a468471l029419J080050K82100e05940A196257O80145
8319A876402L41223k6076p51443a263913r20949B86185K807453A123968i5818
8309A204927L001815M21129B026539n24209E38585a315531B78482J257046J556746
8300C092274K555706k255441p92024A206216J42977j44850a058582j965468P51384
8291b272666m67411r99310J747911q76370H43869J315804p32636c16666A327322
8281B218791J033614J211816J554639j465171j373182K637402J119472j846793
8273E090588j801193m45492p92976J011432J660355J268252k428957H49829J068481
8264A918310K36535K224829A933268N81665K028097j85989n0344L53052J958553
8255F618302j694140H86941c83470A826140K079714j61022A683751a493294A086348
8245B345604c22245k630544J218397n17348l222935b202087b69726k530093l251509
8236f051328J969117d70864A572983K25647i3435j191770j356961l37176J052926
8227a926416P50130C108606M111144j095379B745402j052960M17637K943940j523496
8218C530523A61485N80730h45677p43469j253465k13536A28382f69355D20241
8208A236908N06260n68423J238904o72198Q98828L203195q90333A558643b509466
8198b940601k49523h11054D033073o6897H11137J103841M30252f1297j584042
8189a645339n97802I38205K86925P962K129589J353710C45147b853551J21742
8180b731809n5144j223753M29546P76362j796971N0389J076242J460468i97717
8170B34279b451421j923093p59553N056a600065F08840a162041j132458L45442
8161a949057j213320R33200k046824j636752J69368K055204a111639C55018a149825
8151d440079k279371J015308P51157J052753a222116d67871b02911l74021E6556
8141B210961J345834A707236A78260a623801o08286j66179f38490B071380N77406
8132B648786N04569O01693K87424R31878k12214F88111c268862P45315N5815o32804
8122c100536a2026r58773k861775j934808J385154c17596A591298F60084A71026
8112b191918k473695M09235L10358j95045a821116B57483a619369k351673j202349
8103e173391j229643j797261J671555J735672m27505j474011b233172H00462P35971
8094A536433a773506k458858j078286J407349Q46125o46518r21419R3822J821188
8085b710103B227557K579022m66400K224801j71388o27831k671226m51852M9150
8076B691833K843352J6799F71483a961946B34433K944569N07684j065332H65742
8066a21745j307770J97492p3293k427255R95961b59350m23824A395894M340590
8057E736484K238314k331480B480567J40992k25717q0713C17457a585601o33040
8048b218641j696176J108249i06003F4416K923854K90547e28480A744733K238838
8039C983571H89154a654116K27948k625911j146650J950134J065072Q86838l86103
8030a682788N70317A610568K246692l67322A106078J155263K189590J37463q58653
8021C729741j034954n65235j76115r19389h70755K97485A790056K687464j718771
8012B758749m77827J578646L737354l02051A292821a107858A285545K49876L03175
8003A838596K756069j539328G64342R89629J561869N73870n74497A181441B13369
7993c569630l98397a421707B700312K811271M14028K97463j523994j395199J53348
7984C457229A613732a96215j34319A436880B12246c28899B08683L272094O12161
7975D092938p51761o49889J57634k31826L00979j441785d10127G49371J168812
7966A918183E5311c645116K0376d63127k063079g79095l11524l095933m47193
7957d633745J008707N14692h83977o7269I85784M189070p73029B48029K23946
7948D71975A96827a238941n13059h05493B167191J975518M96232A967704f99986
7938a928715j084111j14975L60127E78053K893190l46791j081829i09201b1793
7928A205021A00637a546482j53314E08308R35556R14300J310163m84230A090026
7918B865662J892612P79854k470579J46284j318488H57797m27200f75516B96143
7908A195811n54722a491932A615062K96812a453811p90884P60312L31003B71993
7898a03475j759311J40519j855627j182047j857553K172926J287666J54338a257115
7888D95661O02715C74330J197537j26832b72656j179955N41770c15033j772223
7879b087256K54276h64576J70013G84594b91747j780419A59517K095957O99909
7870B955383n78349D88973b78570j440267j617442P70710c76452E13365a603608
7860a021906J10453A836848P42923J813278J292356k197013i9431p04303r51569
7851a755303n80997j708227j123196K578570O22767f71545b38367A058386J840684
7842B899070M19113A597873h36931j768780J33998f87598a22234r52859j467981
7833b543074j479559j696630k9649q76092J187452q60103m96299Q89245M18119
7824e486590K356031R11555a49909n98579l318587h76561H93376M81589O9956
7815A444921f41940J64161A481558J387540J587096j025928o68855J891729k74620
7806D378520n52747K11946K039922p46780K122228N66371j162466j239073B521669
7796g63307A445762a223398j130439j98931a152218A895450K764639J412595j522947
7787D549737j968415A274673a65102j219044l500687r13670J262978J66692j431180
7778e800013J925345G19098K495024P83364A673366a923911j687911j662192k350642
7769g624656J325252a875497B099566a7650k33374G70441K021091O01030j496441
7760A896121P31195K735217n72680n94157A855881H27764a170967n73109n21239
7751b265315m58349j913242p71467K433157j431350j873011K557121a124580m17454
7742a542034e79353j44065j317107c30120A303741k94572c105393m942882L280358
7733d767917a706807O28030n92431j916872O13525a86228I65012J786169J058491
7724C809672O32093j864986j245112d6246l14347A920329M22425Q22949m0476
7715C125227l82442I12655L35655E02358Q42080J646701N30662O88255K126028
7706F336084j262808I15803a105894K03808k093002R45687j3584k06920j347059
7697c616964K2906n32388b049127Q10630j351785L3831L94366K41491J07684k63801
7687b076711B507654M76436c85828H24675R97018R90814Q50409a64449j762870
7678a927319b88851C040750p9529A196969a390860K57732a26409A183717o7941
7669A115776J46766J184952f70989j180407f37003A372517Q44052J292220J095123
7660D603912j124171n77970k58742L068496J963537K75971K24871N8788k296718
7651E937974p89368n79753K382418K39866k51400k251106G76822a180734A250036
7641F25353K836690J602526k513054A111606a475849j251323j774930j277926
7633e780028n68687p93140O76306J985414J362364J80747e58212r32261k574088
7624d064561J927949L05009E64458J369712l48371D48020K74422N91781J980119
7615C294342J290277M18977R9713N42166A148010b490679r80592j418485q80424
7606e770180J490236a987722a85032l02173k438589J330178K66077j768045j330993
7597d428577j42189J715828P50718m68118p12965N67146o29453g30974E422208
7587G079114B789269e79623A17056e32597j57275a76753j167504q34458A793851
7577C202031B39780K72714A56151J479292o90374Q88108h49595j057798D50389
7567A031256J770481Q64370R95668M25087j265740H32529P7641R90607f7438m776709
7557d844147j82291p27127k325916J381550J740276b151393a11093B801690J118651
7548C920341A881871N18229P07086E3808d682549j290229p29453K24994K743595
7539c733642J224030a082271D65596P1437b35161n29659a8024B218568M99687
7530B718255n13773j028349b974381r91707a391456O07656K15502B72573p1443
7521B01130J149845N87010D96690A53187J001788J816616N33774A212657d3245
7511C033324j094538f60210l15178D39938J072430k28846J90620J895938N7014
7502C427094A641662j18067d83125k552598N51194H81673k63648a464693j148908
7493b613601J033912L33885D82197J555514n86611j31588a146848h4315A290201
7483A026373L547358j586347A484948c303277k020233J907613A747293l15427
7475A431866k72707j16282L32206D93103A9132a740467m14962j371026j001007
7466d527462M57375j236562J836810a209521j408139m41999j938692M59019J022744
7457c516588j077398l01190P30003n34063J517978J095411Q26635j285674J33720
7448b411166M39186m04140Q92117k21986j126187k573700L52888R83030J6872
7439d053086K05932M15768o3108d39828B246085J265669L81361K318823M29163
7430F641101k663223j170973k12341G07532i02374n25552Q9409E7159b49565j925342
7420b174907a086223b86052A384306K435085K59624A990959a702577r86267e96429
7410b703122K61975D01528I6002a345143m49273L35444A12455K611099l56765
7401B366789b68687j622905B437562P24740N0385L943449k18577j600414p7271
7392E259874k371342C45260c115038p62949a517566K82121j481377k971012J252818
7383d435016E27368h24527k34237o58975k89810L53082N1142l7931j15606k996641
7373d753503J587637o95571m54815a434471B356685B70485K189316M96094K377548
7364E333443Q1001A814109h57727l732775b139740B770531J942518Q0908l54268
7355D439689J0498j496387M37705j598782b586014J276232B158888k68156A37072
7345b595473q6462a073745a36020B2649a76699E55412i23663o38863f68473A24867
7334a452392E99302K21148a013870o00643A083383J677016N70450K07439a04046
7324c74133I8796d079567q51631K345667Q04625k538765k023191K533652A18080
7314B450148a826525k596341a917305D505005L668615j446123C355484G42395
7305I84891B5492c9072j860556k814217J169231h64126A964385J192699M44068
7296C601152J753510R09551j64154l87718k701871F95566b381744m38180A342644
7286A495959b051056d16116B665475N08715p67403j31121I31157O44581K868822
7277D444560J656166j735203j66193A18965b280182a81310A727955M98644N05523
7268B732122A186362H2804O62150B38552K024202r5127P17995J211791J312900
7259E410313k129232A57908K314553Q66879j531180o80829P176J735688p73319
7250B096876K866369J66282j657460K481610J599132k468036A870576A78199a776264
7240a976666i13462A594258J306415J424710K180002M91620n37560n41368P5956
7231E994033l62485k03992A649159b677020i82621D458192J663241m52465m61855
7222E207113k9486O03083P43623j702330a137493l501358J137757M76025k28460
7213c253529J293473b20599A464338M06601D26615c438334K15823h02644I6276
7203B963021A59298a788625L91376e54844A058723m73138P82377J549535K307411
7194E224908j649141Q0595A164064H6371a145473j270313b86774C896910K601492
7185F498402B505876b292900R96710H69562J6265b443466H94783K812117P67096
7176D473996r94552n93674J988658L506754k086960k488176M46699j580087n62610
7167B110048K505841q69308j024930n71075g47435q72703k999663j398315a736338
7157G75971N29937a552907k968446K10309J157433R84666i32095n73290m30910
7148a936295G20512J394903p41504A7583M57879M010584q16807j16276j96438
7139C356525N15518J681656L793598j615966B570261c239113l913601J165538
7131e987176b378882d54722B501922o53165p45574b490117j653328K021566b82968
7121h22734C401157J883479p902J220889Q46352p99898l18376k678972d79480
7111a919238h75658C88493d93214k177416j152251m25554a472429A012906P02045
7102A714951m82166L70862b944428k987376p00792K613973J19835J046016R21877
7093a930895c06732q77652r99535A387262L108759B048891e70530C549437O53496
7084D202933R83569Q50059M73589l118321j637302B29993O87980a176521l191119
7075d367640j477598K339703J085521l289326N99652b041049I96629Q19315L955301
7066E771245K661477q94984j364762j356104I05942b080024q51300p89001j288765
7057e009090K1872p60782l87852K083311J62185J715760E470354J432141j865002
7048E037493n81611P37515J47028K00815r00127j71891J95739B225099o55599
7039A569500C07015O89854N41465J745648k77721a14984j156348F90556Q81913
7030A572469d56544j608656N828j691322P86913a41215n06673j811481a025079
7020H24376F5457N353J645774G5393e040002k238811o9987K21984J62724K173855
7010d790237J186971J070853a228325j825795n90260l59106J150374R21204k017451
7001c949359j470208J320353a360373A56846R08916K524222Q28914J5456j228439
6992C205915h32772k030787J273291A742311J341503j199511G4605a600908P02641
6983h98267A735567p31017O52951F04245a650748o64815N3405L31282b4452p64930
6973g89382K92409k028589j539242R48770a331115f23575A993240J212275j027480
6964B178035K737614K899151k115184j815292n27503a750510j038976a49908A573679
6954D308637J861323j413395A439567E15042a042644j895769B308022M016348
6946F324370l054233i00105A234210J352628A228326a555126j803683l55901K4184
6937c690526k57650a577783j466781k428851O99429l904778j262147K835467L043686
6928d061758h23062m47529j007213E59981L611216J499312q52355e40852l412851
6919c953703L99057g16773a49353j380969k61071N60236A509959e1346j135127
6910a186473m10228o27423N96627j210409J022974G2195J009009L315979N53585
6901D950768q52689K079955j126640k220537b229937k41689B92926j19005d23339
6891E72227A98693a929230A299249k05702Q95972q33867a727704n149872k417118
6882i294694L974557a282007M06550n99042l17535j344900A69251K16255a333110
6872a932021k936458n535347M11907L577515J874939j69117J683965e24132A950646
6862C035045J832256j47367A550286J1897h77855O7261B894545J182702C00077
6852D58542L104732j31408R23799j324506e71954j376055k323999j206946J670298
6843c808656J031796l10862J57748N70310P721r45403d57457A122315a73892B69426
6832B799604K430263p17990J750636L2229l055986n16510K213067o48203A909205
6822a21945q92984o11911e42748a54156k092975O13659N93136e07394F90485J592435
6812B282920m03300K576510J722872j760707H97678a836408q98656B94666K176127
6803B470793I41677J284110j23111J790529o67838F92050J14681J106993J114585
6794C028309j44224N49677j090613a341870k737470J405355q8087R55668p65188
6785b571592e50966C782828J73247A794814D50420b492168M41473A57156K299736
6776B456892K158529k043920a123100k094876J62340k855239m97685N93534k16734
6767f031760J288075O96512k72634J390125f3241A781863b93649o93442M48575
6758e38516A979928q95095A65788K7798a213337K49857k44505e08973j99649l246684
6748c955306J124352a377019p79062K5044h37436j622732l96598L87680j534014
6739d003100o37305k109530j276525J019350K173324j000718b496951G96910J532934
6730B329844o48328P75242J924300j765445P7300j334945f91465A82961J78713
6721C61674A11394J693141J89861E09515a031159k801166P43334R65057b01225
6711i20876B49742K022014c31324k194582r40118a353297q587d81974n00471j70167
6701a152612A917933J828365O5819q06728r13936h49602k866763j052044n06312
6692e274721j184019R09111h01924D090641A181038C00978R2237N18120i47520
6682b979671R61302f54800K8450A593626Q55833d52688m415111n8754a789314
6672I6052N35605a518616j775999l44528K3997J385039M8583k82544A45366M239187
6662D384553J521018B627823d34835j690476k972054J532725p91922O93818J8726
6653c644018h64517A746158J52134J311614R29001D24204a957098j914779l21064
6644d192941h31019n54085k891769D68018K519541D03969a328289F8430K175153
6635B243583N02353L82992k85301K670119A872500c539591n60770J86683K2298
6626c891380r4407J120521c89229C154408k77602A284467J165513a18838r04255
6617a023093F65186J185330Q27790J502282l21857J93786L544752o68547k456812
6608D471910B106110n7338J087145N57028J72787J370507k078662I62594J594764
6599B557358o71636B86552b80059p14704M29259A008070Q21351J167559N90651
6590C587631m15125J45921d08857k315283A302239L991553J91292j122196j155715
6581C207173j255756H36652b218138H81290K727022N15992K112681N41450j417093
6572E361342A263510i93367m70320m84811A2687d26584A744986Q08132n5344J674662
6562D172436J535804l20960k085815C02351J109677K903090O56557k435281J345409
6553C881803K064017k00201k385098F13954h16121n00788j739183j5637j479249
6544d550978l2637M40760J660222j664560J291925P11580k77436c60284j982668
6535b342952m00132J093347p42010M36944A129230J383294n5773B27596b642217
6525c988410R61033a400414a57284j598068c51883o74641C50240J117057K60150
6516A727447q55150B01837a347314l03509O72985B096820p46345m82348f81186
6506d657005J75067a881133j09796j16125H02978R65075k08458g87758m558831
6497e346589j324856b054252A189961E52970J063937g6155j194450n52684J84998
6488a638291O19614A934374J562023J10936q84372H82907d53024j123004K88435
6479a287593e14794E58474h84584n65153j206975j60382j062189Q36598J194431
6470a848254e80790k969509o70058k013713m7248J957837f65320A775336a48118
6460a777001O78104D03217L55380g11927p51867B60365J538485J475242o04149
6451B669943j224882g30045A850266L679686k28306B397425q49129L395889L013879
6442G958064j029185C061033B47812a867607N14052d01665G57230B19550J024060
6433A243610a14789j876707j002603M82540m63886R63473o60264j419848a266539
6423F0357b626930l443081K461319M03021M66036M66869k345721K032133C262381
6413A379955a243337j116863J29758n80075J98948m07492A426344K167013K496844
6404F090201k087254p30737K210077j01035B401844K51499B79540a622448I44971
6394A048992L34379a739784j434251j18800l62832j2021c88291A124866J0779
6385A135645C07970J060627L314772J198444j225415K622143p26479k536252j970070
6376B045740m9971j24465G22204J677199o36679d82628j858678k047874N62167
6367c827013J774331K04205J11026B321875K032220J042344J17835j035489A816657
6357A578286J896966J636029B493084m03588J910757O41961j526976A187560a195743
6347e62613C041039j247212a349892j630934D27482K509558r14584R03735j182313
6338A743878b36106B299112J137177j617975D87569c886937l182630K490480J03406
6329d475681f71901A395634c99899m030906L79306a582638k98630N35500J66978
6320a178790J19631j148379p94366j766271h60442A699729C53315a166127B236459
6310E862967j176652A104876a97302B618839M084255j647342j562939j556268
6302A936545i91031j17910I73330a722701j178506J144378j042073j423789a542877
6292B350044M213629r44284I80648d411434j661424L008626J111908n43060J117504
6283a377880A562375L575564J731449J023446k300191B455696J012096A681659
6274b6322j745861H15919J638742e58882j294018j953414n67262j84630O78805
6265c879401h79680M19272j564063q17738c24646E39867B46530K04428M358109
6256D809067J471983q45195k530350n9889r27791N67881D67094P88000J957463
6247C212557J956040j33436A012704a207069k01947C47308g23525G41081l3656
6238G07425J72777a211263C45118K571049p56529b4055p44915B338713j017803
6229A320910a895731l21098I99622K500995A596841a782828J05391N17992J15939
6220a043506C53990J625791K845486j225315h962k153314I37527l29710A50869
6210g59231l521333J387858d64931A184249g3849q59834b51458D602936J119300
6201E722236A042828b265788g95226E17170K062826n13631q13002n40823e79111
6191d51623r02211A702757J491608l58141p25819q59048a739432k344824a767927
6181a707384l097020L08601b147144j507609k520735N12636K391881j266754j002439
6172e540164o74354j765156K046060j814852l569451K310792K924385q27292M86318
6163f423714J323186a685578F04388M9257M18921c7675o57750E91672d4197m446693
6153d490890j831066K765531N77576j3217A682800J944203j070174p1889J571101
6144D056041j010553D74206a662293j506189K83744h14124D226028J494624j242545
6135D478107j633071F87535C5803L57180J812465J602798J680519m54292R04051
6126E938524J170845P27824k331858k751403J263243K263159l97373K46170k243850
6117C885281e94847j799291e98731A774211M064030K699823l369533B226052E83616
6107a011193G25709j86314a385863j398858r49423R08086c11366A678119B68461
6097b301056j244737d18405j785043p68039B973d0285j361191O44551B490357
6087A827819K44186R24314e70564k935863c94375A434682K13464j97460J980571
6078C431257L052583k801648j790752J413002j149221F84358M074925j270524
6070C488759E69304D6062a529473l496313J280592A324096J673720P76574A123245
6060b765551k009984k215759P12555a742335C209694O05942A851716i26876r19613
6051a846489j314886E3735K849949a82491D05885K54853L037624K943020k352217
6042D289165j913848a313796m441787j352380L315551a826272k94457I2118c7482
6032B09379J111085L92749G13671a900856L94858j792131k302049k501389O7125
6023h034442J992657J157484K074154f02456A042865L93558O14462m68619C42373
6013a502284A486890j10226J004967L553252j479418A351435P73573J718900R96893
6004D840801N209294J20134m671507J4162Q59701k940092r73173Q3181l56091
5995B186410A043810P39859E09035a738381n40469M57154P96665I92833K16874
5986A209707a592627k281978k098281J138202J338435k6177N04597N30421q73039
5977c360447O79172b8980p33388l85371e71323j244533K10122B658578I72126
5967b781613o0496J335531j125491j948956k27829O65443b032947a68831C99649
5957f67182k32834C04987f71987j079500k376661m213664K993312a426945E59253
5947A307761K317661L38451L50017J64722K272512r82819j603361j713858C13684
5937A62294K91496L141012p68203G25042L86229e81458o80666A716932R14380
5928B631312E05097a264217R7093j567963n60346j850552M1358J989819a020387
5918c793014k923340K415301J702824n82505b98041E81550c853757l424105o92300
5909g970162J249391R92745K222893A47325L123936m0019j613008j143J537065
5900C154156J599771p12850J040150L10816L47865M97048J110030B834365a950114
5890b106866B98835K402030K569807j126040k031528J960452j761878q09299D80244
5880I20850N569854M636910p79088m189920j422414H43793b888939j79425p84231
5871c852595I22906J590716n24628l25613N06867L193905l01330j214256n89936
5862C258631j449113a172851j271128h91487f4079A154558c47318P2600B926554
5852A044109c557240n7600P77265r02288p71550j109485N02086L12588Q41765
5843c964459a581029B065716Q76226m28305i5134H73830J828857O77887m1144
5834C339430j117805q30062J653653K014914o3018j814276A514107E23917O73532
5825A197449K346526N1853j135070A205202j85795L04334b149247o66347b37877
5815a367978o48947R62506c14663k612119g14533b3859C27276K490909Q84633
5806C702818A850432G57471e74871l632778a800519g20957j709709j532901A58031
5796C427833p44720F72712b22043A242030J921741L65258j725123O97228K62345
5787B763479K48599J25784B05216d147143e80453B332113b207157m39790l21314
5778b968261j96498n09969O63881J083916K06087g07009j50150j020863r4298
5769a972320m500544k397417K340825K450503J014274J142309j930626l14713
5761d167709K004924I20551J80210k97101a502157k569231k593714r68760P68101
5752f865761l432526k60070J555656J177308K160045j074954K491270J944758
5744b304274b069D65256K562535J22064B97158a032056k13829j56561M21457B74934
5733D60014J727959K200357j037800A543765J748699J672036J417138j594993
5725D786645j745477A025286P25880K654925B42944c207751Q5031M85050d58430
5715d379719l919430J144547K873882D53526L656011j24961c91809l137751M62113
5706c067447J478440B55766L005954n56706D40206f10642F68762b332124l2828
5697b364952i03275p69931h16612l010432J13443g35531A596059E99562a848481
5687c229926J385343a57123j167200J56822A98706J191694F23689J524300n68143
5678A579846a181278r38005a21297B229808J334701C61394A79900K391614M11152
5669B982666A001076b418704c10475I42473n4828j14240J829129l59221Q56762
5660C100075K724565k124251G11491e79155q01525p48579k92747O74467d54627
5650C289840O59633n63555j656219O75797j154141b830325l960108R01509a380282
5640b433959j815620J277527N87130a012549B5620J858528M543989R50973j426703
5631E952407J182271q34256A644054a389724N78914I37753d81663j347994D44096
5621G4498c160371q7049a297474C075103j519061A13162K768008o35489b186819
5611e596773a420574B667359N011400k954379f61496r00418o09005b17882B054123
5601B052050e92836l06525E40555b678582f25369B333179L209611j917441A492198
5591b52480H9396K804075p23795r38567M72942L16625r87552O55380J243341J992759
5581D924604K439880m02933k382302F88418J046517r3776a60614A748179Q53402
5572B601581b61597G82710J315013a110895l09353j181937J025765b8578l40419
5563c68997J29962k048456j34981m55893h64996m31093a01827A979862m87151
5554A492711f05838j559569N94692l186040q95553Q11258J686268J143276k7239
5545b038745k71834q33450P76950P33761F54213J729936I47351J545121K352389
5536D844861j21061c5997l053895j359136Q78771a161983B893676j222886n15332
5527A155458L978567J307901j206942E53120e92461B51413L93861P15398C88446
5517A257616M161294M488628k857820l397186b153609j946442K004346B06063
5508C270616L046466J362069j499766A880725E59680k21334f7167G97296f57498
5498D4246N15126b319072q25146J305057c30199B3730a546196b31386G32571J369923
5488B102494P1114a599393c22866p36807m69595j956117j272674J414118f92839
5478a046395p86225J13931k75377k213698j981119K470591J034538P97180k108817
5469c995391k137145K453210K21490O59028a006269d92914H67754L118815k57645
5460C728924I48037h5070G17004J893487J20899J660266j915271q13884J320161
5451B982662q86151K45829J822680J061742k050635O67940A327972a841591e40886
5441b095952l169702K112869g17540B84991J205517M372771J801421l435019k97308
5432C932373M12726j366867e52491j536417q07919j684033a184811A841238J497333
5423C338571F31784E3480J585739o99726d392147M97540a412781B403032K712700
5414E115732J242614N19267j003803k015993k04250c00897l28777H05263O80689
5405A485952n05432J95780m94537K345515H75102a121531m51191d18458B000318
5395E268497l02856k207268j137856c38792j860171B484371K953398K19321j640175
5386D016915A463582E07323l1236J757740K226495Q22451k391731B91753e33744
5376b20716j84064A512403K221981A513667g03116K40260j270275l690689k038052
5367g461872L9768c210657A957976A11597f80018A650208L141099K07654k151078
5358B847883m29644K708714K214557k760748j486505J510967q78802A062541c099106
5348d540448P25767a86106B024280a995089r4312C98749b105239j190742g47310
5338H4686J456355o75762O00335l05781K040845R49563l75046H35414i96974p9353
5328a076327a15833j855751k089453O81434g29335B029539R05562a565754q46648
5319b412402a81566q34903r83312G97615K086361O40112j65596H91944e040552
5309b616718B237438J040439b45625j090051B44615m1643J97169M85160J3451
5300H98752b385968q53991J141725F42941L975503J147979j155817o43176J82212
5291D149642j9448J542143J138412K97277k104999j473778j584987g53669q44953
5282a598622B355834K486179r0774K271518J478349J468068j445233C969891p43065
5273C226826j136006A85881J182446R75278A000923b153950l49512r28350O97429
5264b734383J087089E27807J081974J592076k13633k70513n94998F77217K684577
5255C361794L072419N08647j694852k588829L30284j120206a533061j246051a49257
5245A089765L50185a92258k105328k052142b101832D22993N22007C32825J277155
5236A609980J581331A241021E68963a641591c37749C631033E83814a978347g99778
5226a602047j796940j166795a017591B702975K272979j85103j11488A206156a579709
5216E11407a211622j1765J09661k618641Q77172a343207k118739N12660M10495
5207b538791j412812a867879p80221k884950l26716m11094K826538B546900J834694
5198D381594r73374j070607a967163k834159j474253K356854O40609j444819J073993
5189c648938A080933J595304j179115K641378K670816q55646k72763k256885d48442
5179a888894p20109k380833k7231p68862L18483J576020J119283e29771C98814
5169a045849j116902A950456L515857k10580j219533j620795a767853q70827D32546
5159C449737l26431K44706r15354c50509C14302K006049K982653Q9837k406737
5150B986104c11461A24794e99668j222346j82252B05146J36392j29156K442479
5141B654861q98357m63472k51015J045471m16640a663260B76454J711421J386185
5132C374060j597712q61399c00788j712420j796754q52997j124593j444468b921411
5122B951544m06771d579752k089878K682198a813439j158948D2082K645814A10338
5112D71958K632674J315252K485317j544848k621838A008832b827474L31766l7856
5103b533564j852090k67819d90085A367029J51614l8561b250546k804626k823751
5094g878923n74769c762957k31394m14060M44101Q78399A759199L146412P96527
5085E702138k134573j95069q56172C69673c533033k613791c011659C50157O76945
5076A027102M24402l69562K809436K542806K024389k318742j747135A574664J15756
5067A690420N344508K478830m512905A361368f68841j309686j581142K93016J221678
5058b044975j139857k346959J555633P90030j787657Q38391J535559A2649b80495
5048b001982j946177k866377K872235r60441a320622A165936J144503H35659J501175
5039B336834J258317N85339A446330G19340i51177k578326q6637a481253e99740
5029B214846K274759A505199D03038K580258A413631b451328O6604q45222a290471
5019h84186j84792C4839J292222c14982A79018f27663H09767J649425Q28930a64272
5008c187918j664999j478947J012076i01880B450849K521036L388554R71274l605967
4999E725746j602075A571662R57233R19521I19935l00291i31272F41006K321291
4990B962297J537115J004994M45935j75472n96179j790398A82800b371514G15039
4980F686140p46793b202461N58652L14220o06190a96582j337452c60073A649496
4970B685345E85755P20886j59197J173983J090610j355686a266105j64033h8858
4960A16571K943095J124153j535804A080800a182694j255340j013874J024530
4952b427378J189106A431087a277677l676855k043155O70736L027601J627077
4944a672273a28638m9202j419573j952491j173784M55583a711428j544644P22008
4935b534064H58160a09632j766090J58346A59144K157745N0947j035765J97645
4926A529716J613998G76129a536510a79105j476320A66710b184701M685h80342
4916e98033k514699N38885j501219j179758M77392a990107k43169j722994j656653
4907e612923J912703a494545q27894b69784B167858A063004N03844a897527l188470
4898e085997n46545b293203c55937I30051b454664d01676B287914P0864k78704
4889B080074a517039o13831j96595a130377N43660j558717k215801k088865K3151
4880f426949J053523J571436d74755B566595j169104a646460k694017Q67149J041752
4871b431576j516555m65072J438499Q42595O88273k453920J377608A624605O39832
4862B264437O46078A291556L61260J248224P89078h65110D60391K292756K580342
4853E333489j623467J79089R08847n26564o52676j481300L23244J933790J91951
4844D586403R43861m10362j365852n71146K886180K768011P26679m170340B164706
4834B092695J296783I59796m23344J990603n57787D5420b086720k25735D5439
4824A317283J4431D6734b396432j179594p7893i13878r5539B44988J441825J380311
4814C067124F85410J552481r51506h62036k766848J192199g80046j74177A192097
4804B503382A02464b672103k136665J092895b01526B014108J069821I79615h74689
4794a241933k578233j038854J604077E44825J7044I6755i79169c58989C221219
4784G004072K716119l763352k284246j523099J251582k20909n3722j040804a988267
4774a653636k953484m79522M56519M77170f29369B50208L483621K263944k041024
4765C956749j900389A92744d37787k37209j440944j862942j319007O25987M68771
4756d203131K025601D49178e58312k565529r68030P66617O50787r89105a809257
4746h92282L56670p83606q98600k93911k218108K09946l545717q83405K598175
4737f350838a697489l41400e13280D048657L087205l4302j834459A399282a486924
4727B093943L75066D56639J188838J631932K059810r94672k44494H93623h77989
4717C78011a35306B511773M107514L913514k363170j292945M56044k022774B609729
4707C109706k37153p13070R73058J05139n84993J082084l10511q25875N98262
4698C196647K904389j37423A675108a360844l664034l28350J089166J075893H72365
4688A688517a350468j66933c55511j19703B31289c07397m71418j044186d79377
4678B795060K499192k319581k56671p55589N22068J751879O72873o99473n61388
4669C648370o77941j428794b567324Q52630P80249o06284d62347B238866H3742
4659a552411A221109J390833K33045K142675L04108B554820H71548M057583R83648
4650E912779B928581j347962E31628b410198q94403J217375c35397B367395Q89985
4641C257380F49709c026465j470699M20408J582956c22188k446875l467063j6795
4632f252921K470252h36298D25550K041365P15334e90368e7475G38101g95299
4622A076440K595473A820983m37586C42450g90563B37668J040075d57668j055149
4613a512817p27938D50992J580199a5655C35304h70805m95721J29595l203738
4604d440669l45438J497876i11813j157215k599335J913841Q24573B028101k37665
4595A790436F33702J88930a376640j007203R65368C624559O97203A546302Q94805
4586B441107q12083M36562p55118J483108l71035b6143A154540J598325N30155
4577C283020j201713p64010h2007l182903J69905J174500k208595a195621L15503
4568h80118a31762A475139k68893C36045K007072K708186K67262m61404m613j60334
4558D692214k193145p57178Q33310o5657K181619J800318N38848k224672m82952
4549D322705j778485r91933C73004e14980q50871O25674k862509n65267J768112
4540b399841f78530E59645K414412E77272g40846A62922J037439R05043j89621
4531A915783J91375G48833j82860J334454P46128A082101b928529m38666l00546
4522c667741R68728g81071G03925c01430o88511a58541B323199L30438n62214
4513B091423J322482K217869B301890a037121n111069j449233K289529b427331
4504a657537j999543J504549d33209j44410j823462j827658j842665k78319K722393
4495c627330J266528C55884c68389j101127j572362j92851j360676K161597J6656
4486b417152j981757J12025a970026O77791N34388B120232K049384j155654j026203
4477A987759R62322i27650k406054F36781M87675i70075D09491K32821K634967
4468C277279J612968k311533C51769J731255r54384E08781b152430J025863D544330
4458D661718j121134J259206o99590A225496A00526d41088m46287a37666k543624
4449b681290L59515B956620K814197B592371n14890K088349K959162k614280E91719
4439c001644j897823K421227J151693e14359A60776e73308r72855m80432F38177
4429B462312K702951A359296d22911j020606r22989j433285J323364A372719K04385
4420A577104a871386m8696B44913J299890K122984J319376j085225J871673n75273
4411E198338B514431J110881j590976K30260L301391j228543A632626m7135k70603
4402A314888a153636p32423F74390A73723b620712k635679J331338J286322K49516
4393b389215l048098a709462B570196L11059j242533M14232r85984j75214j4548
4384H77208b96734A333362f85859j910085l453797J537403a961650j953058m77189
4375d391897F01136L881697j707170d691q32375j534664P06403F89906a733770
4365d306347r48598k720033J745250K463696J705496f77395l23070H63416K533279
4356C396695J402708Q62340k30439k112711j100111d79006p99989j459952i92827
4346c83960E28010O38921o223K923592K853142J118957j855812j242782n2793
4337D905012j867870J80139J912650J165129B580113b633408j057842q47101O14631
4328c923720a125550d01820j584595l166029j906800c070559J421309b56081G40654
4318A949580J51262f09342k454738P28285j316118J71988C72284K917843m05129
4309B884998m33650D78855a080354r31810e51803E40209d53817B368879L207948
4300E576827j79733j285663D76384b093779A420425M1946C14048c21874A43658
4290A391912J664833K601703r31453l46836P61285j7237o15568J785908k105231
4281D189316J166883k221553a543921n50746a9830B852043J706618B220617E83452
4271C19850a43948j414940k570095J079549j372805p32489b192660K55011P9965
4262a857684N43271l155943k327198a115746d54237j701015M69396B255352J68875
4253B424227a129034k388256L87531f9068D359769J887260K750851k422735C197725
4243A922524K6568q66014l61716P03206j10040d00828j67782R2452C61094a108931
4232b895836a314027D92514N79201P2215e46607k040841l078576k246529j023004
4223h935557L646306a806453a00250B043810K65712J381529I36408b912273a257288
4213A17240a991314j775168O25872Q09796J106918Q8819p7746k412402K24690
4204c400535j641785b267108H6690M92774Q59800k13623b740202m51869J319852
4195a872219c63249A06996b129234j266865O18589O82937i36877F50378J013084
4186A663462J911712l7376j075304r64103E86171L417165K090382j88584B386471
4176a826368j550291j29278j673677O08694F94729M468675N40666J507499p61454
4167F450115j813060B256982a87489H23064J265319a739184D2705M29018a079140
4157c84996B143642J143909j530582H74568P98694M650297L803002l267071A111124
4147c545367o9386a284133I25179j41696b202729l177429N93692J656536a369500
4137a204884N10522e3341k601832k203293j32015R50968R27990a193248A446593
4127B444786R0628n68834m37129a391151k075718J411601J50928L03458j50620
4118a751502j53997j815867k750440K237362Q02559l17508a703270H05034A98951
4108b621173O56247C05843O56816A27289K031577K556432J302626A898847D24014
4098b156188l769839j661288K49922J486491K698044f00944j04548j446831m93467
4089b645790j693553J884888B265382n66886a04955G31691B34044c973390o77435
4080d650825j049643N69228b193408m94135B85738M331891j14833K58518r88482
4071C772832H75622j76388M85918a431065B42817P48789B40806e031292j382667
4062f413959j413699j716258M569154a976629j309048J000260i86235a54896A200642
4052C991517q56600A515651O45039F2158b493958o830J09573C8702J863540n5602
4042A846640L41270b36367j079768A388026J175263J916363B103672i20870b76962
4032A921916f10466m580174j15136a822155A40160J434652m28236a873432C79858
4022C349153l99864A035133c064791m44826k33832r73521R09231a783932e33970
4012a255692k705380r68292b350120B009125R14630C39274b163813A58973P35978
4003H94951a662087j747982j686792L14656J810917D96462O27137c873844l655046
3994g528890l19688L103175k710783P73264J067298a847986L61477n60518o54568
3985b701595j062696J642993r2139k615013l64993b523736a3132M324I46984J019269
3975A966253A69957a757851l413511m76480b661432H53831K481045K033883j346579
3966D022180A240885n22616J289096l23777P29133J49159r47826b61875r1653
3957c53528j6023j819111d24673A179864R64061j025456a090988j256755j286089
3948c633832a480538j93010k103195a428332B161088L580215N86315j183440K95119
3939E439297n18848k127830m93980Q94253B71435b073808L11512P30814M01802
3930f29680j957910J244630j640332j684763J248883a674541f78802j507074R10791
3921a275085f5471A31487a30812I64501D75533K24096K226451Q67757r30246A219923
3910i31109A166423Q25454M54411N27133f44445l383251k251669b333327f86305
3900b23928j763802A66135Q97295J096486o76751E2932P46431b36179j826389
3891b062568j634361M01522J354370N21404l80709l43705d58271o32518E29712
3881D52021a885164j404349P48673A021453K328431K114133J829286k598755A480784
3871a479215A258161J324172a045359r21757Q80090A30148P42942a238033e37345
3861A520542E34305a483207j503896J177699p7987K03638K05465n99038f76849
3851a464120j826791a508542D246418J325103k076530A613055A64356a434052
3842A35081a696188p51179J03695m52174K22606j066171P43839i89803b22368
3832a514539L254o39385q21660J24709k073112M99808N44q75557J783476J593461
3822a919001a48500H29486k57899a199223k611397M80300a044083k34595j129608
3813b408286J024138j790535k373968k6100K682671g64586A199295K292074p66490
3804B724879J441557L17060j848168P07370K051148n39285f05163n631555N6532
3795f180186K157424a485995j96499j014114a19073B151906J522421k21769E28642
3785a180413q92402l082821O03130a820730O97142r06557i50764k623248j142630
3776d716642K332721B101693M25746e31810k885734n16912L49471D97666K305723
3767B803389R60970R54143o98418Q61549J059024J146463j1795j398033k342785
3758C334507j545653m14380D63212J093486L325919j228792l25671N09394m50522
3749C387026D83488A96977i48360l259920L40883a920555j73729i05487k381933
3740c287420p25107Q80070D82235i95895k619973K55088e02300A964076K354756
3731D318832M32078A921442H36355i26677j314617L25310f00477n80419j014487
3722b195383N58654f14710j329232j281197k503866q77493K718569J575596a042575
3712a186735o97095j040502d30672l82749b64570n03377A592913J817363J186110
3703D596386j516881k7427J370953j500889B98311b221304N04442G85707g9188
3693b59046C73834R12840J315686P42077p72475e43617l294121j881809l030896
3684h750443K191027a983750l36075m08992r83088r71810J825432c22752r6417
3675d19169B358594m1711C20999J865179J241624m42396J545874B090750c25815
3665b245149P0554A036729K231586J102781G37403b07787j227891j106118j243815
3656c785611J106460a103082j11461j815426l80257h89175I93133b437612j915143
3647d352755a445772A118367J150315l0172J909055j687526c11311E72780K489562
3638C062342j165575r04227o5758J259763F29512b163255R91076B754031K896077
3629E650108L3873B026154J815578M297470K292822l723377j975200N99117R40516
3620F273080j536763r06894A816309n22457K731531r78939L79312J582482q96814
3611D111424j793169b257330m948181j65735c236519a212869B085918J16245E30944
3601e28304B8169K510940O20293o34613E74603d031224O62765j664721k036931
3592g070111J395415m34663a974316C936642J069773J723528j475867k14627n08990
3583D530459o66205c56291r85252B500386M079840N1254L60374J484511j732722
3574F743643I3170c761768a394314k61050j139260j178152I5360J686453K872255
3565D654068J22130j172977M50204G42638b405234r58372J229713j524853l49816
3556d008562K11018j115797b356521O95881m69056r60408l88834j126716P7986
3547d527668J159745a324769l083517k570813c344772f45831m60588l04134b1042
3537f19388H20416M17838N20340j97672m33623d05148r88268l58116k247419r45955
3527d944906b168459A414985J218815q41485g81419l58353d35275F71333b064559
3517b461305i34331A698381E84616a890340j478317j170953a234552e23555k666491
3508c190046L59982M07257M8089r16539a187240m95253q85612m74036N24477J39633
3498b378031d10656n45060C08103K36570K202313K50875A345984a198557j415757
3489b614314k97469a069337B149985L80642j077622C06810F512Q3414J224070
3480A313996J99789a431691m275703J169129a421893A079697N82612i01022H02359
3470B833009j100017O94632J135655n03803A054987m75999a654915j256557e75607
3460d611k228168j533005N11884J152408B26259J459647H08540P61206R80978
3451B550724d1610j959693j30495R32230K74903r28682A69281K145670o02650
3442A712301o5276J765569A691366a861032l509778k888752p35230P67206J601462
3433f626124K267592a626414M03083m321728b597858A325003A37231c045436R07768
3424b137668d68598j045548D76296J593672C90375b029236q00567F36470K225441
3415B861911a98743k114749j001984e1707A341722n13685b43574k804058J19239
3406b928393k52976j537595j594096r40017j610836L161536J88625P77618J735722
3397c000412a347293B39451b043244j311642M80188G38074M773517j348766G60189
3387A151371L043338B037480J221482m62320j061051J834366Q8658j562668K191532
3378D287479L402250l663524a482516k318749j613329K341896e28887n79911I57048
3368i00667j683649J9675g26327C74751a296326K67028j631604a074264I77621
3358d295k229620j816013L19521a828542H3370L50470b06347r1491k885571a121773
3347A968832M3853J409023p18308K398510K048998j860499p19303n19967K074465
3338F125604K923224R39245J852112l302216k882071j199188J70806A590843g54691
3328B294296K200233J853659O82323j058755l23687q20473K997346Q96147j492
3319H719597J186555j903356j515777p48104o05682B257342G75821a321831n20043
3310a841874H9894i88119q08763L21052M4133l000225m63273N10674a044503A556068
3299a867761k829332M75338a454934k08393A737095J175854b35122k243721M04824
3290b074019b72291J27639B3805M107423J602494B353824H85312J169482F3503
3280A83610P95726C8267a839237p88059i65796p64002n201B464794K899167L136052
3270H500013j689546l279075a021940m543712J776585c30692D71471J467968H47968
3260A902685J058239o16702J814734K353115j740858a41043m71794j008730q66909
3251b488476g95671H78032L592741J479094L59653l093768B31569K30369K327172
3242B789110H00033E2940i17018m5001A250125J952969j282825F63801a158265
3232a379838A408546P53975O34673A251718N66340G33573k13629A62836a807389
3222E32884L146342L096499p67777k826540q57250g70988K53352f7558A850351
3212C13639J59930b577568m343461J195677n3464J213901J914330J311295k672686
3203d011976Q92908N71458j98457J108155f98686j097697j76971N2070K34714
3194a686570k998l68148P95535j531173J059499a77406e7545A658758M079091
3185E737849q77550H73530J169899k33126a296980m186499k10427P37982P09484
3176d246440J78876A09915K149638P32161M62739j56620m06569q74444F31681
3166A134071a96410o37580m21954j36833O62205B301240J696456N97218A457690
3156b294451H87305L1113Q25935a82754k780014P35063b52606C3166J528626E71433
3145b170730k898489j367694Q72370K711867E53148J705545o7109j60684C29000
3135a385213d11328H21974h57305q86878l447509J247151J674416r51097J328246
3126a892976j397524n46698d85441k37960o28516a33706G89566K222205K496542
3117E508313r26504E7938c935445J927773j078529l167574J221318o0400o3552
3108e156409M04741a871484c00008A834334J609093K198704q51448j816010Q01428
3099C776101K006649k580668e23381k431587l652939M01606J524240J918401J297930
3090a465730A315884O67036B83203h72756k111096d28340B10348J491243J270874
3081B972465k98166h9628j110963A619116J822075k88037K56329a110688m069351
3072e180039j493967K237775J860272i88398B526224L207166A606049c708092
3063b019129b89997I87749e74029q4943p6926l75700I80377J712307p17385p69337
3053A205962R97170Q80515K32179o02759o41244l00375m30403J289568K40442
3044B871055q56359l62899o03473C54420J057127K537798j64688A775430J386330
3035C161760J429954L477G9673a739570C45306g39882q98284N78145K84760j196963
3025a972224K80924K94253k39000o92638N18705d96731k460829J440971M47017
3016a069572j858374N32230k51976J226648C40679M203389j955701G77912i38862
3006e63675p018E34124Q7779c57709C839995Q85581F62488f04028j301485i41265
2995A270574F13686d3223j806922k499164l789992L45856L586324R90574J501675
2986a714872m31403l21941l435474j178901K610670J959365K08381P15766A506784
2976D072217N05422a029792k094646N51314a128667j407245j48242j920331J597578
2967c006907a311070n188l74205A730617K543828M22237j548441A499721K16169
2958A715890E40171K89101j97868a171893e48946j943364i37725b14719k085753
2949b300472m15014N87955C38540e84387l41485H21300a032645k628204n26441
2940d187290K076853a053666E855a917337m118585K68001K008885j522155J858821
2931c422370a586881P67050N6046H42377i32293M17909I37496J059397J76311
2922B173204r3033b45779p63668j051720O53221A08142a092045n48837H07250
2912A883301H17746K329001K310616m12858o94698A947488E82019b990150k23418
2903c213568N36166j495412M95179J836777J69546q00438c74953A619121o26640
2894I92481O56721J062920k75587J9459j038055o44949K04417J746031j211625
2885A511813g52605A378571L886726O3897n28599A928554J118568O00576j755368
2876A892330m97815m32211c37494j505834b51925o03370j967229a111264c54908
2866c833488K38628J211966C482769K025585P70809r66524B281859d14934B074865
2856C188838j128746J43587I73021i89899k20183B620938M010624j93489B263215
2846b662115a052735I14276J582730P19281J048191a52304m071088J611210a028515
2836b800399j909577b235103A392193J150597A39582J29830d82809m17394j089537
2827a989740k3663h10345A186394J011209O02735r21377n11896n79237a478360
2817b902677J250626I46728O20228g24800e1341D08978M16559k19158a248958
2807C23893l1935K81178a818379j26766O13577M52959A680219l06553K934750
2798D308416o96225A078529I6562e62748j125612k771490Q45688B359976J646305
2789D006281f16761m362984r72433k82452K448876h96408l77139c96833J52718
2780b44115l433032m45410f24763m86541k54797p73813k784250j92990J75862
2771d941292N00404j82701m60816J66932o63663J651124a788064g03006L31051
2762c71955l31707b09326B393929J870301j859176a434697a44447f8000B49151
2752b71122p59669k602380r11457J072646i35381G43336O18217j37985Q28385
2743B051953P94177j009946j71164K62954r1829r1483D57955a679543h802C529441
2732D826924p4961N06564k202957I70792a868532k326826K007355G63911M93365
2723A257276j42187a126093d78699j044077k962427o02161K114676n1427J173782
2714a850333a96400j427587e34371B08968b29228D541500J265614B123618f88093
2704b522494d62394a01003B06407K480543D46307g91078l956229L91271a31762
2694C778135o53737n3936K527037q99007J295148K39638A772077q45325n7781
2685H68971J170452r84824a383063j014425A015766K865488Q59651j850390H95337
2675a652241P3198e65976a8320A115721b645555j948667b015995d9451C674351
2665D235433I54501k42820a45261B130694H99240J552160K582712j790353j573056
2656A670703L33457K362333K273750k053485p34470L84064p08957j006194K308806
2647D830007K171853k360888k127236a886274Q76895A451785a41705k729546k906535
2638e777786L63881K323300h28354B045698F18514f37035H38984J497050j44517
2629B191517K10716D97501b613948j481865a739314F77082A87569b194769A363960
2619A395739d41666j725523o49212L93828P0467H57332J193584c21563l762628
2610d084191k222913K723226L83012i90141C084264J501098l96314j882467c15212
2600b377233N55064d44654j126363r28914G09075A5874a482725k848982j489008
2591e820715J080968R79419J379201b59732j17287G95296A35317a604225l234044
2582d838269Q65261l65918J78111p5627J585512J095937B82486L809746J54662
2573D246894I98657b523009j958464o80a696163i0365p34511l211836j861800
2564e898512M03878L67402Q05071J088318J272061p18120R12514E75664q3137
2555D92527J194832N84483J511774M05644n75229m36884j213238r48146P03809
2546A719572G94376i53321A178248J619530F70280j81313j74405a32023j530776
2537a662799n72332r24991j10564a485838I08571P43075m08813D77218K252448
2528B729666K989621J583366q8004k366547j686489M14368o00773N0417J58305
2519C183930j401152P05092M89435L81774j394003m77757l58114E33138R4778
2510F27916i01025j259828A910360J685931J250387k140319C51076b790700l451520
2501f242220K400323J800254B62054K93269a530081q95065N10012k102670n42281
2492d560085b011001p45688M17004n25691m77177l26768J598805h06155C58185
2482a162700b10179C22137J823694J427377j266736a887663h10531E2878a255437
2472c279127a355988O64668A170298g09974k113539j996215R66943b13410A48549
2462H04333a878651o70899F25049L817524j57190E0050M36652A81886g92868A527335
2451B413703b074259n433985Q27806a099217c61810j753287N32618A755444M289657
2442F045101j954462B16355a265650B9347d66903G38184J416614K162401K353022
2433F670221L4288j321085j412516j426815J42134R11744J637315Q1047j672J61643
2423E476304k67186J07403B508562A67215b823526o428709j139484J190900K875827
2414f324992K705221c44535j365225j889016N76369K66572g70721A596091O61512
2405B257603A38817a977140k420648n41438O83200n12109n61073a908842A774146
2395B751823a331367k60916E6518a145073L6161j312822j806856l58559L81283
2386d205866k50601b158102G03076L912688r9397A392431a316776K20805I81695
2376c95984m161261o86536J053741J982689O40219j51827M01234n11763D44578
2366A121843m78585J473066C31111J085228a132284q91534a32649r91311j45071
2357a269031c41553k491917O41600I13139J103382K350996O96904H80830b049740
2347b92646A568314A34205b019382E03613J054184o31003a115927o16648G47353
2337D001786J417663J030844M00240A905946M38114J445276j633569A59162J419301
2328A578463m49485e32312m64032j452977j848535g70283C123809J356126r74211
2319C505724q27754G72521b30836D01545b55078A200346J518780A086734K473995
2310C560729Q39017F19499c927313l46896J652836K17513i82086A38623f57640
2300a34471j091994J26888c77788n19040j297470j154624a531783J96046k063698
2291c399435k71668n30313o6450K093638a23895A64381a157622A088532J444832
2282B533364J515628A998285i2080C188994L24202n33315n1387A398844B15324
2272a850576j04159j192892l33308Q86962k644869R75798b100541j368195R79470
2263b489266A49084K228688L50973A349043j23695O01233k65023K212454J34921
2254C908933K62599A851886a784626j509253O90524L80809D1384K527884L355180
2245E924448L48446k958434l76399A254286c727918Q68978a349886B284766K006842
2236D291608k075179A033370O10006E94079b667328j714879P35599l34553a855475
2226E96815c64187p84368j909966N40643e06329m19761j909969j756360J410066
2217c182353e12363j982952k440288a519808E197021P57263j075945B153452g88571
2207a45344B368404p97362b97891C69985N41525J435293J326171J31687k94418
2198C510243L546328J076911D044025j414003J435836B008900G22433a029211
2189b376593j747086J680406c58246A671079d21475k715040a535419p97460p53173
2180c086052D34916M020583j663062I56479L533187j25604a41595k230495m12727
2171b784817n10349m11592P02026J15172A171010J698486P23983N58661j858249
2162B293891b411012o79222a291897B92497J076560J328296N3625p62506j36779
2153A851693P08418P80914F43848a786097j887569c32132B517725J586069A709424
2143F89393l01302b20562j292709L06724C76945b2009j247202K10220d56111j516742
2133a972853o63424e63294I73114h82131j153496F67874J017626E47676a03383
2123C112830K625133B587563a708037k050785e02103J07107d784A446060J470155
2114B916215e04165j913601m51750j819967k832921K22291K634288L15767j708253
2105f058311K474887a711741F27113a69223j069493q71521o13931f32128l99188
2096a031316q37827j513743J89969d72106A962124A91575a789395n66437a054151
2086d360386n19424K402056k20632E36583J076603B79162h89814C75636K095626
2077B471262O20295A409287a263290l321855j263118b416136R43372j546016Q2962
2068b935818J082292e73442I74309b398018k821999k412561K46016b621710H1592
2058b77379A496994B23788e698715m097360L3800R42468j426476P24163J200505
2049h321615J325565K226208G37988O59862b261986K53707O88451E66030n472
2040E60558J110644K566790R80930A624235b011311h09250B084965K634506n88751
2031D130720A523796C2137d986099N7588h19659j736057p77113K12910a85963
2021F90042a45561E85871N68726h07224c64377j012123l793030K8147K006057
2012c135326A218530J906908M66258k43548a311726r24783F15251J805697B96147
2002G3000J362232b510061j632293Q41927J375445e99595C227805M526759k954373
1993D800191A438121p17197Q957b56512o54473C55126K647210J955325k264557
1984B693104a286448N29180c50018I40808N39565c738510k123519b243238A311930
1974D475670K937595l12629B323776j29501K858259j69787k145373P18978j0878
1965C445474K1368L59931p27238j380824a146363j541042k286762J684553e41466
1955C811550o6682j395563D16190d81913q54413a67274j558526k556704k242444
1946f524948Q91655P81130J993212B556906J173763C17229b287027r85644d58149
1936d87350m7581j029294l35726r65861L37699G39001K013691c71433j967996
1927b339429l50440I20311P43501N3926a50296j999723r45164a264046D06573
1917A705651O87692p38773b618080l413515d67872B184380a284319m69949j31146
1908a885414K59125j147023l56993k526233M1341r03744M51358b843512B446515
1898B516252j155709k70795a74134A086961K518392K363574o98006A686997a597509
1888d693672a439049C172056J494160j960100j296781O15911K19847J215900K841705
1879F302698J186820j956158m66626J642619O30536k420312F93960l8108J582591
1870B238443K099652r90633F40646c183823K96393B032746L01141A66581k8086
1861A38495J296319b51774r90182r84083j763331j105536J92279b159129e86150
1851a14685A744409J491724j562045h46171M09003o09092A353294L892662k97983
1842D947973C47510c028470i91077A380298d49392j587394k59107A409612l64998
1833A044614J170530M62011J78238J791941j233689d09659m39326A71736R39803
1824A111539C47506L45662A88252a144037m28599K04973b67455q39305n24602
1815a631362k41261k313915J433402H27833M112070O71871p45826j338185A014946
1805A301378q7030C71872b083500i73831D91845c93365H38581c79827q3077A896409
1794A461043L34299J327575k00995l67746H51119h14545j571937r79706L76956
1785b989232f56960j181783Q2605d68075j500129k928762m879148j455165L451943
1776g779336c800968H27784N91237K395117j196298E85191J572421K489533k298834
1767B348311a455597l90423O3331m0745A304141J749754J186367J822353J644322
1758G706937J025382k008658l068054H26339O40511N42947n30066b223289j593863
1749c817152a371314O00561q63144d81755c8378F38529J457807J189343M23085
1740C708764k63215K449550J32074q48620q42836j001390H4767b542659Q15394
1731a727265O03o94606e06855H37789M101061M17065j403759j032904a047167
1721b810999A043984C22329b4459k991766O25909a192549I32378J880517N39448
1712C352343r16979g98217H61249K898636o64774a323158k092840N63075k035365
1703d888288J000595i16359B733521L91506o63329E95464a125388j959217q98576
1694c983181J970938E28994h64484r03425A009179O91112m30856n17456g79529
1684b148152B68368K692283J440205j161729l73403J109640J221444Q44653J12991
1675F154452k979907d98871l522734M92889m45605P23962J280514k553763k42575
1666d766183k40915N57918J110848e39274B364187O07443g52924B09089Q7994
1657B97083a13520n11474k28426A034104a019983l505801a915412p95939o84905
1648c396256j386146K375774j99133l388829j51017J371754K022209D72715J021413
1639A494128J652257J269371L3369k123000F40080j59577J857293K331771A582358
1629c171740k100180r76912j129999K889251a598740b76216m72803j246579n52669
1620b548267a009528C234929J453158G22073d695188M34068N17567l322921j62680
1611g229154R38151l633c051608J415197l88242k349702j588775P47687a623449
1601C845333J358413j614926J66587j152014C73966a463069M37973C85230K923155
1592C308385Q79208m17095J738615L56675k650630G93398l60407J373090F38553
1582a366047m70991k004282a283099B138450K782909j863376r47636J787417J474189
1573E371953A738159b475858a043647M55788b27565B229351J846659O56818a60971
1563b734122L95368J161114J23719I80851K027806o54250g84942H1034M641809
1554D722843A863549e929866j894564L174281a789543D29000K070435d73503n571459
1545f044962K148262d79782r4745k892j56727B416712R3704I08614k78192a026373
1534b669862J288393A532354N26219j19073J779263J857097j401613C77952a997005
1524c002455R84847p03052j905560b138510B99080K660033R98799A196819b35975
1514A243290k6703E40142a411697k32645C30729f82982A306721e45593k802778
1505c348371Q22888O59042J6993h00328q25137N32444j098278N0170b33322A502120
1494b62762l720100J076637I80394J797210j225553g34795j470525M0333A365860
1484C615026d2365k136476b45193A513196L226261R18691A599606a857728k606244
1475d463972j790698j299582K009071J714609J033843F7777L630194R16836A08452
1465A356221J942108A503580j75333E21940c030617i19922B359202L53110L56667
1456C068979L5663A542353R09739r06915b30735H129K645394A60637i51648L37883
1446f13765J64867p5559h6933D40185N68217C19046a631415k587347r9141a515223
1435A547921j69282K86499d86022A16397a01532m025502j599669p01510N28332
1426e899881b475040f14030E08220b268177k108831A674389K327115K015921L030363
1417I047788m39151p77567l36449j780301B540572o36371E67166D7534a303278
1407a899189c24985G11003i50589M06625B591103o03479B94324P7792i66626j020659
1397a987285b39296A780863D958a786516j056491P89217R1486Q8798g04881j627384
1387b332265j036177j711449k123513J648013J538795n54178n28598J791706j44749
1378c452415j776808N40839J329137P08460F99307L070875j072666A273332I4434
1368A81140M43118J131779J512778j622086G48746D1737M930598R83645B767048
1358a29607k728438m358334k104401K849808a01701H99444J129100B66207a18604
1348h72276j24583l24606e87899j897034j99924E58873J091455g89659k25623
1339a015282c65188H35405l30540a15957j42897C239064J519516j874128H20402
1329c477412q69901P61812Q21999M87134j632951n48267P5027h89806B576009
1319B826075J532546G73845c066628k377269k219620L516803a641985P60337A433070
1309G87435f36148j812717K43842j383317j779548K164902h68986A728650G48096
1299h87921P6327j66662j048632f67891r65591C02689J942056J94850B7624b029192
1288f196E99561A5913K58718e2345D61022J668027r5377b598665o38897a159492
1277c5009I43262l77719M18706L12317a700817l435055R42119a725508A186824
1267B328443j091765d74221j81936A186086A55804b444074e06912A73844a683521
1257b337416p88783J213599K5632E44736J897714J890526n33497j037291J430265
1248D192453G30572L48600k5029r198m70643Q69616b57097A64756K070720r42558
1238A292918f0566j49387H22697K811399J887679j26691j083621k031835p22923
1229A556705J429670j284775a169032j434417i33991A800660K5551P04439M344662
1220F875312P14113p73571k690980K19772K388446k395509m07225r75761b33091
1210h33206B625820J011249A530641C29765J509909d55896l642775p78512K331491
1201b545692g39646B088603m63508g20379k320051p35247a801754I1298a228514
1191d846814k313853J478614J736541a067889A706420J377920A497310c26988
1182B641118M346096L179904j296849k399239k119676K481973k085962j903678
1174B843687j012306k93810o77242J319593P2120n11845D92867J263062J482128
1165C238057q0863G28683B1804k713J670644L68848a327376b86413F94529k41798
1155D52731a08144A42671J673118K51103j0002H53000J32163A82722J631026K019317
1145C833065f24085j491139K40797A248790K174488o33404J89318H26026d458788
1135d117156a615986g58813A03210a826315k344603J707241a106203j281186q93424
1126c280813K41164a515150j564132j262748L72080j172317l774989P33670K406447
1117e777139J478499M59988J797292h56136l85762j119901J014387B942990J128852
1108D071842o86326j537890N14117M47964L97477k68955L04427j514874B84005
1098a553025k071245k3367Q63619k660858J212256J960884j219768k586925k93397
1089f371826Q87755K464500N56235q21364j736464k958658J17778c471653m08287
1080c879940L65896J333579A568649K805275O39902k469898n9850J120638A131888
1070c689812K22284J79562l195279Q87111J510301J239388j513414j389872m80439
1061f230170K209266a689583E06041J693790e16704j570159I14825L042635P09004
1052D666464A984738n12463O26959j032565D8564J582610J162968I83233a839734
1042e416081j177696N7560j954929k10311J447629K315801a782448A791244A99371
1032a876647H84403J347408b579563J072621f04730o4348K31952C90182A77493
1022b203572m4602M0654N32669A623554M86735J677036P45770o5243j089425o65262
1012B713165R34966k8735K96947j472856c93448I95370J61138c18990k557759
1003b876749j485345J09843a972089j11006C28202O140581K014155j624912B701938
993G54676b465979o99301J471100b46463n04825k82734o77104f91606A429936
983B542569J387854j115966I32762e48004K18044k029211M79999a28330B286141
973B059488j6795l64265G45218l0882K033428R22143A071983k03320g15882A893244
962C708264A600857f58408n76765G67640J044268a877857k696311N55102a026153
952C79702J919238L07275K32103O98582A689806H41690l47075K93770J513713
943B302098A107146b565240n8392N96582J91839L60337d87046k85007j315724
934b087777j082651P1016A924685L092316n01204q57143H11845d366467j103219
925e469686J407725c69134B622946R07370A469765a149580l787941j695933K889505
916c743949J752747K81490P78440B263977N3595a03672A306356J778442A405805
906a411341j151195l78473a236193r45495m62043f86392B046538L651249r08543
897D789244A518148b449198O17281d18757o50557k133499f80029p9138j216689
888a975856l303385L50883J966443b13847A593859j39023L19918D43274c66441
878c43840k35217B474731L388765p16411l95369j515750a296312j171987m55648
869b923947R92607K62612j80294A053072l9416h65889j259762L07624d9037n01517
859e50554F36257e84447n36265C46162L71022f04070I91134M12393R33527K204707
849D541761K174217n16127k768359p66753J986793j509892J34404Q22373F06441
839c631239p61179J243533a118328F65408P00163O3039k07136c35395j672713
830b008108h28983J15254o53368j785068J146996A409199J064582M12752C66027
820f176530l724519M151562b445776j004176o13572J34310j429965K026246J301742
811b031191j140045a518007B639345O16522Q67290A414843B25694J571017p90152
802A006559K43808K824659q89399D30369C3982J406623L573773q90829j347980
793B775569r80245n63124d26106P864G25736a552152d14728A120117K153763k38699
783C035181A286699J823532J67153M43040q13842c34207j587287l09747m78370
774b709611J163390A53573R98042D66748J50416J418770E23213b03051A72300
764B04577a661589J00266K21528k336219J357614i00252k51111n50087j838082
755c539532a438668G4263M0909N35138a49481j950935q96122g10585D871025L52036
745E223061A856337e58244j823272R64349c32085A868255K104975p79347l2972
736C160911J057960j30033A399715o43255C59416a461536L77624B772550K042245
727D814795r75661A690807C09969g87008A458294L18832G27298k87149d79540
717a796002M11528a10809B616206J286020j095615c44307l125158q74254J168980
708c174739k05813m14029Q09128j428297j093894J487458Q64596k513852J575610
699d093832b44129A756708p08527p0033d7492G46794R56204m7191J635093n05702
689B785198J411926L84275B261619D23883K164814q7528F38736J829614J489115
680C957465n85738A21234c135192k478102o09205L101808j104793m66727a936278
670A084425J88928J498443j322107a032736k849811J105362b42168D195528J342706
661E538234A831058a055744j527549j067103N92662P59597m82217R33685j17223
652a963892k287029j580590b073677d78421F30840J829766J057600j718230b28679
642A694974J390910K71101r04619j053896B83584a33528C02646b84400o60310
633i44710n96952q35234j277467j616397k958389N44461K122004J110212J695919
624b756553a058647A335629a307357l260753K82185J577261g85623A467109J646784
615C113893l86936I99541j87369J737588J690279j849041j051046c17643M2439
606b75204B037879K962077j647390a559354q10516j09656f30415E66898d25327
596c92247H24383a782168c36933n18195j456975R13962A643317K715156J681400
587F039873r27847j371431F55430a203742j441137l03479K3684k40941a357908
577A871968J733041k24791n6394a057712k002018J489031I81481J081870p10634
568A352717A91446c31666B68813j01871c35234k271550r5207F71443O09991d02445
557h88651r14781j36137L11031j944608R92393A438183J672504Q82989j474447
548B519229k44632D61626i49948p58002l599456J67383b182520N96910k928513
539d514123j497998K494827J446257G13309k0392Q45152K859431A673242h41619
529b516962n92347J168632Q01621C17937J427416C19148d35923A727185J571651
520C298836n63511Q60097J73748A628494c60372j73656B04408p3780C1318K66761
510B98079a250239j822835P69085i16860a05619m53360q18122c04319J46410r05096
500a063005j454895j320964L64471O26763l56030o43522p1150l91182o22640j181113
490f113267J020590Q2497J03004P13640J489005j047557M03005J641669f09708
480B666281J749901o80376A15480R60682k51757J094192b84333j168457A525954
470E02664J19615N72033a036190l6660n72316L87828H48658f17574k151536Q08957
460a960153e97455k030320M55442B81295J47247P68510J823986J391879k8903
451D384014M95269j852435J75163J287842O25534j209646j681502m98149J332067
442C058157Q080A520327J843676J348009m10951B079376a03045k027641j63132
433b293818D49102Q26439Q5862J464829n18716P86763Q28682j513149B44684M19157
423F63841L22317K99271J759638j449416o71505K94231j19122J330305O18075
414C047635j049729J80334j060722A47621J034153R92896r25463A6032b863311
404d321301J149019J80404j027507J829028G4730K443160K31321b043814j026980
395c070794a224493b21448C40632J558228J43516a327381p93562l71016J68621
386b323338a157403D55853k07432a754558H2995J995096F85048c31172j23799
377d54971A012499C11418N52539J53428a768688k104778J633693A29359K258394
368B387753J431916F37801g86300a7975l8283I87555K149038K718636J533948
359G389177l575626E38637i76556E3342J525833R32221l85817n44769d88259j383685
349a871944A99242b39273l95051I10452K04110E48542L57762N75087o34804b130849
338b209575A169409B35776a010227j64175j820782j644202J186412N32956d67338
328D35297k10796M77816J583386m434F77762K12508a534852l566312o08078p2324
318e781566K552762J295786r74274Q5004J28051j309817p33635b198889b31045
308a07833r25286a38240C99115a63020j11693k026164N25248B3595K31240a106
297A323967C87953a375623n85099r94160j033633J63179J209392J098709o46633
288b163868J056593A051653J353595K054218m09587A452830k19935J197180r29493
279A500582j44719J64950J68313F40928b256458n42334p73055J92176q19998L05037
269c894632J591624e45087K03975j761808j970763n0905M57704L56484P19722
260b590678D08098K88528a653930k529339j056117a481631A617625K511112J193089
251E321826L44613o06009q98541L34881j836222j247154m51519i3854E54488N00101
241A054589m89035h2714A123979M22483M83621F88469a74976o94792I51739K227629
231C179368J511948j948028d2396l08428j313865m75043f55610C66641c17838
221a057412j126992Q36502G30929J283923M31724J01844A136021D88919a040076
211a324413Q6490j015090j52786P31966c68330A195260m99463b609483a211478
201A753818O62898G37907C49593O12745K223209J660585m26455j403209j55671
192B860797J440496k02181F95289a954205k92358i11066n20255J72014J01376
183a157931k382167a333807D7068a798641l416342N96427a482142A167500J048889
174B216389e99170j331382A381051A94501L7480e71509j105790D00236a373470
164b940896J194259F0382K73873c15774k143090j257660N86494M30577r44735
155c644188l041986L57784K810342a685857O7852j384669l45220J224178K79337
146a844379L17676g01044A516407R13338M65650G35352b4299m07408J83726o84629
136i32610k097102J201014d29433r5785C11003d40288a56105A376326a242499
126a056721J3001l54826h9396B437119J196383J546455J304620k151096j210584
117C122897A198018e10230j571079O86335B405273K642535j49590r81921A808143
107c00798j241021q42144R57103A569573J635240F87645K6125N89774N53592A27624
96a208299O8484q5872b7114B148425p14768l17143O01199j33914O59226J749927
86C992952q36029p32502b61202j832246Q20530n0788o44459f0732A438213J243554
76B681767M63897p33802k75060l405l19143m50770D83271c99964j608432M63045
66a545351m1913j58134q8324r94239j698381j796791M2861K629127a447424e32765
55a587541N82055A380438P53274J37242p86107c031972l145318J390455R79192
46c807643J92886C7398K063342P47299j325554a331791j304755K24624d50379
36C940315n1011m79708j33485j163007b27995G33443J813746q75872J94698L30891
26B196906p45699a543700M10192M65836k194457j51469n3310i50090A201355E41845
15c72691k830352j019513a491164A336164c85417B33748K566265n27476a15811
5F07206e25465n48998F30988a301521k845172
0d146693
##END=
