##TITLE=13C-NMR: A_Laurent_190525 12/1 Sample 2 in d2o, 298 K
##JCAMPDX= 6.0         $$ Bruker NMR JCAMP-DX V2.0
##DATA TYPE= NMR SPECTRUM
##DATA CLASS= XYDATA
##ORIGIN= Bruker BioSpin GmbH
##OWNER= aci
##LONG DATE= 2025/05/19 11:50:16+0000
$$ TopSpin 5.0.0
$$ 2026-09-17 13:14:58.616 +0200  matthias@Matthiass-MacBook-Pro.local
$$ Compression mode = diff/dup
##.OBSERVE FREQUENCY= 125.80305756
##.OBSERVE NUCLEUS= ^13C
##.ACQUISITION MODE= SIMULTANEOUS (DQD)
##.ACQUISITION SCHEME= undefined
##.AVERAGES= 22
##.DIGITISER RES= 21
##SPECTROMETER/DATA SYSTEM= spect
##.PULSE SEQUENCE= zgpg30
##.SOLVENT NAME= D2O
##.SHIFT REFERENCE= INTERNAL, D2O, 1, 250.7547
##AUDIT TRAIL= $$ (NUMBER, WHEN, WHO, WHERE, PROCESS, VERSION, WHAT)
$$ ##TITLE= Audit trail, TopSpin 3.5 pl 7
$$ ##JCAMPDX= 5.01
$$ ##ORIGIN= Bruker BioSpin GmbH
$$ ##OWNER= aci
$$ $$ /opt/topspin3.2/data/aci/nmr/A_Laurent_190525/12/pdata/1/auditp.txt
$$ ##AUDIT TRAIL=  $$ (NUMBER, WHEN, WHO, WHERE, PROCESS, VERSION, WHAT)
(   1,<2025-05-19 13:47:58.388 +0200>,<aci>,<chem-nmr500>,<go4>,<TopSpin 3.5.7>,
      <acquisition in progress>)
(   2,<2025-05-19 13:50:20.601 +0200>,<aci>,<chem-nmr500>,<proc1d>,<TopSpin 3.5.7>,
      <Start of raw data processing
       efp LB = 1 FT_mod = 6 PKNL = 1 PHC0 = 469.7429 PHC1 = -158.0369 SI = 64K 
       data hash MD5: 64K
       1E 4E 0D 24 41 75 7D 7A 33 83 84 9F AB 6C CC E8>)
(   3,<2025-05-21 12:01:31.614 +0200>,<aci>,<chem-nmr500>,<disknew>,<TopSpin 3.5.7>,
      <processed data deleted>)
$$ $$ /Users/matthias/Documents/NMR/NMR Spectra/Data Stuff/Guvacine/12/pdata/1/auditp.txt
(   4,<2026-09-15T13:50:40.100+0200>,<matthias>,<Matthiass-MacBook-Pro.local>,<proc1d>,<TopSpin 5.0.0>,
      <Start of raw data processing
       em LB = 1 SI = 64K
       fid data hash MD5: 65786
       FF BF 99 43 20 9B 01 6E 1C 82 50 EE EE CE DA FF
       data hash MD5: 64K
       E2 98 40 8F 05 DE DC 21 8F 7D D3 80 4E E5 FB 24>)
(   5,<2026-09-15T13:50:40.187+0200>,<matthias>,<Matthiass-MacBook-Pro.local>,<proc1d>,<TopSpin 5.0.0>,
      <ft FT_mod = 6 PKNL = 1 SI = 64K
       data hash MD5: 64K
       3B D6 BA 2D BD F7 96 16 40 0C 67 C6 A4 44 F0 7C>)
(   6,<2026-09-15T13:50:40.334+0200>,<matthias>,<Matthiass-MacBook-Pro.local>,<proc1d>,<TopSpin 5.0.0>,
      <apk
       data hash MD5: 64K
       89 F1 37 C8 84 20 05 BE 87 5D 29 97 B5 4D 2D E2>)
(   7,<2026-09-15T13:50:40.450+0200>,<matthias>,<Matthiass-MacBook-Pro.local>,<proc1d>,<TopSpin 5.0.0>,
      <abs n ABSG = 5
       data hash MD5: 64K
       2F 8E 69 91 1F 10 B3 6D 04 64 F0 76 C1 8E 43 DE>)
$$ ##END=
$$ 
$$ $$ hash MD5
$$ $$ 6C 90 15 76 F6 42 75 45 31 8E 74 EB 22 0D 9D 30
##$RELAX= 
##$BRUKER FILE EXP=cpdprg2
$$ 1 pcpd*3:180
$$   pcpd*4:0
$$   pcpd*2:180
$$   pcpd*3:0
$$   pcpd  :180
$$   pcpd*2:0
$$   pcpd*4:180
$$   pcpd*2:0
$$   pcpd*3:180
$$ 2 pcpd*3:0
$$   pcpd*4:180
$$   pcpd*2:0
$$   pcpd*3:180
$$   pcpd  :0
$$   pcpd*2:180
$$   pcpd*4:0
$$   pcpd*2:180
$$   pcpd*3:0
$$   lo to 2 times 2
$$ 3 pcpd*3:180
$$   pcpd*4:0
$$   pcpd*2:180
$$   pcpd*3:0
$$   pcpd  :180
$$   pcpd*2:0
$$   pcpd*4:180
$$   pcpd*2:0
$$   pcpd*3:180
$$   jump to 1
##$RELAX= 
##$BRUKER FILE EXP=format.temp
$$ EDIT_PAR COMMAND FILE
$$ 
$$ DI_MODE         LONG
$$ ED_ENTRY        ACQU
$$ ORDER           FILE
$$ 
$$ 
$$ HEADER		"F2 - Acquisition Parameters"
$$ T_NAME		Date_
$$ 		TYPE	R64
$$ 		CLASS	ACQU
$$ 		SUBRANGE 0.0 50000000
$$ 		REL	"Date_=itodate(DATE)"
$$ 		INV_REL	"DATE=datetoi(Date_,DATE)"
$$ 		FORMAT	"%14.0f"
$$ 		TEXT	" "
$$ END
$$ T_NAME		Time
$$ 		TYPE	R32
$$ 		CLASS	ACQU
$$ 		SUBRANGE 0.0 1000000
$$ 		REL	"Time=itotime(DATE)"
$$ 		INV_REL	"DATE=timetoi(Time,DATE)"
$$ 		FORMAT	"%14.2f h"
$$ 		TEXT	" "
$$ END
$$ NAME		INSTRUM
$$ 		TEXT	" "
$$ END
$$ NAME		PROBHD
$$ 		FORMAT	"%14.14s"
$$ 		TEXT	" "
$$ END
$$ NAME		PULPROG
$$ 		TEXT	" "
$$ END
$$ NAME		TD
$$ 		TEXT	" "
$$ END
$$ NAME		SOLVENT
$$ 		TEXT	" "
$$ END
$$ NAME		NS
$$ 		TEXT	" "
$$ END
$$ NAME		DS
$$ 		TEXT	" "
$$ END
$$ T_NAME		SWH
$$ 		TYPE	R32
$$ 		CLASS	ACQU
$$ 		SUBRANGE 0.0 1e8
$$ 		REL	"SWH=SW*SFO1"
$$ 		INV_REL "SW=SWH/SFO1"
$$ 		UNIT	"Hz"
$$ 		FORMAT	"%14.3f Hz"
$$ 		TEXT	" "
$$ END
$$ T_NAME          FIDRES
$$                 TYPE    R32
$$                 CLASS   ACQU
$$                 SUBRANGE 0.0 100000
$$                 REL     "FIDRES=2*SW*SFO1/TD"
$$                 INV_REL "TD = nextpow(2*SW*SFO1/FIDRES)"
$$ 		UNIT	"Hz"
$$ 		FORMAT	"%14.6f Hz"
$$ 		TEXT	" "
$$ END
$$ T_NAME          AQ
$$ 		TYPE	R32
$$ 		CLASS	ACQU
$$ 		SUBRANGE 0.0 1000
$$ 		REL	"AQ=aqcalc(SW,SFO1,TD,DIGTYP)"
$$ 		INV_REL	"TD=tdcalc(SW,SFO1,1.0e6*AQ,DIGTYP)"
$$ 		UNIT	"sec"
$$ 		FORMAT	"%14.7f sec"
$$ 		TEXT	" "
$$ END
$$ NAME		RG
$$ 		TEXT	" "
$$ END
$$ T_NAME          DW
$$ 		TYPE	R32
$$ 		CLASS	ACQU
$$ 		SUBRANGE 0.0 1000000
$$ 		REL	"DW=1/(2*SW*SFO1)"
$$ 		INV_REL	"SW=1000000/(2*(0.005+DW)*SFO1)"
$$ 		UNIT	"usec"
$$ 		FORMAT	"%14.3lf usec"
$$ 		TEXT	" "
$$ END
$$ NAME		DE
$$ 		FORMAT	"%14.2f usec"
$$ 		TEXT	" "
$$ END
$$ NAME		TE
$$ 		FORMAT	"%14.1f K"
$$ 		TEXT	" "
$$ END
$$ T_NAME		D1
$$ 		TYPE	R32
$$ 		CLASS	ACQU
$$ 		SUBRANGE 0.0 1e38
$$ 		REL	"D1=D[1]"
$$ 		INV_REL	"D[1]=D1"
$$ 		UNIT	"sec"
$$ 		FORMAT	"%14.8f sec"
$$ 		TEXT	" "
$$ END
$$ T_NAME		D11
$$ 		TYPE	R32
$$ 		CLASS	ACQU
$$ 		SUBRANGE 0.0 1e38
$$ 		REL	"D11=D[11]"
$$ 		INV_REL	"D[11]=D11"
$$ 		UNIT	"sec"
$$ 		FORMAT	"%14.8f sec"
$$ 		TEXT	" "
$$ END
$$ NAME		TD0
$$ 		TEXT	" "
$$ END
$$ NAME		SFO1
$$ 		FORMAT	"%14.7f MHz"
$$ 		TEXT	" "
$$ END
$$ NAME		NUC1
$$ 		NONEDIT
$$ 		TEXT	" "
$$ END
$$ T_NAME		P1
$$ 		TYPE	R32
$$ 		CLASS	ACQU
$$ 		SUBRANGE 0.0 1.0e10
$$ 		REL	"P1=P[1]"
$$ 		INV_REL	"P[1]=P1"
$$ 		UNIT	"usec"
$$ 		FORMAT	"%14.2f usec"
$$ 		TEXT	" "
$$ END
$$ T_NAME		PLW1
$$ 		TYPE	R32
$$ 		CLASS	ACQU
$$ 		REL	"PLW1=PLW[1]"
$$ 		INV_REL	"PLW[1]=PLW1"
$$ 		UNIT	"W"
$$ 		FORMAT	"%14.8f W"
$$ 		TEXT	"power PLW1 "
$$ END
$$ NAME		SFO2
$$ 		FORMAT	"%14.7f MHz"
$$ 		TEXT	" "
$$ END
$$ NAME		NUC2
$$ 		NONEDIT
$$ 		TEXT	" "
$$ END
$$ NAME		CPDPRG[2]
$$ 		TEXT	" "
$$ END
$$ T_NAME		PCPD2
$$ 		TYPE	R32
$$ 		CLASS	ACQU
$$ 		SUBRANGE 0 1e38
$$ 		REL	"PCPD2=PCPD[2]"
$$ 		INV_REL	"PCPD[2]=PCPD2"
$$ 		UNIT	"usec"
$$ 		FORMAT	"%14.2f usec"
$$ 		TEXT	" "
$$ END
$$ T_NAME		PLW2
$$ 		TYPE	R32
$$ 		CLASS	ACQU
$$ 		REL	"PLW2=PLW[2]"
$$ 		INV_REL	"PLW[2]=PLW2"
$$ 		UNIT	"W"
$$ 		FORMAT	"%14.8f W"
$$ 		TEXT	"power PLW2 "
$$ END
$$ T_NAME		PLW12
$$ 		TYPE	R32
$$ 		CLASS	ACQU
$$ 		REL	"PLW12=PLW[12]"
$$ 		INV_REL	"PLW[12]=PLW12"
$$ 		UNIT	"W"
$$ 		FORMAT	"%14.8f W"
$$ 		TEXT	"power PLW12 "
$$ END
$$ T_NAME		PLW13
$$ 		TYPE	R32
$$ 		CLASS	ACQU
$$ 		REL	"PLW13=PLW[13]"
$$ 		INV_REL	"PLW[13]=PLW13"
$$ 		UNIT	"W"
$$ 		FORMAT	"%14.8f W"
$$ 		TEXT	"power PLW13 "
$$ END
##$RELAX= 
##$BRUKER FILE EXP=fq1list
$$ O 125.803058
$$ -16500000
$$ -16443359
$$ -16386719
$$ -16330078
$$ -16273438
$$ -16216797
$$ -16160156
$$ -16103516
$$ -16046875
$$ -15990234
$$ -15933594
$$ -15876953
$$ -15820312
$$ -15763672
$$ -15707031
$$ -15650391
$$ -15593750
$$ -15537109
$$ -15480469
$$ -15423828
$$ -15367188
$$ -15310547
$$ -15253906
$$ -15197266
$$ -15140625
$$ -15083984
$$ -15027344
$$ -14970703
$$ -14914062
$$ -14857422
$$ -14800781
$$ -14744141
$$ -14687500
$$ -14630859
$$ -14574219
$$ -14517578
$$ -14460938
$$ -14404297
$$ -14347656
$$ -14291016
$$ -14234375
$$ -14177734
$$ -14121094
$$ -14064453
$$ -14007812
$$ -13951172
$$ -13894531
$$ -13837891
$$ -13781250
$$ -13724609
$$ -13667969
$$ -13611328
$$ -13554688
$$ -13498047
$$ -13441406
$$ -13384766
$$ -13328125
$$ -13271484
$$ -13214844
$$ -13158203
$$ -13101562
$$ -13044922
$$ -12988281
$$ -12931641
$$ -12875000
$$ -12818359
$$ -12761719
$$ -12705078
$$ -12648438
$$ -12591797
$$ -12535156
$$ -12478516
$$ -12421875
$$ -12365234
$$ -12308594
$$ -12251953
$$ -12195312
$$ -12138672
$$ -12082031
$$ -12025391
$$ -11968750
$$ -11912109
$$ -11855469
$$ -11798828
$$ -11742188
$$ -11685547
$$ -11628906
$$ -11572266
$$ -11515625
$$ -11458984
$$ -11402344
$$ -11345703
$$ -11289062
$$ -11232422
$$ -11175781
$$ -11119141
$$ -11062500
$$ -11005859
$$ -10949219
$$ -10892578
$$ -10835938
$$ -10779297
$$ -10722656
$$ -10666016
$$ -10609375
$$ -10552734
$$ -10496094
$$ -10439453
$$ -10382812
$$ -10326172
$$ -10269531
$$ -10212891
$$ -10156250
$$ -10099609
$$ -10042969
$$ -9986328
$$ -9929688
$$ -9873047
$$ -9816406
$$ -9759766
$$ -9703125
$$ -9646484
$$ -9589844
$$ -9533203
$$ -9476562
$$ -9419922
$$ -9363281
$$ -9306641
$$ -9250000
$$ -9193359
$$ -9136719
$$ -9080078
$$ -9023438
$$ -8966797
$$ -8910156
$$ -8853516
$$ -8796875
$$ -8740234
$$ -8683594
$$ -8626953
$$ -8570312
$$ -8513672
$$ -8457031
$$ -8400391
$$ -8343750
$$ -8287109
$$ -8230469
$$ -8173828
$$ -8117188
$$ -8060547
$$ -8003906
$$ -7947266
$$ -7890625
$$ -7833984
$$ -7777344
$$ -7720703
$$ -7664062
$$ -7607422
$$ -7550781
$$ -7494141
$$ -7437500
$$ -7380859
$$ -7324219
$$ -7267578
$$ -7210938
$$ -7154297
$$ -7097656
$$ -7041016
$$ -6984375
$$ -6927734
$$ -6871094
$$ -6814453
$$ -6757812
$$ -6701172
$$ -6644531
$$ -6587891
$$ -6531250
$$ -6474609
$$ -6417969
$$ -6361328
$$ -6304688
$$ -6248047
$$ -6191406
$$ -6134766
$$ -6078125
$$ -6021484
$$ -5964844
$$ -5908203
$$ -5851562
$$ -5794922
$$ -5738281
$$ -5681641
$$ -5625000
$$ -5568359
$$ -5511719
$$ -5455078
$$ -5398438
$$ -5341797
$$ -5285156
$$ -5228516
$$ -5171875
$$ -5115234
$$ -5058594
$$ -5001953
$$ -4945312
$$ -4888672
$$ -4832031
$$ -4775391
$$ -4718750
$$ -4662109
$$ -4605469
$$ -4548828
$$ -4492188
$$ -4435547
$$ -4378906
$$ -4322266
$$ -4265625
$$ -4208984
$$ -4152344
$$ -4095703
$$ -4039062
$$ -3982422
$$ -3925781
$$ -3869141
$$ -3812500
$$ -3755859
$$ -3699219
$$ -3642578
$$ -3585938
$$ -3529297
$$ -3472656
$$ -3416016
$$ -3359375
$$ -3302734
$$ -3246094
$$ -3189453
$$ -3132812
$$ -3076172
$$ -3019531
$$ -2962891
$$ -2906250
$$ -2849609
$$ -2792969
$$ -2736328
$$ -2679688
$$ -2623047
$$ -2566406
$$ -2509766
$$ -2453125
$$ -2396484
$$ -2339844
$$ -2283203
$$ -2226562
$$ -2169922
$$ -2113281
$$ -2056641
$$ -2000000
$$ -1992172
$$ -1984344
$$ -1976517
$$ -1968689
$$ -1960861
$$ -1953033
$$ -1945205
$$ -1937378
$$ -1929550
$$ -1921722
$$ -1913894
$$ -1906067
$$ -1898239
$$ -1890411
$$ -1882583
$$ -1874755
$$ -1866928
$$ -1859100
$$ -1851272
$$ -1843444
$$ -1835616
$$ -1827789
$$ -1819961
$$ -1812133
$$ -1804305
$$ -1796477
$$ -1788650
$$ -1780822
$$ -1772994
$$ -1765166
$$ -1757339
$$ -1749511
$$ -1741683
$$ -1733855
$$ -1726027
$$ -1718200
$$ -1710372
$$ -1702544
$$ -1694716
$$ -1686888
$$ -1679061
$$ -1671233
$$ -1663405
$$ -1655577
$$ -1647750
$$ -1639922
$$ -1632094
$$ -1624266
$$ -1616438
$$ -1608611
$$ -1600783
$$ -1592955
$$ -1585127
$$ -1577299
$$ -1569472
$$ -1561644
$$ -1553816
$$ -1545988
$$ -1538160
$$ -1530333
$$ -1522505
$$ -1514677
$$ -1506849
$$ -1499022
$$ -1491194
$$ -1483366
$$ -1475538
$$ -1467710
$$ -1459883
$$ -1452055
$$ -1444227
$$ -1436399
$$ -1428571
$$ -1420744
$$ -1412916
$$ -1405088
$$ -1397260
$$ -1389432
$$ -1381605
$$ -1373777
$$ -1365949
$$ -1358121
$$ -1350294
$$ -1342466
$$ -1334638
$$ -1326810
$$ -1318982
$$ -1311155
$$ -1303327
$$ -1295499
$$ -1287671
$$ -1279843
$$ -1272016
$$ -1264188
$$ -1256360
$$ -1248532
$$ -1240705
$$ -1232877
$$ -1225049
$$ -1217221
$$ -1209393
$$ -1201566
$$ -1193738
$$ -1185910
$$ -1178082
$$ -1170254
$$ -1162427
$$ -1154599
$$ -1146771
$$ -1138943
$$ -1131115
$$ -1123288
$$ -1115460
$$ -1107632
$$ -1099804
$$ -1091977
$$ -1084149
$$ -1076321
$$ -1068493
$$ -1060665
$$ -1052838
$$ -1045010
$$ -1037182
$$ -1029354
$$ -1021526
$$ -1013699
$$ -1005871
$$  -998043
$$  -990215
$$  -982387
$$  -974560
$$  -966732
$$  -958904
$$  -951076
$$  -943249
$$  -935421
$$  -927593
$$  -919765
$$  -911937
$$  -904110
$$  -896282
$$  -888454
$$  -880626
$$  -872798
$$  -864971
$$  -857143
$$  -849315
$$  -841487
$$  -833659
$$  -825832
$$  -818004
$$  -810176
$$  -802348
$$  -794521
$$  -786693
$$  -778865
$$  -771037
$$  -763209
$$  -755382
$$  -747554
$$  -739726
$$  -731898
$$  -724070
$$  -716243
$$  -708415
$$  -700587
$$  -692759
$$  -684932
$$  -677104
$$  -669276
$$  -661448
$$  -653620
$$  -645793
$$  -637965
$$  -630137
$$  -622309
$$  -614481
$$  -606654
$$  -598826
$$  -590998
$$  -583170
$$  -575342
$$  -567515
$$  -559687
$$  -551859
$$  -544031
$$  -536204
$$  -528376
$$  -520548
$$  -512720
$$  -504892
$$  -497065
$$  -489237
$$  -481409
$$  -473581
$$  -465753
$$  -457926
$$  -450098
$$  -442270
$$  -434442
$$  -426614
$$  -418787
$$  -410959
$$  -403131
$$  -395303
$$  -387476
$$  -379648
$$  -371820
$$  -363992
$$  -356164
$$  -348337
$$  -340509
$$  -332681
$$  -324853
$$  -317025
$$  -309198
$$  -301370
$$  -293542
$$  -285714
$$  -277886
$$  -270059
$$  -262231
$$  -254403
$$  -246575
$$  -238748
$$  -230920
$$  -223092
$$  -215264
$$  -207436
$$  -199609
$$  -191781
$$  -183953
$$  -176125
$$  -168297
$$  -160470
$$  -152642
$$  -144814
$$  -136986
$$  -129159
$$  -121331
$$  -113503
$$  -105675
$$   -97847
$$   -90020
$$   -82192
$$   -74364
$$   -66536
$$   -58708
$$   -50881
$$   -43053
$$   -35225
$$   -27397
$$   -19569
$$   -11742
$$    -3914
$$     3914
$$    11742
$$    19569
$$    27397
$$    35225
$$    43053
$$    50881
$$    58708
$$    66536
$$    74364
$$    82192
$$    90020
$$    97847
$$   105675
$$   113503
$$   121331
$$   129159
$$   136986
$$   144814
$$   152642
$$   160470
$$   168297
$$   176125
$$   183953
$$   191781
$$   199609
$$   207436
$$   215264
$$   223092
$$   230920
$$   238748
$$   246575
$$   254403
$$   262231
$$   270059
$$   277886
$$   285714
$$   293542
$$   301370
$$   309198
$$   317025
$$   324853
$$   332681
$$   340509
$$   348337
$$   356164
$$   363992
$$   371820
$$   379648
$$   387476
$$   395303
$$   403131
$$   410959
$$   418787
$$   426614
$$   434442
$$   442270
$$   450098
$$   457926
$$   465753
$$   473581
$$   481409
$$   489237
$$   497065
$$   504892
$$   512720
$$   520548
$$   528376
$$   536204
$$   544031
$$   551859
$$   559687
$$   567515
$$   575342
$$   583170
$$   590998
$$   598826
$$   606654
$$   614481
$$   622309
$$   630137
$$   637965
$$   645793
$$   653620
$$   661448
$$   669276
$$   677104
$$   684932
$$   692759
$$   700587
$$   708415
$$   716243
$$   724070
$$   731898
$$   739726
$$   747554
$$   755382
$$   763209
$$   771037
$$   778865
$$   786693
$$   794521
$$   802348
$$   810176
$$   818004
$$   825832
$$   833659
$$   841487
$$   849315
$$   857143
$$   864971
$$   872798
$$   880626
$$   888454
$$   896282
$$   904110
$$   911937
$$   919765
$$   927593
$$   935421
$$   943249
$$   951076
$$   958904
$$   966732
$$   974560
$$   982387
$$   990215
$$   998043
$$  1005871
$$  1013699
$$  1021526
$$  1029354
$$  1037182
$$  1045010
$$  1052838
$$  1060665
$$  1068493
$$  1076321
$$  1084149
$$  1091977
$$  1099804
$$  1107632
$$  1115460
$$  1123288
$$  1131115
$$  1138943
$$  1146771
$$  1154599
$$  1162427
$$  1170254
$$  1178082
$$  1185910
$$  1193738
$$  1201566
$$  1209393
$$  1217221
$$  1225049
$$  1232877
$$  1240705
$$  1248532
$$  1256360
$$  1264188
$$  1272016
$$  1279843
$$  1287671
$$  1295499
$$  1303327
$$  1311155
$$  1318982
$$  1326810
$$  1334638
$$  1342466
$$  1350294
$$  1358121
$$  1365949
$$  1373777
$$  1381605
$$  1389432
$$  1397260
$$  1405088
$$  1412916
$$  1420744
$$  1428571
$$  1436399
$$  1444227
$$  1452055
$$  1459883
$$  1467710
$$  1475538
$$  1483366
$$  1491194
$$  1499022
$$  1506849
$$  1514677
$$  1522505
$$  1530333
$$  1538160
$$  1545988
$$  1553816
$$  1561644
$$  1569472
$$  1577299
$$  1585127
$$  1592955
$$  1600783
$$  1608611
$$  1616438
$$  1624266
$$  1632094
$$  1639922
$$  1647750
$$  1655577
$$  1663405
$$  1671233
$$  1679061
$$  1686888
$$  1694716
$$  1702544
$$  1710372
$$  1718200
$$  1726027
$$  1733855
$$  1741683
$$  1749511
$$  1757339
$$  1765166
$$  1772994
$$  1780822
$$  1788650
$$  1796477
$$  1804305
$$  1812133
$$  1819961
$$  1827789
$$  1835616
$$  1843444
$$  1851272
$$  1859100
$$  1866928
$$  1874755
$$  1882583
$$  1890411
$$  1898239
$$  1906067
$$  1913894
$$  1921722
$$  1929550
$$  1937378
$$  1945205
$$  1953033
$$  1960861
$$  1968689
$$  1976517
$$  1984344
$$  1992172
$$  2000000
$$  2056641
$$  2113281
$$  2169922
$$  2226562
$$  2283203
$$  2339844
$$  2396484
$$  2453125
$$  2509766
$$  2566406
$$  2623047
$$  2679687
$$  2736328
$$  2792969
$$  2849609
$$  2906250
$$  2962891
$$  3019531
$$  3076172
$$  3132812
$$  3189453
$$  3246094
$$  3302734
$$  3359375
$$  3416016
$$  3472656
$$  3529297
$$  3585937
$$  3642578
$$  3699219
$$  3755859
$$  3812500
$$  3869141
$$  3925781
$$  3982422
$$  4039062
$$  4095703
$$  4152344
$$  4208984
$$  4265625
$$  4322266
$$  4378906
$$  4435547
$$  4492187
$$  4548828
$$  4605469
$$  4662109
$$  4718750
$$  4775391
$$  4832031
$$  4888672
$$  4945312
$$  5001953
$$  5058594
$$  5115234
$$  5171875
$$  5228516
$$  5285156
$$  5341797
$$  5398437
$$  5455078
$$  5511719
$$  5568359
$$  5625000
$$  5681641
$$  5738281
$$  5794922
$$  5851562
$$  5908203
$$  5964844
$$  6021484
$$  6078125
$$  6134766
$$  6191406
$$  6248047
$$  6304687
$$  6361328
$$  6417969
$$  6474609
$$  6531250
$$  6587891
$$  6644531
$$  6701172
$$  6757812
$$  6814453
$$  6871094
$$  6927734
$$  6984375
$$  7041016
$$  7097656
$$  7154297
$$  7210937
$$  7267578
$$  7324219
$$  7380859
$$  7437500
$$  7494141
$$  7550781
$$  7607422
$$  7664062
$$  7720703
$$  7777344
$$  7833984
$$  7890625
$$  7947266
$$  8003906
$$  8060547
$$  8117187
$$  8173828
$$  8230469
$$  8287109
$$  8343750
$$  8400391
$$  8457031
$$  8513672
$$  8570312
$$  8626953
$$  8683594
$$  8740234
$$  8796875
$$  8853516
$$  8910156
$$  8966797
$$  9023437
$$  9080078
$$  9136719
$$  9193359
$$  9250000
$$  9306641
$$  9363281
$$  9419922
$$  9476562
$$  9533203
$$  9589844
$$  9646484
$$  9703125
$$  9759766
$$  9816406
$$  9873047
$$  9929687
$$  9986328
$$ 10042969
$$ 10099609
$$ 10156250
$$ 10212891
$$ 10269531
$$ 10326172
$$ 10382812
$$ 10439453
$$ 10496094
$$ 10552734
$$ 10609375
$$ 10666016
$$ 10722656
$$ 10779297
$$ 10835937
$$ 10892578
$$ 10949219
$$ 11005859
$$ 11062500
$$ 11119141
$$ 11175781
$$ 11232422
$$ 11289062
$$ 11345703
$$ 11402344
$$ 11458984
$$ 11515625
$$ 11572266
$$ 11628906
$$ 11685547
$$ 11742187
$$ 11798828
$$ 11855469
$$ 11912109
$$ 11968750
$$ 12025391
$$ 12082031
$$ 12138672
$$ 12195312
$$ 12251953
$$ 12308594
$$ 12365234
$$ 12421875
$$ 12478516
$$ 12535156
$$ 12591797
$$ 12648437
$$ 12705078
$$ 12761719
$$ 12818359
$$ 12875000
$$ 12931641
$$ 12988281
$$ 13044922
$$ 13101562
$$ 13158203
$$ 13214844
$$ 13271484
$$ 13328125
$$ 13384766
$$ 13441406
$$ 13498047
$$ 13554687
$$ 13611328
$$ 13667969
$$ 13724609
$$ 13781250
$$ 13837891
$$ 13894531
$$ 13951172
$$ 14007812
$$ 14064453
$$ 14121094
$$ 14177734
$$ 14234375
$$ 14291016
$$ 14347656
$$ 14404297
$$ 14460937
$$ 14517578
$$ 14574219
$$ 14630859
$$ 14687500
$$ 14744141
$$ 14800781
$$ 14857422
$$ 14914062
$$ 14970703
$$ 15027344
$$ 15083984
$$ 15140625
$$ 15197266
$$ 15253906
$$ 15310547
$$ 15367187
$$ 15423828
$$ 15480469
$$ 15537109
$$ 15593750
$$ 15650391
$$ 15707031
$$ 15763672
$$ 15820312
$$ 15876953
$$ 15933594
$$ 15990234
$$ 16046875
$$ 16103516
$$ 16160156
$$ 16216797
$$ 16273437
$$ 16330078
$$ 16386719
$$ 16443359
$$ 16500000
##$RELAX= 
##$BRUKER FILE EXP=scon2
$$ ##TITLE= Parameter file, TopSpin 3.5 pl 7
$$ ##JCAMPDX= 5.0
$$ ##DATATYPE= Parameter Values
$$ ##NPOINTS= 2	$$ modification sequence number
$$ ##ORIGIN= Bruker BioSpin GmbH
$$ ##OWNER= aci
$$ $$ 2025-05-19 13:47:58.355 +0200  aci@chem-nmr500
$$ $$ /opt/topspin3.2/data/aci/nmr/A_Laurent_190525/12/scon2
$$ $$ process /opt/topspin3.5pl7/prog/mod/go4
$$ ##$BLKTR= (0..19)
$$ 3 3 3 3 3 3 3 3 3 3 3 3 3 3 3 3 3 3 3 3
$$ ##$DE1= 4.5
$$ ##$DEADC= 0.5
$$ ##$DEPA= 4.5
$$ ##$DERX= 1.5
$$ ##$FILCOR= 0
$$ ##$GRADCHAN= 0
$$ ##$GRADPRE= (0..1)
$$ 10 10
$$ ##$HD_BLKTR= (0..19)
$$ 1 1 1 1 1 1 1 1 1 1 1 1 1 1 1 1 1 1 1 1
$$ ##$HD_DE1= 5
$$ ##$HD_DEADC= 0
$$ ##$HD_DEPA= 2.5
$$ ##$HD_DERX= 0
$$ ##END=
##$RELAX= 
##$BRUKER FILE EXP=acqum
$$ ##TITLE= Parameter file, TopSpin 3.5 pl 7
$$ ##JCAMPDX= 5.0
$$ ##DATATYPE= Parameter Values
$$ ##NPOINTS= 1	$$ modification sequence number
$$ ##ORIGIN= Bruker BioSpin GmbH
$$ ##OWNER= aci
$$ $$ 2025-05-19 13:20:01.162 +0200  aci@chem-nmr500
$$ $$ /opt/topspin3.2/data/aci/nmr/A_Laurent_190525/12/acqum
$$ $$ process /opt/topspin3.5pl7/prog/mod/edparproc
$$ ##$COMMENT= <>
$$ ##$ECF= 1
$$ ##$ECHOLST= (0..15)
$$ 1 1 1 1 1 1 1 1 1 1 1 1 1 1 1 1
$$ ##$ECOLLST= (0..15)
$$ 1 1 1 1 1 1 1 1 1 1 1 1 1 1 1 1
$$ ##$FLIPA= 0
$$ ##$FOV1= 0
$$ ##$FOV2= 0
$$ ##$FOV3= 0
$$ ##$FRARE= 1
$$ ##$HEADER= <>
$$ ##$INSTIT= <>
$$ ##$METHOD= <>
$$ ##$NECHOES= 1
$$ ##$NPROJEC= 1
$$ ##$NSLICES= 1
$$ ##$PATPOS= 0
$$ ##$RUNEXAM= -1
$$ ##$SDIST= 1
$$ ##$SOANGLE= 0
$$ ##$SORIENT= 0
$$ ##$SOT= <>
$$ ##$SPOS= 0
$$ ##$SPOSDIR= <>
$$ ##$STHICK= 3
$$ ##$T2DIST= 30
$$ ##$TINV= 50
$$ ##$TREC= 2700
$$ ##$TREP= 3000
$$ ##$TSCAN= 50000
$$ ##END=
##$RELAX= 
##$BRUKER FILE EXP=pulseprogram
$$ # 1 "/opt/topspin3.5pl7/exp/stan/nmr/lists/pp/zgpg30"
$$ ;zgpg30
$$ ;avance-version (12/01/11)
$$ ;1D sequence with power-gated decoupling
$$ ;using 30 degree flip angle
$$ ;
$$ ;$CLASS=HighRes
$$ ;$DIM=1D
$$ ;$TYPE=
$$ ;$SUBTYPE=
$$ ;$COMMENT=
$$ ;$RECOMMEND=y
$$ 
$$ 
$$ # 1 "/opt/topspin3.5pl7/exp/stan/nmr/lists/pp/Avance.incl" 1
$$ ;Avance3.incl
$$ ;   for AV III
$$ ;
$$ ;avance-version (13/06/17)
$$ ;
$$ ;$CLASS=HighRes Incl
$$ ;$COMMENT=
$$ # 169 "/opt/topspin3.5pl7/exp/stan/nmr/lists/pp/Avance.incl"
$$ ;$Id: Avance3.incl,v 1.10.2.2 2013/08/30 09:43:33 ber Exp $
$$ # 14 "/opt/topspin3.5pl7/exp/stan/nmr/lists/pp/zgpg30" 2
$$ 
$$ # 1 "/opt/topspin3.5pl7/exp/stan/nmr/lists/pp/Delay.incl" 1
$$ ;Delay.incl  -  include file for commonly used delays
$$ ;
$$ ;version (13/08/07)
$$ ;
$$ ;$CLASS=HighRes Incl
$$ ;$COMMENT=
$$ 
$$ # 9 "/opt/topspin3.5pl7/exp/stan/nmr/lists/pp/Delay.incl"
$$ ;general delays
$$ 
$$ define delay DELTA
$$ define delay DELTA1
$$ define delay DELTA2
$$ define delay DELTA3
$$ define delay DELTA4
$$ define delay DELTA5
$$ define delay DELTA6
$$ define delay DELTA7
$$ define delay DELTA8
$$ define delay DELTA9
$$ define delay DELTA10
$$ define delay DELTA11
$$ define delay DELTA12
$$ define delay DELTA13
$$ define delay DELTA14
$$ define delay DELTA15
$$ define delay DELTA16
$$ 
$$ define delay TAU
$$ define delay TAU1
$$ define delay TAU2
$$ define delay TAU3
$$ define delay TAU4
$$ define delay TAU5
$$ define delay TAU6
$$ define delay TAU7
$$ define delay TAU8
$$ define delay TAU9
$$ # 40 "/opt/topspin3.5pl7/exp/stan/nmr/lists/pp/Delay.incl"
$$ define delay INCR1
$$ define delay INCR2
$$ define delay INCR3
$$ define delay INCR4
$$ define delay INCR5
$$ define delay INCR6
$$ 
$$ 
$$ ;delays for centering pulses
$$ # 50 "/opt/topspin3.5pl7/exp/stan/nmr/lists/pp/Delay.incl"
$$ define delay CEN_HN1
$$ define delay CEN_HN2
$$ define delay CEN_HN3
$$ define delay CEN_HC1
$$ define delay CEN_HC2
$$ define delay CEN_HC3
$$ define delay CEN_HC4
$$ define delay CEN_HP1
$$ define delay CEN_HP2
$$ define delay CEN_CN1
$$ define delay CEN_CN2
$$ define delay CEN_CN3
$$ define delay CEN_CN4
$$ define delay CEN_CP1
$$ define delay CEN_CP2
$$ 
$$ 
$$ ;loop counters
$$ # 69 "/opt/topspin3.5pl7/exp/stan/nmr/lists/pp/Delay.incl"
$$ define loopcounter COUNTER
$$ define loopcounter SCALEF
$$ define loopcounter FACTOR1
$$ define loopcounter FACTOR2
$$ define loopcounter FACTOR3
$$ define loopcounter FACTOR4
$$ define loopcounter FACTOR5
$$ define loopcounter FACTOR6
$$ 
$$ 
$$ # 80 "/opt/topspin3.5pl7/exp/stan/nmr/lists/pp/Delay.incl"
$$ ;$Id: Delay.incl,v 1.14.2.1 2013/08/30 09:43:33 ber Exp $
$$ # 15 "/opt/topspin3.5pl7/exp/stan/nmr/lists/pp/zgpg30" 2
$$ 
$$ 
$$ # 18 "/opt/topspin3.5pl7/exp/stan/nmr/lists/pp/zgpg30"
$$ "d11=30m"
$$ 
$$ 
$$ "DELTA=d1-100m"
$$ # 24 "/opt/topspin3.5pl7/exp/stan/nmr/lists/pp/zgpg30"
$$ "acqt0=-p1*0.66/3.1416"
$$ 
$$ 
$$ # 1 "mc_line 27 file /opt/topspin3.5pl7/exp/stan/nmr/lists/pp/zgpg30 exp. def. part of mc cmd. before ze"
$$ ; dimension 1D; AQ_mode 
$$ define delay MCWRK
$$ define delay MCREST
$$ "MCREST = 30m - 30m"
$$ "MCWRK = 0.333333*30m"
$$ 
$$     dccorr
$$ # 27 "/opt/topspin3.5pl7/exp/stan/nmr/lists/pp/zgpg30"
$$ 1 ze
$$ # 1 "mc_line 27 file /opt/topspin3.5pl7/exp/stan/nmr/lists/pp/zgpg30 exp. def. of mc cmd. after ze"
$$ # 28 "/opt/topspin3.5pl7/exp/stan/nmr/lists/pp/zgpg30"
$$   d11 pl12:f2
$$ # 1 "mc_line 29 file /opt/topspin3.5pl7/exp/stan/nmr/lists/pp/zgpg30 exp. start label for mc cmd."
$$ 2 MCWRK  * 2 do:f2
$$ LBLF0, MCWRK 
$$   MCREST
$$ # 30 "/opt/topspin3.5pl7/exp/stan/nmr/lists/pp/zgpg30"
$$   10u pl13:f2
$$   d11 cpd2:f2
$$   DELTA
$$   4u do:f2
$$   10u pl12:f2
$$   100m cpd2:f2
$$   p1*0.33 ph1
$$   go=2 ph31
$$ # 1 "mc_line 38 file /opt/topspin3.5pl7/exp/stan/nmr/lists/pp/zgpg30 exp. mc cmd. in line"
$$   MCWRK do:f2 pl13:f2 wr #0
$$   MCWRK zd
$$   lo to LBLF0 times td0
$$ 
$$ # 39 "/opt/topspin3.5pl7/exp/stan/nmr/lists/pp/zgpg30"
$$ exit
$$ # 42 "/opt/topspin3.5pl7/exp/stan/nmr/lists/pp/zgpg30"
$$ ph1=0 2 2 0 1 3 3 1
$$ ph31=0 2 2 0 1 3 3 1
$$ 
$$ 
$$ ;pl1 : f1 channel - power level for pulse (default)
$$ ;pl12: f2 channel - power level for CPD/BB decoupling
$$ ;pl13: f2 channel - power level for second CPD/BB decoupling
$$ ;p1 : f1 channel -  90 degree high power pulse
$$ ;d1 : relaxation delay; 1-5 * T1
$$ ;d11: delay for disk I/O                             [30 msec]
$$ ;ns: 1 * n, total number of scans: NS * TD0
$$ ;cpd2: decoupling according to sequence defined by cpdprg2
$$ ;pcpd2: f2 channel - 90 degree pulse for decoupling sequence
$$ # 58 "/opt/topspin3.5pl7/exp/stan/nmr/lists/pp/zgpg30"
$$ ;$Id: zgpg30,v 1.13 2012/01/31 17:49:32 ber Exp $
##$RELAX= 
##$BRUKER FILE EXP=shimvalues
$$ # Mon May 19 13:49:22 2025
$$ #$$PROBEIDENTIFIER=Z800701_0081
$$ #$$PROBENAME=PA BBO 500S2 BB-H-D-05 Z
$$ #$$SHIMID=292722
$$ #
$$ # Active Shim Gradients
$$ #
$$ Z           		493             
$$ Z2          		2194            
$$ Z3          		-948            
$$ Z4          		3490            
$$ Z5          		-1243           
$$ Z6          		2909            
$$ Z7          		-973            
$$ Z8          		0               
$$ X           		1767            
$$ XZ          		-4875           
$$ XZ2         		1010            
$$ XZ3         		-6355           
$$ XZ4         		1379            
$$ XZ5         		10013           
$$ Y           		4289            
$$ YZ          		-10137          
$$ YZ2         		-4173           
$$ YZ3         		3481            
$$ YZ4         		-66             
$$ YZ5         		-12010          
$$ XY          		2927            
$$ XYZ         		-8055           
$$ XYZ2        		-6939           
$$ XYZ3        		-4244           
$$ XYZ4        		-2739           
$$ XYZ5        		0               
$$ (X2-Y2)     		11678           
$$ (X2-Y2)Z    		-10953          
$$ (X2-Y2)Z2   		1259            
$$ (X2-Y2)Z3   		6854            
$$ (X2-Y2)Z4   		1240            
$$ (X2-Y2)Z5   		0               
$$ X3          		2375            
$$ X3Z         		-6144           
$$ Y3          		4207            
$$ Y3Z         		6975            
$$ #
$$ # Lock Parameter
$$ #
$$ FIELD		5540.133
$$ LOCKPHASE		8.270   
$$ LOCKPOWER		-39.000 
$$ LOCKGAIN		118.200 
$$ LOCKDC		-75.000 
$$ LOCKSHIFT		4.700   
$$ LOOPGAIN		5.000   
$$ LOOPTIME		0.250   
$$ LOOPFILTER		500.000 
$$ #
$$ IEEE64_VERSION_CODE 1
$$ #
$$ # Shim currents 
$$ #
$$ SHIM_SETTING [1 ]  -78.22007033    
$$ SHIM_SETTING [2 ]  2095.65748516   
$$ SHIM_SETTING [3 ]  -1428.80181078  
$$ SHIM_SETTING [4 ]  -5396.67946653  
$$ SHIM_SETTING [5 ]  505.79896388    
$$ SHIM_SETTING [6 ]  2835.21104065   
$$ SHIM_SETTING [7 ]  5003.49953545   
$$ SHIM_SETTING [8 ]  9688.01389332   
$$ SHIM_SETTING [9 ]  1809.16665087   
$$ SHIM_SETTING [10]  3639.64302473   
$$ SHIM_SETTING [11]  0.00000000      
$$ SHIM_SETTING [12]  -2767.60200000  
$$ SHIM_SETTING [13]  11181.60200000  
$$ SHIM_SETTING [14]  4131.70300000   
$$ SHIM_SETTING [15]  -3701.29499837  
$$ SHIM_SETTING [16]  10589.86211167  
$$ SHIM_SETTING [17]  5992.10695149   
$$ SHIM_SETTING [18]  -6520.42167363  
$$ SHIM_SETTING [19]  6248.70622062   
$$ SHIM_SETTING [20]  -3067.09229912  
$$ SHIM_SETTING [21]  3498.87400000   
$$ SHIM_SETTING [22]  15280.36800000  
$$ SHIM_SETTING [23]  -2539.12700000  
$$ SHIM_SETTING [24]  21570.70100000  
$$ SHIM_SETTING [25]  9539.37000000   
$$ SHIM_SETTING [26]  727.49000000    
$$ SHIM_SETTING [27]  -1827.95400000  
$$ SHIM_SETTING [28]  -11497.40920943 
$$ SHIM_SETTING [29]  -5065.22500000  
$$ SHIM_SETTING [30]  7022.84400000   
$$ SHIM_SETTING [31]  -3969.89881948  
$$ SHIM_SETTING [32]  10817.77154044  
$$ SHIM_SETTING [33]  -17506.44300000 
$$ SHIM_SETTING [34]  4873.22900000   
$$ SHIM_SETTING [35]  7752.75800000   
$$ SHIM_SETTING [36]  13742.15300000  
$$ SHIM_SETTING [37]  14592.24348920  
$$ SHIM_SETTING [38]  -8097.44563070  
$$ SHIM_SETTING [39]  18069.38327744  
$$ SHIM_SETTING [40]  0.00000000      
##$RELAX= 
##$BRUKER FILE EXP=uxnmr.par
$$ ##TITLE= Parameter file, TopSpin 3.5 pl 7
$$ ##JCAMPDX= 5.0
$$ ##DATATYPE= Parameter Values
$$ ##NPOINTS= 104	$$ modification sequence number
$$ ##ORIGIN= Bruker BioSpin GmbH
$$ ##OWNER= nmrsu
$$ $$ 2025-04-09 09:16:50.742 +0200  aci@chem-nmr500
$$ $$ /opt/topspin3.5pl7/conf/instr/spect/uxnmr.par
$$ $$ process /opt/topspin3.5pl7/prog/mod/cfserverav3
$$ ##$ACB= 0
$$ ##$ACBTAT= (0..23)
$$ 0 72 88 50 50 0 0 0 0 0 0 0 0 0 0 0 0 0 0 0 0 0 0 0
$$ ##$ACBTBA= (0..23)
$$ 0 0 0 0 0 0 0 0 0 0 0 0 0 0 0 0 0 0 0 0 0 0 0 0
$$ ##$ACBTBLK= (0..23)
$$ 0 34 33 36 1 0 0 0 0 0 0 0 0 0 0 0 0 0 0 0 0 0 0 0
$$ ##$ACBTCTL= (0..23)
$$ 0 6 6 6 6 0 0 0 0 0 0 0 0 0 0 0 0 0 0 0 0 0 0 0
$$ ##$ACBTDI= (0..23)
$$ 0 -1779670023 -1779670023 -1779670023 -1779670252 0 0 0 0 0 0 0 0 0 0 0
$$ 0 0 0 0 0 0 0 0
$$ ##$ACBTDM= (0..23)
$$ 0 25 6 10 10 0 0 0 0 0 0 0 0 0 0 0 0 0 0 0 0 0 0 0
$$ ##$ACBTFHI= (0..23)
$$ 0 600 365 92 78 0 0 0 0 0 0 0 0 0 0 0 0 0 0 0 0 0 0 0
$$ ##$ACBTFL= (0..23)
$$ 0 248 248 88 8 0 0 0 0 0 0 0 0 0 0 0 0 0 0 0 0 0 0 0
$$ ##$ACBTFLO= (0..23)
$$ 0 180 6 30 76 0 0 0 0 0 0 0 0 0 0 0 0 0 0 0 0 0 0 0
$$ ##$ACBTINP= (0..23)
$$ 0 2 1 4 0 0 0 0 0 0 0 0 0 0 0 0 0 0 0 0 0 0 0 0
$$ ##$ACBTOUT= (0..23)
$$ 0 1 2 3 1 0 0 0 0 0 0 0 0 0 0 0 0 0 0 0 0 0 0 0
$$ ##$ACBTPO= (0..23)
$$ 0 100000 500000 150000 5000 0 0 0 0 0 0 0 0 0 0 0 0 0 0 0 0 0 0 0
$$ ##$ACBTPW= (0..23)
$$ 0 100 60 5 1000 0 0 0 0 0 0 0 0 0 0 0 0 0 0 0 0 0 0 0
$$ ##$ACBTSB= (0..23)
$$ 0 103 99 16 0 0 0 0 0 0 0 0 0 0 0 0 0 0 0 0 0 0 0 0
$$ ##$ACBTSDT= (0..23)
$$ 0 2 2 2 2 0 0 0 0 0 0 0 0 0 0 0 0 0 0 0 0 0 0 0
$$ ##$ACBTY= <no>
$$ ##$AMPDFLT= no
$$ ##$AQSBDCH= (0..95)
$$ 0 0 0 0 0 0 0 0 0 0 255 255 255 255 255 255 255 255 255 255 255 255 255
$$ 255 255 255 255 255 255 255 255 255 255 255 255 255 255 255 255 255 255
$$ 255 255 255 255 255 255 255 255 255 255 255 255 255 255 255 255 255 255
$$ 255 255 255 255 255 255 255 255 255 255 255 255 255 255 255 255 255 255
$$ 255 255 255 255 255 255 255 255 255 255 255 255 255 255 255 255 255 255
$$ 255
$$ ##$AQSBDHW= (0..95)
$$ 5 1 0 0 0 0 0 0 0 0 255 255 255 255 255 255 255 255 255 255 255 255 255
$$ 255 255 255 255 255 255 255 255 255 255 255 255 255 255 255 255 255 255
$$ 255 255 255 255 255 255 255 255 255 255 255 255 255 255 255 255 255 255
$$ 255 255 255 255 255 255 255 255 255 255 255 255 255 255 255 255 255 255
$$ 255 255 255 255 255 255 255 255 255 255 255 255 255 255 255 255 255 255
$$ 255
$$ ##$AQSBDID= (0..95)
$$ 82 88 83 83 83 83 86 86 66 66 255 255 255 255 255 255 255 255 255 255 255
$$ 255 255 255 255 255 255 255 255 255 255 255 255 255 255 255 255 255 255
$$ 255 255 255 255 255 255 255 255 255 255 255 255 255 255 255 255 255 255
$$ 255 255 255 255 255 255 255 255 255 255 255 255 255 255 255 255 255 255
$$ 255 255 255 255 255 255 255 255 255 255 255 255 255 255 255 255 255 255
$$ 255 255 255
$$ ##$AQSBDNO= (0..95)
$$ 1 1 1 2 3 4 1 2 1 1 255 255 255 255 255 255 255 255 255 255 255 255 255
$$ 255 255 255 255 255 255 255 255 255 255 255 255 255 255 255 255 255 255
$$ 255 255 255 255 255 255 255 255 255 255 255 255 255 255 255 255 255 255
$$ 255 255 255 255 255 255 255 255 255 255 255 255 255 255 255 255 255 255
$$ 255 255 255 255 255 255 255 255 255 255 255 255 255 255 255 255 255 255
$$ 255
$$ ##$AQSBDSL= (0..95)
$$ 2 3 4 4 5 5 13 14 255 1 255 255 255 255 255 255 255 255 255 255 255 255
$$ 255 255 255 255 255 255 255 255 255 255 255 255 255 255 255 255 255 255
$$ 255 255 255 255 255 255 255 255 255 255 255 255 255 255 255 255 255 255
$$ 255 255 255 255 255 255 255 255 255 255 255 255 255 255 255 255 255 255
$$ 255 255 255 255 255 255 255 255 255 255 255 255 255 255 255 255 255 255
$$ 255 255
$$ ##$AQSBDTY= (0..95)
$$ 67 214 50 50 50 50 147 145 216 7 255 255 255 255 255 255 255 255 255 255
$$ 255 255 255 255 255 255 255 255 255 255 255 255 255 255 255 255 255 255
$$ 255 255 255 255 255 255 255 255 255 255 255 255 255 255 255 255 255 255
$$ 255 255 255 255 255 255 255 255 255 255 255 255 255 255 255 255 255 255
$$ 255 255 255 255 255 255 255 255 255 255 255 255 255 255 255 255 255 255
$$ 255 255 255 255
$$ ##$AQSBUAD= (0..95)
$$ 16 52 36 37 38 39 160 161 32 32 255 255 255 255 255 255 255 255 255 255
$$ 255 255 255 255 255 255 255 255 255 255 255 255 255 255 255 255 255 255
$$ 255 255 255 255 255 255 255 255 255 255 255 255 255 255 255 255 255 255
$$ 255 255 255 255 255 255 255 255 255 255 255 255 255 255 255 255 255 255
$$ 255 255 255 255 255 255 255 255 255 255 255 255 255 255 255 255 255 255
$$ 255 255 255 255
$$ ##$AQSECL= (0..95)
$$ 0 2 2 2 2 2 0 1 1 255 255 255 255 255 255 255 255 255 255 255 255 255 255
$$ 255 255 255 255 255 255 255 255 255 255 255 255 255 255 255 255 255 255
$$ 255 255 255 255 255 255 255 255 255 255 255 255 255 255 255 255 255 255
$$ 255 255 255 255 255 255 255 255 255 255 255 255 255 255 255 255 255 255
$$ 255 255 255 255 255 255 255 255 255 255 255 255 255 255 255 255 255 255
$$ 255
$$ ##$AQSECLS= (0..95)
$$ 2 0 2 2 2 2 1 2 1 255 255 255 255 255 255 255 255 255 255 255 255 255 255
$$ 255 255 255 255 255 255 255 255 255 255 255 255 255 255 255 255 255 255
$$ 255 255 255 255 255 255 255 255 255 255 255 255 255 255 255 255 255 255
$$ 255 255 255 255 255 255 255 255 255 255 255 255 255 255 255 255 255 255
$$ 255 255 255 255 255 255 255 255 255 255 255 255 255 255 255 255 255 255
$$ 255
$$ ##$AQSETH1= <no>
$$ ##$AQSETH2= <no>
$$ ##$AQSSPLT= no
$$ ##$ATT19F= (0..1)
$$ 0 0
$$ ##$ATT1H= (0..1)
$$ 0 0
$$ ##$ATT3H= (0..1)
$$ 0 0
$$ ##$ATTX= (0..1)
$$ 0 0
$$ ##$ATTY= (0..1)
$$ 0 0
$$ ##$ATTZ= (0..1)
$$ 0 0
$$ ##$BACSAIR= yes
$$ ##$BACSCAP= 0
$$ ##$BACSDEL= 1
$$ ##$BACSFCM= no
$$ ##$BACSOPT= <>
$$ ##$BACSTY= <no>
$$ ##$BARPTY= <no>
$$ ##$BFREQ= 500.25
$$ ##$BGAETH= (0..9)
$$ <no> <no> <no> <no> <no> <no> <no> <no> <no> <no>
$$ ##$BIRDS= yes
$$ ##$BMPC= 0
$$ ##$BMPCTY= <no>
$$ ##$BPSUTY= <no>
$$ ##$BSMS= 2
$$ ##$BSMS19FLock= no
$$ ##$BSMSETH= <149.236.99.20>
$$ ##$BSMSTY= <no>
$$ ##$BgaChFac2= (0..7)
$$ 0 0 0 0 0 0 0 0
$$ ##$BgaChMap= (0..7)
$$ 0 0 0 0 0 0 0 0
$$ ##$BgaChMaxv= (0..7)
$$ 0 0 0 0 0 0 0 0
$$ ##$BgaChRouting= (0..63)
$$ 0 0 0 0 0 0 0 0 0 0 0 0 0 0 0 0 0 0 0 0 0 0 0 0 0 0 0 0 0 0 0 0 0 0 0 0
$$ 0 0 0 0 0 0 0 0 0 0 0 0 0 0 0 0 0 0 0 0 0 0 0 0 0 0 0 0
$$ ##$BgaChShimMap= (0..7)
$$ 0 0 0 0 0 0 0 0
$$ ##$BgaChShimMaxv= (0..7)
$$ 0 0 0 0 0 0 0 0
$$ ##$Bla01Eth= <149.236.99.254>
$$ ##$Bla01Nam= <BLAXH2H500/100/150 E 200-600MHZ>
$$ ##$Bla01PN= <W1345099>
$$ ##$Bla01SN= <0190>
$$ ##$Bla02Eth= <149.236.99.20>
$$ ##$Bla02Nam= <BSMS/2 LOCK TRANSCEIVER 500>
$$ ##$Bla02PN= <Z109889>
$$ ##$Bla02SN= <00456>
$$ ##$Bla03Eth= <no>
$$ ##$Bla03Nam= <>
$$ ##$Bla03PN= <>
$$ ##$Bla03SN= <>
$$ ##$Bla04Eth= <no>
$$ ##$Bla04Nam= <>
$$ ##$Bla04PN= <>
$$ ##$Bla04SN= <>
$$ ##$Bla05Eth= <no>
$$ ##$Bla05Nam= <>
$$ ##$Bla05PN= <>
$$ ##$Bla05SN= <>
$$ ##$Bla06Eth= <no>
$$ ##$Bla06Nam= <>
$$ ##$Bla06PN= <>
$$ ##$Bla06SN= <>
$$ ##$Bla07Eth= <no>
$$ ##$Bla07Nam= <>
$$ ##$Bla07PN= <>
$$ ##$Bla07SN= <>
$$ ##$Bla08Eth= <no>
$$ ##$Bla08Nam= <>
$$ ##$Bla08PN= <>
$$ ##$Bla08SN= <>
$$ ##$BlaEth= (0..9)
$$ <149.236.99.249> <149.236.99.20> <no> <no> <no> <no> <no> <no> <> <>
$$ ##$BlaNam= (0..9)
$$ <BLAXH2H500/100/150 E 200-600MHZ > <BSMS/2 LOCK TRANSCEIVER 500> <> <>
$$ <> <> <> <> <> <>
$$ ##$BlaPN= (0..9)
$$ <W1345099> <Z109889> <> <> <> <> <> <> <> <>
$$ ##$BlaSN= (0..9)
$$ <0187> <00456> <> <> <> <> <> <> <> <>
$$ ##$BsmsAuxEth= <no>
$$ ##$CFASMOD= (0..7)
$$ 1 1 1 1 1 1 1 1
$$ ##$CFASMUL= (0..7)
$$ 1 1 1 1 1 1 1 1
$$ ##$CNFTXDR= (0..7)
$$ 6 6 6 0 0 0 0 0
$$ ##$COMDIG2= 0
$$ ##$CPDBTY= <no>
$$ ##$CRCOTY= <no>
$$ ##$CSW1= (0..31)
$$ 2 2 2 4 0 0 0 0 0 0 0 0 0 0 0 0 0 0 0 0 0 0 0 0 0 0 0 0 0 0 0 0
$$ ##$CSW2= (0..31)
$$ 1 1 1 0 0 0 0 0 0 0 0 0 0 0 0 0 0 0 0 0 0 0 0 0 0 0 0 0 0 0 0 0
$$ ##$CSWNUM= (0..7)
$$ 4 1 0 0 0 0 0 0
$$ ##$ConsolePnSn= <>
$$ ##$CryoProAccPnSn= <>
$$ ##$Ctb1Eth= <no>
$$ ##$CubeEth= (0..7)
$$ <no> <no> <no> <no> <no> <no> <no> <no>
$$ ##$CustRegisterNo= <>
$$ ##$DATSTAT= no
$$ ##$DIGI140= (0..7)
$$ 0 0 0 0 0 0 0 0
$$ ##$DIGIB12= (0..7)
$$ 0 0 0 0 0 0 0 0
$$ ##$DIGIB16= (0..7)
$$ 0 0 0 0 0 0 0 0
$$ ##$DIGIFA= (0..7)
$$ 0 0 0 0 0 0 0 0
$$ ##$DIGIFOURIER= 0
$$ ##$DIGIHA= (0..7)
$$ 0 0 0 0 0 0 0 0
$$ ##$DIGIHAF= (0..7)
$$ 0 0 0 0 0 0 0 0
$$ ##$DIGIHRD= (0..7)
$$ 0 0 0 0 0 0 0 0
$$ ##$DIGIIA= (0..7)
$$ 0 0 0 0 0 0 0 0
$$ ##$DIGIO16= (0..7)
$$ 0 0 0 0 0 0 0 0
$$ ##$DIGISA= (0..7)
$$ 0 0 0 0 0 0 0 0
$$ ##$DIGISAF= (0..7)
$$ 0 0 0 0 0 0 0 0
$$ ##$DIGISL= (0..7)
$$ 0 0 0 0 0 0 0 0
$$ ##$DIGITYI= (0..7)
$$ 0 0 0 0 0 0 0 0
$$ ##$DIGITYP= (0..7)
$$ 0 0 0 0 0 0 0 0
$$ ##$DIGITZ= 0
$$ ##$DPPFAC= 1
$$ ##$DRMSETH= <no>
$$ ##$DRU= yes
$$ ##$DRUETH= (0..33)
$$ <no> <149.236.99.89> <no> <no> <no> <no> <no> <no> <no> <no> <no> <no>
$$ <no> <no> <no> <no> <no> <no> <no> <no> <no> <no> <no> <no> <no> <no> <no>
$$ <no> <no> <no> <no> <no> <no> <>
$$ ##$Description= <AVHD500>
$$ ##$DppType= 0
$$ ##$FCUMEM= (0..7)
$$ 16777208 16777208 16777208 0 0 0 0 0
$$ ##$FCUPAL= (0..7)
$$ 0 0 0 0 0 0 0 0
$$ ##$FGSVTY= <no>
$$ ##$FQMIX= 0
$$ ##$FUNCMOD= <>
$$ ##$FourPeriBdEth= <no>
$$ ##$FourShimBdEth= <no>
$$ ##$FourierPicsCon= no
$$ ##$GCUTYPE= 10
$$ ##$GCUTYPE2= 0
$$ ##$GPREDEL= 0
$$ ##$GPSCUTY= <no>
$$ ##$GRADRES= 5
$$ ##$GTUTY= <no>
$$ ##$GcConn= (0..1)
$$ 1 0
$$ ##$GradAmpGain= (0..7)
$$ 0 0 0 0 0 0 0 0
$$ ##$GradAmpMaxCurX= (0..7)
$$ 0 0 0 0 0 0 0 0
$$ ##$GradAmpMaxCurY= (0..7)
$$ 0 0 0 0 0 0 0 0
$$ ##$GradAmpMaxCurZ= (0..7)
$$ 9.99999904632568 0 0 0 0 0 0 0
$$ ##$GradAmpName= (0..7)
$$ <GAB in BSMS> <> <> <> <> <> <> <>
$$ ##$GradAmpPN= (0..7)
$$ <> <> <> <> <> <> <> <>
$$ ##$GradAmpSN= (0..7)
$$ <> <> <> <> <> <> <> <>
$$ ##$GradAmpType= (0..7)
$$ 2 0 0 0 0 0 0 0
$$ ##$GradPowClkCtrl= 0
$$ ##$GradPowClkTime= 0
$$ ##$GradPowImax= 0
$$ ##$GradPowType= 0
$$ ##$GradPowVmax= 0
$$ ##$HDIETH= (0..5)
$$ <> <no> <no> <no> <no> <>
$$ ##$HFAC= 3
$$ ##$HPCU= 0
$$ ##$HPCUTY= <no>
$$ ##$HPTXLP= (0..3)
$$ -1 -1 -1 -1
$$ ##$HPTXPI= (0..3)
$$ 0 0 0 0
$$ ##$HPTXPO= (0..3)
$$ 0 0 0 0
$$ ##$HPTXTY= (0..3)
$$ 0 0 0 0
$$ ##$HpprCoverType= 2
$$ ##$IF451= 0
$$ ##$IFREQ= 1
$$ ##$INJPTY= <no>
$$ ##$INTFPR= 0
$$ ##$IPSOETH= <149.236.99.253>
$$ ##$IPSOTYPE= 1
$$ ##$LDUETH= (0..0)
$$ <no>
$$ ##$LOCKCONF= <DLM>
$$ ##$LOCKTY= <no>
$$ ##$LOCSWID= 0
$$ ##$LOCSWIF= 0
$$ ##$LVDSSPLITETH= (0..5)
$$ <> <no> <no> <no> <no> <>
$$ ##$Location= <Universitaet Zuerich Irchel>
$$ ##$M2FAC= 0
$$ ##$MAS= 2
$$ ##$MASETIME= 10
$$ ##$MASITIME= 10
$$ ##$MASTY= <tty01>
$$ ##$MAS_CT= 10
$$ ##$MAS_SG= 0
$$ ##$MAS_TO= 0
$$ ##$MEMPRM= 0
$$ ##$MHFAC= 0
$$ ##$MXFAC= 0
$$ ##$MagnCoilPnSn= <>
$$ ##$MagnDewarPnSn= <>
$$ ##$MasEth= <no>
$$ ##$NAMPD= (0..17)
$$ <> <HPLNA 19F1H> <2H> <XBB19F 2HP> <> <> <> <> <> <> <> <> <> <> <> <>
$$ <> <>
$$ ##$NFCU= 3
$$ ##$NFRED= 0
$$ ##$NMRCH= 2
$$ ##$NMRMEM= 16384
$$ ##$NPSGU= 0
$$ ##$NRCU= 1
$$ ##$NROUT= 0
$$ ##$NSGU= 4
$$ ##$OrderNo= <10088890>
$$ ##$PAMPF1= (0..15)
$$ 75 56 96 64 0 0 0 0 0 0 0 0 0 0 0 0
$$ ##$PAMPF2= (0..15)
$$ 0 0 0 0 0 0 0 0 0 0 0 0 0 0 0 0
$$ ##$PAMPF3= (0..15)
$$ 0 0 0 0 0 0 0 0 0 0 0 0 0 0 0 0
$$ ##$PAMPF4= (0..15)
$$ 0 0 0 0 0 0 0 0 0 0 0 0 0 0 0 0
$$ ##$PAMPF5= (0..15)
$$ 0 0 0 0 0 0 0 0 0 0 0 0 0 0 0 0
$$ ##$PAMPF6= (0..15)
$$ 0 0 0 0 0 0 0 0 0 0 0 0 0 0 0 0
$$ ##$PAMPF7= (0..15)
$$ 0 0 0 0 0 0 0 0 0 0 0 0 0 0 0 0
$$ ##$PAMPF8= (0..15)
$$ 0 0 0 0 0 0 0 0 0 0 0 0 0 0 0 0
$$ ##$PH4= 0
$$ ##$PHF4TY= <no>
$$ ##$POWCHK= yes
$$ ##$PRAMD1= (0..7)
$$ 6 0 0 1610612736 0 0 0 0
$$ ##$PRAMD10= (0..7)
$$ 0 0 0 0 0 0 0 0
$$ ##$PRAMD11= (0..7)
$$ 0 0 0 0 0 0 0 0
$$ ##$PRAMD12= (0..7)
$$ 0 0 0 0 0 0 0 0
$$ ##$PRAMD13= (0..7)
$$ 0 0 0 0 0 0 0 0
$$ ##$PRAMD14= (0..7)
$$ 0 0 0 0 0 0 0 0
$$ ##$PRAMD15= (0..7)
$$ 0 0 0 0 0 0 0 0
$$ ##$PRAMD16= (0..7)
$$ 0 0 0 0 0 0 0 0
$$ ##$PRAMD17= (0..7)
$$ 0 0 0 0 0 0 0 0
$$ ##$PRAMD18= (0..7)
$$ 0 0 0 0 0 0 0 0
$$ ##$PRAMD19= (0..7)
$$ 0 0 0 0 0 0 0 0
$$ ##$PRAMD2= (0..7)
$$ 0 1048576 0 536870912 0 1048576 0 536870912
$$ ##$PRAMD20= (0..7)
$$ 0 0 0 0 0 0 0 0
$$ ##$PRAMD21= (0..7)
$$ 0 0 0 0 0 0 0 0
$$ ##$PRAMD3= (0..7)
$$ 2147483644 2147483647 2147483647 603979775 0 0 0 0
$$ ##$PRAMD4= (0..7)
$$ 0 0 0 0 0 0 0 0
$$ ##$PRAMD5= (0..7)
$$ 0 0 0 0 0 0 0 0
$$ ##$PRAMD6= (0..7)
$$ 0 0 0 0 0 0 0 0
$$ ##$PRAMD7= (0..7)
$$ 0 0 0 0 0 0 0 0
$$ ##$PRAMD8= (0..7)
$$ 0 0 0 0 0 0 0 0
$$ ##$PRAMD9= (0..7)
$$ 0 0 0 0 0 0 0 0
$$ ##$PRAMLED= (0..1)
$$ 0 0
$$ ##$PRAMP= (0..9)
$$ <> <tty10> <no> <no> <no> <no> <no> <no> <no> <>
$$ ##$PRAMPTP= 1
$$ ##$PREEMPTYPE= 0
$$ ##$PREPTY= <no>
$$ ##$PREREC= (0..15)
$$ 0 1 1 1 0 0 0 0 0 0 0 0 0 0 0 0
$$ ##$PRESHLD= 0
$$ ##$PTS160= -1
$$ ##$PTSA2X= (0..7)
$$ 0 0 0 0 0 0 0 0
$$ ##$PTSF2X= (0..7)
$$ 0 0 0 0 0 0 0 0
$$ ##$PTSFMX= (0..19)
$$ 649.9 649.9 649.9 649.9 0 0 0 0 0 0 0 0 0 0 0 0 0 0 0 0
$$ ##$PULCHK= no
$$ ##$PerMagATempSens= no
$$ ##$PerMagEth= <no>
$$ ##$PerMagFluxSens= no
$$ ##$PerMagMTempSens= no
$$ ##$PramDutyCycPerc= (0..15)
$$ 4 2 2 0 0 0 0 0 0 0 0 0 0 0 0 0
$$ ##$PramPeakPowerW= (0..15)
$$ 4000 500 500 0 0 0 0 0 0 0 0 0 0 0 0 0
$$ ##$PramPowerSwitch= (0..15)
$$ 0 0 0 0 0 0 0 0 0 0 0 0 0 0 0 0
$$ ##$PramPulWidthMs= (0..15)
$$ 10 0.1 0.1 0 0 0 0 0 0 0 0 0 0 0 0 0
$$ ##$PreampMod01PN= <Z103204>
$$ ##$PreampMod01SN= <00273>
$$ ##$PreampMod02PN= <Z003472>
$$ ##$PreampMod02SN= <01157>
$$ ##$PreampMod03PN= <Z102026>
$$ ##$PreampMod03SN= <00013>
$$ ##$PreampMod04PN= <>
$$ ##$PreampMod04SN= <>
$$ ##$PreampMod05PN= <>
$$ ##$PreampMod05SN= <>
$$ ##$PreampMod06PN= <>
$$ ##$PreampMod06SN= <>
$$ ##$PreampMod07PN= <>
$$ ##$PreampMod07SN= <>
$$ ##$PreampMod08PN= <>
$$ ##$PreampMod08SN= <>
$$ ##$PreampMod09PN= <>
$$ ##$PreampMod09SN= <>
$$ ##$PreampMod10PN= <>
$$ ##$PreampMod10SN= <>
$$ ##$PreampMod11PN= <>
$$ ##$PreampMod11SN= <>
$$ ##$PreampMod12PN= <>
$$ ##$PreampMod12SN= <>
$$ ##$PreampMod13PN= <>
$$ ##$PreampMod13SN= <>
$$ ##$PreampMod14PN= <>
$$ ##$PreampMod14SN= <>
$$ ##$PreampMod15PN= <>
$$ ##$PreampMod15SN= <>
$$ ##$PreampMod16PN= <>
$$ ##$PreampMod16SN= <>
$$ ##$PreampModBisDat= (0..15)
$$ 20130502 20130412 20130626 0 0 0 0 0 0 0 0 0 0 0 0 0
$$ ##$PreampModPN= (0..17)
$$ <Z103204> <Z003472> <Z102026> <> <> <> <> <> <> <> <> <> <> <> <> <> <>
$$ <>
$$ ##$PreampModSN= (0..17)
$$ <00273> <01157> <00013> <> <> <> <> <> <> <> <> <> <> <> <> <> <> <>
$$ ##$ProdigyEth= <no>
$$ ##$RCUCDS= (0..7)
$$ 0 0 0 0 0 0 0 0
$$ ##$RCUCFS= (0..7)
$$ 0 0 0 0 0 0 0 0
$$ ##$RCUCSS= (0..7)
$$ 0 0 0 0 0 0 0 0
$$ ##$RCUI2C1= (0..7)
$$ 0 0 0 0 0 0 0 0
$$ ##$RCUI2C2= (0..7)
$$ 0 0 0 0 0 0 0 0
$$ ##$RCUI2C3= (0..7)
$$ 0 0 0 0 0 0 0 0
$$ ##$RCUI2C4= (0..7)
$$ 0 0 0 0 0 0 0 0
$$ ##$RCUI2C5= (0..7)
$$ 0 0 0 0 0 0 0 0
$$ ##$RCUI2C6= (0..7)
$$ 0 0 0 0 0 0 0 0
$$ ##$RCUI2C7= (0..7)
$$ 0 0 0 0 0 0 0 0
$$ ##$RCUI2C8= (0..7)
$$ 0 0 0 0 0 0 0 0
$$ ##$RDCU= 0
$$ ##$RFSINPUT= (0..1)
$$ 0 0
$$ ##$RFSVTY= <no>
$$ ##$RGTYPE= (0..31)
$$ 9 0 0 0 0 0 0 0 0 0 0 0 0 0 0 0 0 0 0 0 0 0 0 0 0 0 0 0 0 0 0 0
$$ ##$RG_max= (0..31)
$$ 203 -1 -1 -1 -1 -1 -1 -1 -1 -1 -1 -1 -1 -1 -1 -1 -1 -1 -1 -1 -1 -1 -1 -1
$$ -1 -1 -1 -1 -1 -1 -1 -1
$$ ##$RG_min= (0..31)
$$ 0.25 -1 -1 -1 -1 -1 -1 -1 -1 -1 -1 -1 -1 -1 -1 -1 -1 -1 -1 -1 -1 -1 -1
$$ -1 -1 -1 -1 -1 -1 -1 -1 -1
$$ ##$RG_tab1= (0..255)
$$ 0.25 0.28 0.32 0.35 0.4 0.44 0.5 0.56 0.64 0.7 0.8 0.89 1 1.12 1.28 1.4
$$ 1.6 1.78 2 2.25 2.56 2.8 3.2 3.56 4 4.5 5 5.6 6.35 7.12 8 9 10 11.3 12.7
$$ 14.2 16 18 20.2 22.6 25.4 28.5 32 36 40.3 45.2 50.8 57 64 71.8 80.6 90.5
$$ 101 114 128 144 161 181 203 -1 -1 -1 -1 -1 -1 -1 -1 -1 -1 -1 -1 -1 -1 -1
$$ -1 -1 -1 -1 -1 -1 -1 -1 -1 -1 -1 -1 -1 -1 -1 -1 -1 -1 -1 -1 -1 -1 -1 -1
$$ -1 -1 -1 -1 -1 -1 -1 -1 -1 -1 -1 -1 -1 -1 -1 -1 -1 -1 -1 -1 -1 -1 -1 -1
$$ -1 -1 -1 -1 -1 -1 -1 -1 -1 -1 -1 -1 -1 -1 -1 -1 -1 -1 -1 -1 -1 -1 -1 -1
$$ -1 -1 -1 -1 -1 -1 -1 -1 -1 -1 -1 -1 -1 -1 -1 -1 -1 -1 -1 -1 -1 -1 -1 -1
$$ -1 -1 -1 -1 -1 -1 -1 -1 -1 -1 -1 -1 -1 -1 -1 -1 -1 -1 -1 -1 -1 -1 -1 -1
$$ -1 -1 -1 -1 -1 -1 -1 -1 -1 -1 -1 -1 -1 -1 -1 -1 -1 -1 -1 -1 -1 -1 -1 -1
$$ -1 -1 -1 -1 -1 -1 -1 -1 -1 -1 -1 -1 -1 -1 -1 -1 -1 -1 -1 -1 -1 -1 -1 -1
$$ -1 -1 -1 -1 -1 -1 -1 -1 -1 -1 -1 -1 -1 -1
$$ ##$RG_tab2= (0..255)
$$ -1 -1 -1 -1 -1 -1 -1 -1 -1 -1 -1 -1 -1 -1 -1 -1 -1 -1 -1 -1 -1 -1 -1 -1
$$ -1 -1 -1 -1 -1 -1 -1 -1 -1 -1 -1 -1 -1 -1 -1 -1 -1 -1 -1 -1 -1 -1 -1 -1
$$ -1 -1 -1 -1 -1 -1 -1 -1 -1 -1 -1 -1 -1 -1 -1 -1 -1 -1 -1 -1 -1 -1 -1 -1
$$ -1 -1 -1 -1 -1 -1 -1 -1 -1 -1 -1 -1 -1 -1 -1 -1 -1 -1 -1 -1 -1 -1 -1 -1
$$ -1 -1 -1 -1 -1 -1 -1 -1 -1 -1 -1 -1 -1 -1 -1 -1 -1 -1 -1 -1 -1 -1 -1 -1
$$ -1 -1 -1 -1 -1 -1 -1 -1 -1 -1 -1 -1 -1 -1 -1 -1 -1 -1 -1 -1 -1 -1 -1 -1
$$ -1 -1 -1 -1 -1 -1 -1 -1 -1 -1 -1 -1 -1 -1 -1 -1 -1 -1 -1 -1 -1 -1 -1 -1
$$ -1 -1 -1 -1 -1 -1 -1 -1 -1 -1 -1 -1 -1 -1 -1 -1 -1 -1 -1 -1 -1 -1 -1 -1
$$ -1 -1 -1 -1 -1 -1 -1 -1 -1 -1 -1 -1 -1 -1 -1 -1 -1 -1 -1 -1 -1 -1 -1 -1
$$ -1 -1 -1 -1 -1 -1 -1 -1 -1 -1 -1 -1 -1 -1 -1 -1 -1 -1 -1 -1 -1 -1 -1 -1
$$ -1 -1 -1 -1 -1 -1 -1 -1 -1 -1 -1 -1 -1 -1 -1 -1
$$ ##$RG_tab3= (0..255)
$$ -1 -1 -1 -1 -1 -1 -1 -1 -1 -1 -1 -1 -1 -1 -1 -1 -1 -1 -1 -1 -1 -1 -1 -1
$$ -1 -1 -1 -1 -1 -1 -1 -1 -1 -1 -1 -1 -1 -1 -1 -1 -1 -1 -1 -1 -1 -1 -1 -1
$$ -1 -1 -1 -1 -1 -1 -1 -1 -1 -1 -1 -1 -1 -1 -1 -1 -1 -1 -1 -1 -1 -1 -1 -1
$$ -1 -1 -1 -1 -1 -1 -1 -1 -1 -1 -1 -1 -1 -1 -1 -1 -1 -1 -1 -1 -1 -1 -1 -1
$$ -1 -1 -1 -1 -1 -1 -1 -1 -1 -1 -1 -1 -1 -1 -1 -1 -1 -1 -1 -1 -1 -1 -1 -1
$$ -1 -1 -1 -1 -1 -1 -1 -1 -1 -1 -1 -1 -1 -1 -1 -1 -1 -1 -1 -1 -1 -1 -1 -1
$$ -1 -1 -1 -1 -1 -1 -1 -1 -1 -1 -1 -1 -1 -1 -1 -1 -1 -1 -1 -1 -1 -1 -1 -1
$$ -1 -1 -1 -1 -1 -1 -1 -1 -1 -1 -1 -1 -1 -1 -1 -1 -1 -1 -1 -1 -1 -1 -1 -1
$$ -1 -1 -1 -1 -1 -1 -1 -1 -1 -1 -1 -1 -1 -1 -1 -1 -1 -1 -1 -1 -1 -1 -1 -1
$$ -1 -1 -1 -1 -1 -1 -1 -1 -1 -1 -1 -1 -1 -1 -1 -1 -1 -1 -1 -1 -1 -1 -1 -1
$$ -1 -1 -1 -1 -1 -1 -1 -1 -1 -1 -1 -1 -1 -1 -1 -1
$$ ##$RG_tab4= (0..255)
$$ -1 -1 -1 -1 -1 -1 -1 -1 -1 -1 -1 -1 -1 -1 -1 -1 -1 -1 -1 -1 -1 -1 -1 -1
$$ -1 -1 -1 -1 -1 -1 -1 -1 -1 -1 -1 -1 -1 -1 -1 -1 -1 -1 -1 -1 -1 -1 -1 -1
$$ -1 -1 -1 -1 -1 -1 -1 -1 -1 -1 -1 -1 -1 -1 -1 -1 -1 -1 -1 -1 -1 -1 -1 -1
$$ -1 -1 -1 -1 -1 -1 -1 -1 -1 -1 -1 -1 -1 -1 -1 -1 -1 -1 -1 -1 -1 -1 -1 -1
$$ -1 -1 -1 -1 -1 -1 -1 -1 -1 -1 -1 -1 -1 -1 -1 -1 -1 -1 -1 -1 -1 -1 -1 -1
$$ -1 -1 -1 -1 -1 -1 -1 -1 -1 -1 -1 -1 -1 -1 -1 -1 -1 -1 -1 -1 -1 -1 -1 -1
$$ -1 -1 -1 -1 -1 -1 -1 -1 -1 -1 -1 -1 -1 -1 -1 -1 -1 -1 -1 -1 -1 -1 -1 -1
$$ -1 -1 -1 -1 -1 -1 -1 -1 -1 -1 -1 -1 -1 -1 -1 -1 -1 -1 -1 -1 -1 -1 -1 -1
$$ -1 -1 -1 -1 -1 -1 -1 -1 -1 -1 -1 -1 -1 -1 -1 -1 -1 -1 -1 -1 -1 -1 -1 -1
$$ -1 -1 -1 -1 -1 -1 -1 -1 -1 -1 -1 -1 -1 -1 -1 -1 -1 -1 -1 -1 -1 -1 -1 -1
$$ -1 -1 -1 -1 -1 -1 -1 -1 -1 -1 -1 -1 -1 -1 -1 -1
$$ ##$RG_tab5= (0..255)
$$ -1 -1 -1 -1 -1 -1 -1 -1 -1 -1 -1 -1 -1 -1 -1 -1 -1 -1 -1 -1 -1 -1 -1 -1
$$ -1 -1 -1 -1 -1 -1 -1 -1 -1 -1 -1 -1 -1 -1 -1 -1 -1 -1 -1 -1 -1 -1 -1 -1
$$ -1 -1 -1 -1 -1 -1 -1 -1 -1 -1 -1 -1 -1 -1 -1 -1 -1 -1 -1 -1 -1 -1 -1 -1
$$ -1 -1 -1 -1 -1 -1 -1 -1 -1 -1 -1 -1 -1 -1 -1 -1 -1 -1 -1 -1 -1 -1 -1 -1
$$ -1 -1 -1 -1 -1 -1 -1 -1 -1 -1 -1 -1 -1 -1 -1 -1 -1 -1 -1 -1 -1 -1 -1 -1
$$ -1 -1 -1 -1 -1 -1 -1 -1 -1 -1 -1 -1 -1 -1 -1 -1 -1 -1 -1 -1 -1 -1 -1 -1
$$ -1 -1 -1 -1 -1 -1 -1 -1 -1 -1 -1 -1 -1 -1 -1 -1 -1 -1 -1 -1 -1 -1 -1 -1
$$ -1 -1 -1 -1 -1 -1 -1 -1 -1 -1 -1 -1 -1 -1 -1 -1 -1 -1 -1 -1 -1 -1 -1 -1
$$ -1 -1 -1 -1 -1 -1 -1 -1 -1 -1 -1 -1 -1 -1 -1 -1 -1 -1 -1 -1 -1 -1 -1 -1
$$ -1 -1 -1 -1 -1 -1 -1 -1 -1 -1 -1 -1 -1 -1 -1 -1 -1 -1 -1 -1 -1 -1 -1 -1
$$ -1 -1 -1 -1 -1 -1 -1 -1 -1 -1 -1 -1 -1 -1 -1 -1
$$ ##$RG_tab6= (0..255)
$$ -1 -1 -1 -1 -1 -1 -1 -1 -1 -1 -1 -1 -1 -1 -1 -1 -1 -1 -1 -1 -1 -1 -1 -1
$$ -1 -1 -1 -1 -1 -1 -1 -1 -1 -1 -1 -1 -1 -1 -1 -1 -1 -1 -1 -1 -1 -1 -1 -1
$$ -1 -1 -1 -1 -1 -1 -1 -1 -1 -1 -1 -1 -1 -1 -1 -1 -1 -1 -1 -1 -1 -1 -1 -1
$$ -1 -1 -1 -1 -1 -1 -1 -1 -1 -1 -1 -1 -1 -1 -1 -1 -1 -1 -1 -1 -1 -1 -1 -1
$$ -1 -1 -1 -1 -1 -1 -1 -1 -1 -1 -1 -1 -1 -1 -1 -1 -1 -1 -1 -1 -1 -1 -1 -1
$$ -1 -1 -1 -1 -1 -1 -1 -1 -1 -1 -1 -1 -1 -1 -1 -1 -1 -1 -1 -1 -1 -1 -1 -1
$$ -1 -1 -1 -1 -1 -1 -1 -1 -1 -1 -1 -1 -1 -1 -1 -1 -1 -1 -1 -1 -1 -1 -1 -1
$$ -1 -1 -1 -1 -1 -1 -1 -1 -1 -1 -1 -1 -1 -1 -1 -1 -1 -1 -1 -1 -1 -1 -1 -1
$$ -1 -1 -1 -1 -1 -1 -1 -1 -1 -1 -1 -1 -1 -1 -1 -1 -1 -1 -1 -1 -1 -1 -1 -1
$$ -1 -1 -1 -1 -1 -1 -1 -1 -1 -1 -1 -1 -1 -1 -1 -1 -1 -1 -1 -1 -1 -1 -1 -1
$$ -1 -1 -1 -1 -1 -1 -1 -1 -1 -1 -1 -1 -1 -1 -1 -1
$$ ##$RG_tab7= (0..255)
$$ -1 -1 -1 -1 -1 -1 -1 -1 -1 -1 -1 -1 -1 -1 -1 -1 -1 -1 -1 -1 -1 -1 -1 -1
$$ -1 -1 -1 -1 -1 -1 -1 -1 -1 -1 -1 -1 -1 -1 -1 -1 -1 -1 -1 -1 -1 -1 -1 -1
$$ -1 -1 -1 -1 -1 -1 -1 -1 -1 -1 -1 -1 -1 -1 -1 -1 -1 -1 -1 -1 -1 -1 -1 -1
$$ -1 -1 -1 -1 -1 -1 -1 -1 -1 -1 -1 -1 -1 -1 -1 -1 -1 -1 -1 -1 -1 -1 -1 -1
$$ -1 -1 -1 -1 -1 -1 -1 -1 -1 -1 -1 -1 -1 -1 -1 -1 -1 -1 -1 -1 -1 -1 -1 -1
$$ -1 -1 -1 -1 -1 -1 -1 -1 -1 -1 -1 -1 -1 -1 -1 -1 -1 -1 -1 -1 -1 -1 -1 -1
$$ -1 -1 -1 -1 -1 -1 -1 -1 -1 -1 -1 -1 -1 -1 -1 -1 -1 -1 -1 -1 -1 -1 -1 -1
$$ -1 -1 -1 -1 -1 -1 -1 -1 -1 -1 -1 -1 -1 -1 -1 -1 -1 -1 -1 -1 -1 -1 -1 -1
$$ -1 -1 -1 -1 -1 -1 -1 -1 -1 -1 -1 -1 -1 -1 -1 -1 -1 -1 -1 -1 -1 -1 -1 -1
$$ -1 -1 -1 -1 -1 -1 -1 -1 -1 -1 -1 -1 -1 -1 -1 -1 -1 -1 -1 -1 -1 -1 -1 -1
$$ -1 -1 -1 -1 -1 -1 -1 -1 -1 -1 -1 -1 -1 -1 -1 -1
$$ ##$RG_tab8= (0..255)
$$ -1 -1 -1 -1 -1 -1 -1 -1 -1 -1 -1 -1 -1 -1 -1 -1 -1 -1 -1 -1 -1 -1 -1 -1
$$ -1 -1 -1 -1 -1 -1 -1 -1 -1 -1 -1 -1 -1 -1 -1 -1 -1 -1 -1 -1 -1 -1 -1 -1
$$ -1 -1 -1 -1 -1 -1 -1 -1 -1 -1 -1 -1 -1 -1 -1 -1 -1 -1 -1 -1 -1 -1 -1 -1
$$ -1 -1 -1 -1 -1 -1 -1 -1 -1 -1 -1 -1 -1 -1 -1 -1 -1 -1 -1 -1 -1 -1 -1 -1
$$ -1 -1 -1 -1 -1 -1 -1 -1 -1 -1 -1 -1 -1 -1 -1 -1 -1 -1 -1 -1 -1 -1 -1 -1
$$ -1 -1 -1 -1 -1 -1 -1 -1 -1 -1 -1 -1 -1 -1 -1 -1 -1 -1 -1 -1 -1 -1 -1 -1
$$ -1 -1 -1 -1 -1 -1 -1 -1 -1 -1 -1 -1 -1 -1 -1 -1 -1 -1 -1 -1 -1 -1 -1 -1
$$ -1 -1 -1 -1 -1 -1 -1 -1 -1 -1 -1 -1 -1 -1 -1 -1 -1 -1 -1 -1 -1 -1 -1 -1
$$ -1 -1 -1 -1 -1 -1 -1 -1 -1 -1 -1 -1 -1 -1 -1 -1 -1 -1 -1 -1 -1 -1 -1 -1
$$ -1 -1 -1 -1 -1 -1 -1 -1 -1 -1 -1 -1 -1 -1 -1 -1 -1 -1 -1 -1 -1 -1 -1 -1
$$ -1 -1 -1 -1 -1 -1 -1 -1 -1 -1 -1 -1 -1 -1 -1 -1
$$ ##$RG_tabA= (0..255)
$$ 0.25 0.28 0.32 0.35 0.4 0.44 0.5 0.56 0.64 0.7 0.8 0.89 1 1.12 1.28 1.4
$$ 1.6 1.78 2 2.25 2.56 2.8 3.2 3.56 4 4.5 5 5.6 6.35 7.12 8 9 10 11.3 12.7
$$ 14.2 16 18 20.2 22.6 25.4 28.5 32 36 40.3 45.2 50.8 57 64 71.8 80.6 90.5
$$ 101 114 128 144 161 181 203 -1 -1 -1 -1 -1 -1 -1 -1 -1 -1 -1 -1 -1 -1 -1
$$ -1 -1 -1 -1 -1 -1 -1 -1 -1 -1 -1 -1 -1 -1 -1 -1 -1 -1 -1 -1 -1 -1 -1 -1
$$ -1 -1 -1 -1 -1 -1 -1 -1 -1 -1 -1 -1 -1 -1 -1 -1 -1 -1 -1 -1 -1 -1 -1 -1
$$ -1 -1 -1 -1 -1 -1 -1 -1 -1 -1 -1 -1 -1 -1 -1 -1 -1 -1 -1 -1 -1 -1 -1 -1
$$ -1 -1 -1 -1 -1 -1 -1 -1 -1 -1 -1 -1 -1 -1 -1 -1 -1 -1 -1 -1 -1 -1 -1 -1
$$ -1 -1 -1 -1 -1 -1 -1 -1 -1 -1 -1 -1 -1 -1 -1 -1 -1 -1 -1 -1 -1 -1 -1 -1
$$ -1 -1 -1 -1 -1 -1 -1 -1 -1 -1 -1 -1 -1 -1 -1 -1 -1 -1 -1 -1 -1 -1 -1 -1
$$ -1 -1 -1 -1 -1 -1 -1 -1 -1 -1 -1 -1 -1 -1 -1 -1 -1 -1 -1 -1 -1 -1 -1 -1
$$ -1 -1 -1 -1 -1 -1 -1 -1 -1 -1 -1 -1 -1 -1
$$ ##$ROBOTTY= <no>
$$ ##$ROUT14= (0..7)
$$ 0 0 0 0 0 0 0 0
$$ ##$ROUTER= -1
$$ ##$RX22TY= <no>
$$ ##$RXFMAX= (0..7)
$$ 647.5 -1 -1 -1 -1 -1 -1 -1
$$ ##$RXFMIN= (0..7)
$$ 5 -1 -1 -1 -1 -1 -1 -1
$$ ##$RXINTLV= (0..7)
$$ 1 0 0 0 0 0 0 0
$$ ##$RXMSTY= <no>
$$ ##$RockSwitchEth= <no>
$$ ##$SCMTY= <no>
$$ ##$SGUC1= (0..15)
$$ 17 20 19 0 0 0 0 0 0 0 0 0 0 0 0 0
$$ ##$SGUC2= (0..15)
$$ 0 256 18 0 0 0 0 0 0 0 0 0 0 0 0 0
$$ ##$SLCBCONF= <SHNV>
$$ ##$SPECTR= 10
$$ ##$SY2FLAG= 0
$$ ##$SYNCTRIG= 11
$$ ##$SamChgEth= (0..3)
$$ <no> <no> <no> <no>
$$ ##$ServiceNo= <>
$$ ##$Sgu1PowerLevels= (0..7)
$$ 90 74 58 42 26 10 0 0
$$ ##$Sgu2PowerLevels= (0..7)
$$ 90 74 58 42 26 10 0 0
$$ ##$Sgu3PowerLevels= (0..7)
$$ 90 74 58 42 26 10 0 0
$$ ##$Sgu4PowerLevels= (0..7)
$$ 90 74 58 42 26 10 0 0
$$ ##$Sgu5PowerLevels= (0..7)
$$ 0 0 0 0 0 0 0 0
$$ ##$Sgu6PowerLevels= (0..7)
$$ 0 0 0 0 0 0 0 0
$$ ##$Sgu7PowerLevels= (0..7)
$$ 0 0 0 0 0 0 0 0
$$ ##$Sgu8PowerLevels= (0..7)
$$ 0 0 0 0 0 0 0 0
$$ ##$SguType= 3
$$ ##$ShimMaxVal= 32760
$$ ##$ShimPow1Ch2Sh= (0..38)
$$ 0 0 0 0 0 0 0 0 0 0 0 0 0 0 0 0 0 0 0 0 0 0 0 0 0 0 0 0 0 0 0 0 0 0 0 0
$$ 0 0 0
$$ ##$ShimPow1Imax= (0..38)
$$ 0 0 0 0 0 0 0 0 0 0 0 0 0 0 0 0 0 0 0 0 0 0 0 0 0 0 0 0 0 0 0 0 0 0 0 0
$$ 0 0 0
$$ ##$ShimPow1NChan= 0
$$ ##$ShimPow1TotIMax= 0
$$ ##$ShimPow1Vmax= (0..38)
$$ 0 0 0 0 0 0 0 0 0 0 0 0 0 0 0 0 0 0 0 0 0 0 0 0 0 0 0 0 0 0 0 0 0 0 0 0
$$ 0 0 0
$$ ##$ShimPow2Ch2Sh= (0..38)
$$ 0 0 0 0 0 0 0 0 0 0 0 0 0 0 0 0 0 0 0 0 0 0 0 0 0 0 0 0 0 0 0 0 0 0 0 0
$$ 0 0 0
$$ ##$ShimPow2Imax= (0..38)
$$ 0 0 0 0 0 0 0 0 0 0 0 0 0 0 0 0 0 0 0 0 0 0 0 0 0 0 0 0 0 0 0 0 0 0 0 0
$$ 0 0 0
$$ ##$ShimPow2NChan= 0
$$ ##$ShimPow2TotIMax= 0
$$ ##$ShimPow2Vmax= (0..38)
$$ 0 0 0 0 0 0 0 0 0 0 0 0 0 0 0 0 0 0 0 0 0 0 0 0 0 0 0 0 0 0 0 0 0 0 0 0
$$ 0 0 0
$$ ##$ShimPow3Ch2Sh= (0..38)
$$ 0 0 0 0 0 0 0 0 0 0 0 0 0 0 0 0 0 0 0 0 0 0 0 0 0 0 0 0 0 0 0 0 0 0 0 0
$$ 0 0 0
$$ ##$ShimPow3Imax= (0..38)
$$ 0 0 0 0 0 0 0 0 0 0 0 0 0 0 0 0 0 0 0 0 0 0 0 0 0 0 0 0 0 0 0 0 0 0 0 0
$$ 0 0 0
$$ ##$ShimPow3NChan= 0
$$ ##$ShimPow3TotIMax= 0
$$ ##$ShimPow3Vmax= (0..38)
$$ 0 0 0 0 0 0 0 0 0 0 0 0 0 0 0 0 0 0 0 0 0 0 0 0 0 0 0 0 0 0 0 0 0 0 0 0
$$ 0 0 0
$$ ##$ShimPow4Ch2Sh= (0..38)
$$ 0 0 0 0 0 0 0 0 0 0 0 0 0 0 0 0 0 0 0 0 0 0 0 0 0 0 0 0 0 0 0 0 0 0 0 0
$$ 0 0 0
$$ ##$ShimPow4Imax= (0..38)
$$ 0 0 0 0 0 0 0 0 0 0 0 0 0 0 0 0 0 0 0 0 0 0 0 0 0 0 0 0 0 0 0 0 0 0 0 0
$$ 0 0 0
$$ ##$ShimPow4NChan= 0
$$ ##$ShimPow4TotIMax= 0
$$ ##$ShimPow4Vmax= (0..38)
$$ 0 0 0 0 0 0 0 0 0 0 0 0 0 0 0 0 0 0 0 0 0 0 0 0 0 0 0 0 0 0 0 0 0 0 0 0
$$ 0 0 0
$$ ##$ShimPowMaxUA= (0..63)
$$ 130000 130000 130000 130000 130000 130000 130000 130000 130000 130000 130000
$$ 130000 130000 130000 130000 130000 130000 130000 130000 130000 130000 130000
$$ 130000 130000 130000 130000 130000 130000 130000 130000 130000 130000 130000
$$ 130000 130000 130000 130000 130000 130000 130000 0 0 0 0 0 0 0 0 0 0 0
$$ 0 0 0 0 0 0 0 0 0 0 0 0 0
$$ ##$ShimPowMaxUC= (0..63)
$$ 130000 130000 130000 130000 130000 130000 130000 130000 130000 130000 130000
$$ 130000 130000 130000 130000 130000 130000 130000 130000 130000 130000 130000
$$ 130000 130000 130000 130000 130000 130000 130000 130000 130000 130000 130000
$$ 130000 130000 130000 130000 130000 130000 130000 0 0 0 0 0 0 0 0 0 0 0
$$ 0 0 0 0 0 0 0 0 0 0 0 0 0
$$ ##$ShimPowMaxUG= (0..63)
$$ 1000000 1000000 1000000 1000000 1000000 1000000 1000000 1000000 1000000
$$ 1000000 1000000 1000000 1000000 1000000 1000000 1000000 1000000 1000000
$$ 1000000 1000000 1000000 1000000 1000000 1000000 1000000 1000000 1000000
$$ 1000000 1000000 1000000 1000000 1000000 1000000 1000000 1000000 1000000
$$ 1000000 1000000 1000000 0 0 0 0 0 0 0 0 0 0 0 0 0 0 0 0 0 0 0 0 0 0 0 0
$$ 0
$$ ##$ShimPowNum= 0
$$ ##$ShimPowRcbType= 3
$$ ##$ShimPowRes= (0..63)
$$ 1e-20 1e-20 1e-20 1e-20 1e-20 1e-20 1e-20 1e-20 1e-20 1e-20 1e-20 1e-20
$$ 1e-20 1e-20 1e-20 1e-20 1e-20 1e-20 1e-20 1e-20 1e-20 1e-20 1e-20 1e-20
$$ 1e-20 1e-20 1e-20 1e-20 1e-20 1e-20 1e-20 1e-20 1e-20 1e-20 1e-20 1e-20
$$ 1e-20 1e-20 1e-20 1e-20 0 0 0 0 0 0 0 0 0 0 0 0 0 0 0 0 0 0 0 0 0 0 0 0
$$ ##$ShimPowRng0= (0..63)
$$ 1 1 1 1 1 1 1 1 1 1 1 1 1 1 1 1 1 1 1 1 1 1 1 1 1 1 1 1 1 1 1 1 1 1 1 1
$$ 1 1 1 1 0 0 0 0 0 0 0 0 0 0 0 0 0 0 0 0 0 0 0 0 0 0 0 0
$$ ##$ShimPowRng1= (0..63)
$$ 1 1 1 1 1 1 1 1 1 1 1 1 1 1 1 1 1 1 1 1 1 1 1 1 1 1 1 1 1 1 1 1 1 1 1 1
$$ 1 1 1 1 0 0 0 0 0 0 0 0 0 0 0 0 0 0 0 0 0 0 0 0 0 0 0 0
$$ ##$ShimPowRng2= (0..63)
$$ 1 1 1 1 1 1 1 1 1 1 1 1 1 1 1 1 1 1 1 1 1 1 1 1 1 1 1 1 1 1 1 1 1 1 1 1
$$ 1 1 1 1 0 0 0 0 0 0 0 0 0 0 0 0 0 0 0 0 0 0 0 0 0 0 0 0
$$ ##$ShimPowRng3= (0..63)
$$ 1 1 1 1 1 1 1 1 1 1 1 1 1 1 1 1 1 1 1 1 1 1 1 1 1 1 1 1 1 1 1 1 1 1 1 1
$$ 1 1 1 1 0 0 0 0 0 0 0 0 0 0 0 0 0 0 0 0 0 0 0 0 0 0 0 0
$$ ##$ShimPowType1= 0
$$ ##$ShimPowType2= 0
$$ ##$ShimPowType3= 0
$$ ##$ShimPowType4= 0
$$ ##$ShimSysAngle= <>
$$ ##$ShimSysFunc= (0..63)
$$ 1 2 3 4 5 6 7 8 9 10 0 37 38 35 16 15 14 13 12 11 28 27 26 25 24 23 36
$$ 22 30 29 20 21 34 33 32 31 17 18 19 0 0 0 0 0 0 0 0 0 0 0 0 0 0 0 0 0 0
$$ 0 0 0 0 0 0 0
$$ ##$ShimSysMatId= <no>
$$ ##$ShimSysMatrix= 1
$$ ##$ShimSysOffset= <56mm>
$$ ##$ShimSysType= 4
$$ ##$ShimUnit= 0
$$ ##$TFXNUM= 0
$$ ##$TOSITY= <no>
$$ ##$TRIPLO2= 0
$$ ##$VTU= 2
$$ ##$VTUETH= <149.236.99.20>
$$ ##$VTUTY= <no>
$$ ##$WBREFAM= (0..15)
$$ 100 100 100 100 100 100 100 100 100 100 100 100 100 100 100 100
$$ ##$WBREFLM= (0..15)
$$ 1 0 0 0 0 0 0 0 0 0 0 0 0 0 0 0
$$ ##$WBREFPH= (0..15)
$$ 0.07 0 0 0 0 0 0 0 0 0 0 0 0 0 0 0
$$ ##$WBSGU= (0..15)
$$ 0 0 0 0 0 0 0 0 0 0 0 0 0 0 0 0
$$ ##$XFAC= 2
$$ ##END=
##$RELAX= 
$$ Bruker specific parameters
$$ --------------------------
##$DATPATH= </Users/matthias/Documents/NMR/NMR Spectra/Data Stuff>
##$EXPNO= 12
##$NAME= <Guvacine>
##$PROCNO= 1
##$ACQT0= -2.10084033613445
##$AMP= (0..31)
100 100 100 100 100 100 100 100 100 100 100 100 100 100 100 100 100 100
100 100 100 100 100 100 100 100 100 100 100 100 100 100
##$AMPCOIL= (0..32)
0 0 0 0 0 0 0 0 0 0 0 0 0 0 0 0 0 0 0 0 0 0 0 0 0 0 0 0 0 0 0 0 0
##$AQSEQ= 0
##$AQ_mod= 3
##$AUNM= <au_zg>
##$AUTOPOS= <>
##$BF1= 125.787963
##$BF2= 500.25
##$BF3= 500.25
##$BF4= 500.25
##$BF5= 500.25
##$BF6= 500.25
##$BF7= 500.25
##$BF8= 500.25
##$BWFAC= (0..63)
0 0 0 0 0 0 0 0 0 0 0 0 0 0 0 0 0 0 0 0 0 0 0 0 0 0 0 0 0 0 0 0 0 0 0 0
0 0 0 0 0 0 0 0 0 0 0 0 0 0 0 0 0 0 0 0 0 0 0 0 0 0 0 0
##$BYTORDA= 0
##$CHANFCU= (0..24)
0 0 0 0 0 0 0 0 0 0 0 0 0 0 0 0 0 0 0 0 0 0 0 0 0
##$CHANREC= (0..24)
0 0 0 0 0 0 0 0 0 0 0 0 0 0 0 0 0 0 0 0 0 0 0 0 0
##$CHEMSTR= <none>
##$CNST= (0..63)
1 1 1 1 1 1 1 1 1 1 1 1 1 1 1 1 1 1 1 1 1 1 1 1 1 1 1 1 1 1 1 1 1 1 1 1
1 1 1 1 1 1 1 1 1 1 1 1 1 1 1 1 1 1 1 1 1 1 1 1 1 1 1 1
##$CPDPRG= (0..8)
<> <> <waltz16> <> <> <> <> <> <>
##$D= (0..63)
0 4 0 0 0 0 0 0 0 0 0 0.03 0 0 0 0 0.0002 0 0 0 0 0 0 0 0 0 0 0 0 0 0 0
0 0 0 0 0 0 0 0 0 0 0 0 0 0 0 0 0 0 0 0 0 0 0 0 0 0 0 0 0 0 0 0
##$DATE= 1747655416
##$DATE_START= 0
##$DE= 10
##$DECIM= 608
##$DIGMOD= 1
##$DIGTYP= 12
##$DR= 21
##$DS= 4
##$DSPFIRM= 0
##$DSPFVS= 20
##$DTYPA= 0
##$EXP= <1_IfC_13C.1H>
##$ExpStatus= 0
##$FCUCHAN= (0..9)
0 1 3 0 0 0 0 0 0 0
##$FILCOR= 0
##$FL1= 0
##$FL2= 0
##$FL3= 0
##$FL4= 0
##$FN_INDIRECT= (0..7)
0 0 0 0 0 0 0 0
##$FOV= 0
##$FQ1LIST= <>
##$FQ2LIST= <>
##$FQ3LIST= <>
##$FQ4LIST= <>
##$FQ5LIST= <>
##$FQ6LIST= <>
##$FQ7LIST= <>
##$FQ8LIST= <>
##$FS= (0..7)
83 83 83 83 83 83 83 83
##$FW= 4032000
##$FnILOOP= 0
##$FnMODE= 0
##$FnTYPE= 0
##$GPNAM= (0..31)
<> <> <> <> <> <> <> <> <> <> <> <> <> <> <> <> <> <> <> <> <> <> <> <>
<> <> <> <> <> <> <> <>
##$GPX= (0..31)
0 0 0 0 0 0 0 0 0 0 0 0 0 0 0 0 0 0 0 0 0 0 0 0 0 0 0 0 0 0 0 0
##$GPY= (0..31)
0 0 0 0 0 0 0 0 0 0 0 0 0 0 0 0 0 0 0 0 0 0 0 0 0 0 0 0 0 0 0 0
##$GPZ= (0..31)
0 0 0 0 0 0 0 0 0 0 0 0 0 0 0 0 0 0 0 0 0 0 0 0 0 0 0 0 0 0 0 0
##$GRPDLY= 67.9837646484375
##$GrpdlyHandling= 0
##$HDDUTY= 20
##$HDRATE= 1
##$HOLDER= 0
##$HPMOD= (0..32)
0 0 0 0 0 0 0 0 0 0 0 0 0 0 0 0 0 0 0 0 0 0 0 0 0 0 0 0 0 0 0 0 0
##$IN= (0..63)
0 0 0 0 0 0 0 0 0 0 0 0 0 0 0 0 0 0 0 0 0 0 0 0 0 0 0 0 0 0 0 0 0 0 0 0
0 0 0 0 0 0 0 0 0 0 0 0 0 0 0 0 0 0 0 0 0 0 0 0 0 0 0 0
##$INF= (0..7)
0 0 0 0 0 0 0 0
##$INP= (0..63)
0 0 0 0 0 0 0 0 0 0 0 0 0 0 0 0 0 0 0 0 0 0 0 0 0 0 0 0 0 0 0 0 0 0 0 0
0 0 0 0 0 0 0 0 0 0 0 0 0 0 0 0 0 0 0 0 0 0 0 0 0 0 0 0
##$INSTRUM= <spect>
##$INTEGFAC= (0..63)
0 0 0 0 0 0 0 0 0 0 0 0 0 0 0 0 0 0 0 0 0 0 0 0 0 0 0 0 0 0 0 0 0 0 0 0
0 0 0 0 0 0 0 0 0 0 0 0 0 0 0 0 0 0 0 0 0 0 0 0 0 0 0 0
##$L= (0..31)
1 1 1 1 1 1 1 1 1 1 1 1 1 1 1 1 1 1 1 1 1 1 1 1 1 1 1 1 1 1 1 1
##$LFILTER= 500
##$LGAIN= 5
##$LINPSTP= 0
##$LOCKED= yes
##$LOCKFLD= 5539
##$LOCKGN= 118.199996948242
##$LOCKPOW= -39
##$LOCKPPM= 4.69999980926514
##$LOCNUC= <2H>
##$LOCPHAS= 8.269753
##$LOCSHFT= yes
##$LOCSW= 0
##$LTIME= 0.25
##$MASR= 4200
##$MULEXPNO= (0..15)
0 0 0 0 0 0 0 0 0 0 0 0 0 0 0 0
##$NBL= 1
##$NC= -5
##$NLOGCH= 3
##$NOVFLW= 0
##$NS= 22
##$NUC1= <13C>
##$NUC2= <1H>
##$NUC3= <off>
##$NUC4= <off>
##$NUC5= <off>
##$NUC6= <off>
##$NUC7= <off>
##$NUC8= <off>
##$NUCLEUS= <off>
##$NUSLIST= <automatic>
##$NusAMOUNT= 25
##$NusFPNZ= no
##$NusJSP= 0
##$NusSEED= 54321
##$NusSPTYPE= 0
##$NusT2= 1
##$NusTD= 0
##$O1= 15094.5599999943
##$O2= 2001
##$O3= 12577.75
##$O4= 12577.75
##$O5= 12577.75
##$O6= 12577.75
##$O7= 12577.75
##$O8= 12577.75
##$OVERFLW= 0
##$P= (0..63)
10 10 20 15 30 16.5 25 50 420 30 60 40000 40000 2000 0 0 1000 2000 500
600 2500 0 0 0 1000 0 500 10 0.1 2000 0 0 4440 0 0 0 80000 0 0 2040 4000
0 0 10000 888 0 40000 1260 2400 0 40000 0 0 0 0 0 0 0 0 0 0 0 0 1680
##$PACOIL= (0..32)
0 0 0 0 0 0 0 0 0 0 0 0 0 0 0 0 0 0 0 0 0 0 0 0 0 0 0 0 0 0 0 0 0
##$PARMODE= 0
##$PCPD= (0..9)
0 70 80 0 0 0 0 0 0 0
##$PEXSEL= (0..9)
1 1 1 1 1 1 1 1 1 1
##$PHCOR= (0..31)
0 0 0 0 0 0 0 0 0 0 0 0 0 0 0 0 0 0 0 0 0 0 0 0 0 0 0 0 0 0 0 0
##$PHLIST= <>
##$PH_ref= 0
##$PL= (0..63)
120 120 120 120 120 120 120 120 120 120 120 120 120 120 120 120 120 120
120 120 120 120 120 120 120 120 120 120 120 120 120 120 120 120 120 120
120 120 120 120 120 120 120 120 120 120 120 120 120 120 120 120 120 120
120 120 120 120 120 120 120 120 120 120
##$PLSTEP= 0.1
##$PLSTRT= -6
##$PLW= (0..63)
0 50.927 13.91 0 0 0 0 0 0 0 8.1483 0.32593 0.48904 0.24559 0 3.4776 0
0 50.927 1.0393 0 0.00012519 0 0 0.0020031 0 0.12226 0 0 8.1483 0.48904
1.9562 0 0 0 0 0 0 0 0 0 0 0 0 0 0 0 0 0 0 0 0 0 0 0 0 0 0 0 0 0 0 0 0
##$PLWMAX= (0..7)
452.7 102.8 0 0 0 0 0 0
##$PR= 1
##$PRECHAN= (0..32)
-1 2 -1 0 -1 1 -1 -1 -1 -1 -1 -1 -1 -1 -1 -1 -1 -1 -1 -1 -1 -1 -1 -1 -1
-1 -1 -1 -1 -1 -1 -1 -1
##$PROBHD= <Z800701_0081 (PA BBO 500S2 BB-H-D-05 Z)>
##$PROBINPUTS= (0..15)
<> <> <> <> <> <> <> <> <> <> <> <> <> <> <> <>
##$PULPROG= <zgpg30>
##$PW= 0
##$PYNM= <>
##$ProbeDescription= <>
##$ProjAngle= 0
##$RECCHAN= (0..9)
0 1 0 0 0 0 0 0 0 0
##$RECPH= 0
##$RECPRE= (0..24)
-1 2 -1 -1 -1 -1 -1 -1 -1 -1 -1 -1 -1 -1 -1 -1 -1 -1 -1 -1 -1 -1 -1 -1
-1
##$RECPRFX= (0..32)
1 0 0 0 0 0 0 0 0 0 0 0 0 0 0 0 -1 -1 -1 -1 -1 -1 -1 -1 -1 -1 -1 -1 -1
-1 -1 -1 -1
##$RG= 203
##$RO= 0
##$RSEL= (0..24)
0 1 0 2 0 0 0 0 0 0 0 0 0 0 0 0 0 0 0 0 0 0 0 0 0
##$SAMPLEID= <>
##$SFO1= 125.80305756
##$SFO2= 500.252001
##$SFO3= 500.26257775
##$SFO4= 500.26257775
##$SFO5= 500.26257775
##$SFO6= 500.26257775
##$SFO7= 500.26257775
##$SFO8= 500.26257775
##$SOLVENT= <D2O>
##$SOLVOLD= <off>
##$SP= (0..63)
120 120 120 120 120 120 120 120 120 120 120 120 120 120 120 120 120 120
120 120 120 120 120 120 120 120 120 120 120 120 120 120 120 120 120 120
120 120 120 120 120 120 120 120 120 120 120 120 120 120 120 120 120 120
120 120 120 120 120 120 120 120 120 120
##$SPECTR= 0
##$SPINCNT= 0
##$SPNAM= (0..63)
<> <Q5.1000> <Q3_surbop.1> <0.0> <Eburp2tr.1000> <Crp60comp.4> <Crp60,0.5,20.1>
<Sinc1.1000> <Crp60,0.5,20.1> <> <Crp60comp.4> <Crp60comp.4> <> <> <Eburp2.1000>
<> <> <> <0.0> <Q5tr_sebop.1> <Q5tr_sebop.1> <Q5tr_sebop.1> <Q5tr_sebop.1>
<> <> <> <Gaus1_180r.1000> <> <> <Q5tr.1000> <Q3_surbop.1> <Reburp.1000>
<Q3.1000> <> <Q3_surbop.1> <Q3_surbop.1> <Q5.1000> <> <> <> <Q3_surbop.1>
<Crp60,0.5,20.1> <> <> <> <> <> <> <> <> <> <> <> <> <> <> <> <> <> <>
<> <> <> <>
##$SPOAL= (0..63)
0.5 1 0.5 0.5 0 0.5 0.5 0.5 0.5 0.5 0.5 0.5 0.5 0.5 1 0.5 0.5 0.5 0.5 0
0 0 0 0.5 0.5 0.5 0.5 0.5 0.5 0 0.5 0.5 0.5 0.5 0.5 0.5 1 0.5 0.5 0.5 0.5
0.5 0.5 0.5 0.5 0.5 0.5 0.5 0.5 0.5 0.5 0.5 0.5 0.5 0.5 0.5 0.5 0.5 0.5
0.5 0.5 0.5 0.5 0.5
##$SPOFFS= (0..63)
0 0 0 0 0 0 0 0 0 0 0 0 0 0 0 0 0 0 0 0 0 0 0 0 0 0 0 0 0 0 0 0 0 0 0 0
0 0 0 0 0 0 0 0 0 0 0 0 0 0 0 0 0 0 0 0 0 0 0 0 0 0 0 0
##$SPPEX= (0..63)
0 0 0 0 0 0 0 0 0 0 0 0 0 0 0 0 0 0 0 0 0 0 0 0 0 0 0 0 0 0 0 0 0 0 0 0
0 0 0 0 0 0 0 0 0 0 0 0 0 0 0 0 0 0 0 0 0 0 0 0 0 0 0 0
##$SPW= (0..63)
0 0.0010712 0.00087704 0 0.20192 7.781 0 0.0090249 7.781 0 7.781 7.781
0 0 0.20192 0 0 0 0 10.5295 16.36776 7.642584 41.21582 0 0 0 1.1548e-05
0 0 0.086942 1.7796 0.69638 0.005456 0 0.88389 0.00087704 0.29756 0 0 0
0.00087704 7.781 0 0 0 0 0 0 0 0 0 0 0 0 0 0 0 0 0 0 0 0 0 0
##$SUBNAM= (0..9)
<> <> <> <> <> <> <> <> <> <>
##$SW= 261.478039406289
##$SWIBOX= (0..32)
0 1 3 0 0 0 0 0 0 0 0 0 0 0 0 0 0 0 0 0 0 0 0 0 0 0 0 0 0 0 0 0 0
##$SW_h= 32894.7368421053
##$SWfinal= 0
##$SigLockShift= 0
##$TD= 65786
##$TD0= 1
##$TD_INDIRECT= (0..7)
0 0 0 0 0 0 0 0
##$TDav= 1
##$TE= 298.0061
##$TE1= 298.0061
##$TE2= 0
##$TE3= 0
##$TE4= 0
##$TEG= 300
##$TE_MAGNET= 0
##$TE_PIDX= 1
##$TE_RAW= 300
##$TE_STAB= (0..9)
2 2 0 0 0 0 0 0 0 0
##$TOTROT= (0..63)
0 0 0 0 0 0 0 0 0 0 0 0 0 0 0 0 0 0 0 0 0 0 0 0 0 0 0 0 0 0 0 0 0 0 0 0
0 0 0 0 0 0 0 0 0 0 0 0 0 0 0 0 0 0 0 0 0 0 0 0 0 0 0 0
##$TUBE_TYPE= <>
##$USERA1= <>
##$USERA10= <>
##$USERA2= <>
##$USERA3= <>
##$USERA4= <>
##$USERA5= <>
##$USERA6= <>
##$USERA7= <>
##$USERA8= <>
##$USERA9= <>
##$UUID= <>
##$VALIDCODE= -1
##$VALIST= <>
##$VCLIST= <>
##$VDLIST= <>
##$VPLIST= <>
##$VTLIST= <>
##$VtChillPowType= 0
##$VtChillPowVal= 0
##$VtChillType= 0
##$VtGasFlow= 0
##$WAVEMAKER= (0..7)
<> <> <> <> <> <> <> <>
##$WBST= 1024
##$WBSW= (0..7)
4 10 10 10 10 10 10 10
##$XL= 0
##$YL= 0
##$YMAX_a= 8213
##$YMIN_a= -9513
##$ZGOPTNS= <>
##$scaledByNS= no
##$scaledByRG= no
##$shimCoilTempK= 300
##$ABSF1= 250.754743687573
##$ABSF2= -10.7546730926741
##$ABSG= 5
##$ABSL= 3
##$ALPHA= 0
##$AQORDER= 0
##$ASSFAC= 0
##$ASSFACI= 0
##$ASSFACX= 0
##$ASSWID= 0
##$AUNMP= <proc_1d>
##$AXLEFT= 0
##$AXNAME= <>
##$AXNUC= <13C>
##$AXRIGHT= 0
##$AXTYPE= 0
##$AXUNIT= <>
##$AZFE= 0.1
##$AZFW= 0.5
##$BCFW= 0
##$BC_mod= 0
##$BYTORDP= 0
##$COROFFS= 0
##$CY= 15
##$DATMOD= 1
##$DC= 0
##$DFILT= <>
##$DTYPP= 0
##$ERETIC= no
##$F1P= 240
##$F2P= -10
##$FCOR= 1
##$FTSIZE= 65536
##$FT_mod= 6
##$GAMMA= 0
##$GB= 0
##$INTBC= 1
##$INTSCL= 1
##$ISEN= 30
##$LB= 1
##$LEV0= 0
##$LPBIN= 0
##$MAXI= 10000
##$MC2= 0
##$MEAN= 0
##$ME_mod= 0
##$MI= 0
##$MddCEXP= no
##$MddCT_SP= no
##$MddF180= no
##$MddLAMBDA= 0
##$MddMEMORY= 0
##$MddMERGE= 0
##$MddNCOMP= 0
##$MddNITER= 0
##$MddNOISE= 0
##$MddPHASE= 0
##$MddSEED= 0
##$MddSRSIZE= 0
##$Mdd_CsALG= 0
##$Mdd_CsLAMBDA= 0
##$Mdd_CsNITER= 0
##$Mdd_CsNORM= 0
##$Mdd_CsVE= no
##$Mdd_CsZF= 0
##$Mdd_LrLAMBDA= 0
##$Mdd_LrNITER= 0
##$Mdd_LrRANK= 0
##$Mdd_LrZF= 0
##$Mdd_mod= 0
##$NCOEF= 0
##$NC_proc= -10
##$NLEV= 6
##$NOISF1= 0
##$NOISF2= 0
##$NSP= 0
##$NTH_PI= 0
##$NZP= 0
##$OFFSET= 250.754743687573
##$PC= 1.4
##$PHC0= 79.5970580408689
##$PHC1= -120.021170203626
##$PH_mod= 1
##$PKNL= yes
##$PPARMOD= 0
##$PPDIAG= 0
##$PPIPTYP= 0
##$PPMPNUM= 2147483647
##$PPRESOL= 1
##$PSCAL= 4
##$PSIGN= 0
##$PYNMP= <proc.py>
##$RDF1= 0
##$RDF2= 0
##$RDFWHM= 0
##$RDINT= 0
##$RDPOS= 0
##$REVERSE= no
##$SF= 125.787963
##$SI= 65536
##$SIGF1= 0
##$SIGF2= 0
##$SINO= 0
##$SIOLD= 65536
##$SPECTYP= <>
##$SREF_mod= 1
##$SREGLST= <13C.CDCl3>
##$SSB= 0
##$STSI= 65536
##$STSR= 0
##$SW_p= 32894.7368421053
##$SYMM= 0
##$S_DEV= 0
##$TDeff= 65786
##$TDoff= 0
##$TI= <>
##$TILT= no
##$TM1= 0
##$TM2= 0
##$TOPLEV= 0
##$USERP1= <>
##$USERP10= <>
##$USERP2= <>
##$USERP3= <>
##$USERP4= <>
##$USERP5= <>
##$USERP6= <>
##$USERP7= <>
##$USERP8= <>
##$USERP9= <>
##$WDW= 1
##$XDIM= 65536
##$YMAX_p= 319385943
##$YMIN_p= -11304500
##$CURPLOT= <C280>
##$CURPRIN= <$C280>
##$DFORMAT= <normdp>
##$LAYOUT= <+/1D_X.xwp>
##$LFORMAT= <normlp>
##$PFORMAT= <normpl>
$$ End of Bruker specific parameters
$$ ---------------------------------
##XUNITS= HZ
##YUNITS= ARBITRARY UNITS
##XFACTOR= 0.501933850740132
##YFACTOR= 1
##DELTAX= -0.501933850740132
##NPOINTS= 65536
##FIRSTX= 32894.2349082546
##FIRSTY= -1929713
##LASTX= 0
##MAXY= 319385943
##MINY= -11304500
##XYDATA= (X++(Y..Y))
65535a929713j135165J200740A272055Q74391J075230M8666l26679l44687l1972
65526B567004j220344C30919a69708p49449q37960a10660A7197h08645j95388
65517a004033M86231D96146N06684M40362K241499J62287r34415A165424a403956
65507b645055r62598J189707h00831C78631J298603J009919L17049A143051n24829
65498F18222N41674r1930k49853a061589j543871J52911i91063B73354a25076
65488F99168Q04838k63386e1810l24322B75582R61452O7516m7795B32453b049717
65477a617931c53585A4553f87014j242168n82816n70320M18700a128672e3575
65467A028822M28630E83410i93585L71773B1272Q82760l60723d71635c114A238287
65456A194675M60224n06751C75794a910191k18874M72441n73213J008595e61873
65446e66704k25142j381237d27975A709370F62130e99567M7983A534738K209678
65437C744416O9737j642425n81420k94531J7280C00010e4245G70809M51307l03908
65427I18208a133593L16737M2163a48026G42349C38377a88075l71742E4678J676621
65417A731299Q28898N48937q10487A057822J655760L41538j64659J069183j269189
65408B690455l8909Q89004o19894j61116A036154A26314L7226b719n58461j729358
65398b290538j221689j099286K96702a269650A45237a208162m08756M55261k258677
65389c420334j09587P60980a181280e89211e5462n5873A567028Q68012I71274
65379e39154k700400n12920J031625J327985f65611G41520a05283D42116K26939
65370F69055k92056M33957P41822n8519K46499p51608h68494j215544Q30221A23383
65359d12377H87970N03185K68711J039968j42803o63410j2274k682Q9947J3571
65349A982183L42151k55622K18262N84822J446639p35437j078026p88m31205K84188
65339B357167A121260e32262j11572H21003L0489l29208l2279R89488J153999
65330B633492k06492r98377n57349j40994J847989R41351j31572M46298k252n3566
65320C778528K44331p75655A430705j37403j81627J096878K73528j240316f01261
65310f85747m73865k22457f11967B436202J947640j187639j053070K50096r59264
65301A433965d26396B69347K044287k01383k99278d32346j919694J043438N56720
65292g51882A36399O92917J770296K102410j457135A071113a74722r85993K46829
65283i13886j82681q951Q9339M9576K8155k334340j371615q363K170677J072777
65273a409312j279625j958777N46547J333830R16951d8544E57429B06425O00494
65264H06919l18153r9804B1818a059415e21817m57030j44785N27526m24015M87699
65254e32422A019656L11762N42162F68582k56375Q09666j5796J065316J135570
65245C406963q29355K28669N4974j53322A49538a042566b62737A078070l62459
65236G15611e70391k328517L44569e99660n43595m52616L04510b1100A604388
65226A628936L3735p8270k80061m45601M4769N8841M41440N18379F42383g72000
65215a071707c54698I24111e60246D35474K517000j387601d39233A48072P2567
65206B20639b195751O93482E7608a135368q22232i63942k37948K78057J16633
65197h07200m35328j438313M3510J272944e52933G39160M27310K63074k54109
65188A175435a73040m09667k92371F9709K375414q14285i0233r76366d08026j479408
65178a887434j653318j016985J077136g96281E78855c44219j64295j74247l42928
65169a025689A018699J79335d11800H95250C30155a792137n89434J50455N63104
65160a668012k24421N83848N54254Q4685G81447J55826e96198b25893G92396J574760
65150B367156A164667J81446E32798a559425J06574f92154A18820a93307A171910
65140A524267a1834k56571A713600J330614J18947N77222M79771p63731A195434
65130a91490A176538K805227J112539j660946A485651j37219n49431j65580P26870
65121A360291n10608d44831E783a30301k48369j601498k48006o02781n85979J543600
65111a873334O7411L96934k09429j1672B006161Q51951l75739q27828m67982A71539
65100B37936R14838C59088N01326N33992j19646k24105m73321P65968B6308e56496
65089I84980M91496C20654d41376N4667d0484A760749J996850k32148n5360A410109
65078E34666K24414K12897N27272m80652E04717g53106C7406R0970K147579K215087
65068D491042M3305k147186G15887B54669O36045B32684d51398j069855K88273
65059a232980B59546N27654g83962b89359A485078J588797O25154j243518F80137
65049F13681L39172K43762b77724A591391J882318o30199a285927j614034A78154
65039A487300F73292a318622k260392q83463J276010J78415R96479c10816F11746
65029B390843k28399o23811j5078P14337O36331l59374n38068C9179a156688M00983
65019g55705C13567Q72723J368116K10500K59258j134584h42410K81153p77466
65010a338723m57548g90849o73172J23036L52417J16704E12577A33779J125958
65001A259737E38394a103756l65405a77300A035487K054073P37046r39062P44719
64992C632263j6843q65114k86909G10402a21344E36084K624316K433138j013782
64983D579756K87790j894495A297733k83086A01393R63685K487205k52859j211191
64974B088233F54532B87753L25813E1774b3679F97878P5608i2481A167081K048772
64964C215853A577393h03419r61521O52249M46611G5755R53606i23846j407181
64955b331027R29697B58384K098822E84417f86048j65264c36044j283145m75213
64946b094402h11974B63738K725393M89574J77866m34985j94436A096188f44444
64936h36191B07990R18335E36294O34582C40348b734355Q35636G25326H6685h91520
64925h97715k019142J031866P29038m84584h13045L96060m91094L17894A344223
64915B418500Q46075N70634q40418j143927k15209j39663E4843N38711J326361
64906A919915C15715d2393C651J349887M07362O42307M43153m43531J217452A489524
64895a872732q93567j336104L93900a136895G83163i36652k482266J108542H66434
64885B474475j188258b92586j476912g88430A066503Q63380H57130P34041Q63388
64876B454559J8655K71846K213814K412130n81085q60941k52713k806171a5212
64866B91219g29182p37044B09019R84175l87224O48709K137627O33641J4427j017593
64856C222781A421746l75085e45235k115107O49314I19618J551706j87607B14189
64846h11201k644608K53437J143P22065j587811J254197A870979K536486j797011
64837B610454H44332i6224n64517E21334R81545l36158a518580j183157M52043
64828b249694A771562k83394D98164b40864k48021j12328j61489B62569J88532
64819D51101R75622o45674k19174a814668j736359O62560k055888n85452b171951
64809c36185I20949j08657d1677j29104k61476A58341R8832J161823P18882R65990
64799C103868j92248A165763C88686p1962K79714J270334M98339E48075f96908
64789d92547j422021J58162j575861J203016R38100j651543J81854l07368k37509
64780c205717O10005h59142A929576K509631M4499p79029A501239n41631B01704
64770a065070a85242C4705M007K542289m92735o99257L45744G99649i82705j19376
64760a102081G6843R19285L5111N40788o76783G4704e91090j566996j072822J283642
64750a947266e03000k7007K6247m29140k84517B26269P71333A59184P4363N06281
64740G39828B49396l7785j8898q4531J069405l48105e90615G98716Q22206a148020
64729b124018B64221K785378J204133n19479l93142n14969q89223k50488C20025
64719a263767d82479B477052R64122o88361l80431J46544J930955q65166A047822
64709h68138P1428H07673J52067C45235L19562J116675L77008C94431a246114
64699a397544j270782M67650i53165B425446H92543a412209D19109K58626k2067
64690F55668O42587K90416K334210O11696o51200j676052F39599a619456j641517
64681c260973N57974a159978A575051L855743j02795k290612j159590F39081K27656
64672H66737a389903l06922j475528j33376Q42473J091648k19720j093769h79380
64662b06419G25813N74456i63253f7585A609209K090010M30170j159373j185813
64653A784203k97673j80439J770819m44923o4929H82733r0063L62677j06761J889171
64643B937757j17265q28318O24031L74472l54500j115662o40222a82197B20381
64633A295391K21980M51694C4924b275627K8162k307790l60809O99312J915254
64624b301498g92185o85143A271903J093449O95728j09343O52210P43513n07377
64615C840083A688530E10670O47967J293555j203028I6516J14335d93789L6332
64606d57457l16884j269616k220965q19519J167820J626794g18142E30030K183067
64597B713097m65164A89647K016307j027285a891606l4661B78745J425812J427400
64588C131957N76934P13992r05835J03846O18790p12552m94509j080587J354305
64579C306341O39900j386941I22842e03332G53398K652782J204452j383582C91224
64569A131212J61470C72521a537697M1730e99887A11455J018130J547559o53089
64560B024055f40624c5748B897410n5669A335383E44393c76429A287741J116431
64551B404172G25465b290282q43606J53930J133918e53413j63544n78198j34846
64542a430001O15307E80851K08549B99873R18624P49120B44083b313497J115999
64533a197498A460646n30167J405645N27688H80242a080542p87137A230612J181915
64524B412527Q06229r45493p29566Q69964L37673J102359l29371A016168b328291
64514d981389J256741J497744j607000m58513k67768J517092O99042J102928r42014
64505b183137k773944j167383J5436J590979b139103E45482A14496c5165A54976
64495h59800l79518n2237C09883J723893a231423J1764M39135q50526D26341J936783
64485B363124r06810e69179j165993k44455M85682o54752j10991l70615K23412
64476b406891g85791B403660J434922R61090K511188Q63977o59474k853908j278760
64467C382695O19152J376223j46807m18582j707521K88454j437916a87811E99223
64457B694384J04347r78842J190861J248777m48738j754575J819906K403751n58502
64448E721369j877974J805378o83433k214681L36189P46879O47896l12818M57488
64439D626293j439101A202359l53553O57629H8448a792958k34067N47610P36616
64430g42799D9350e23954D14477M61112J16167l81497Q34785F72415a7354q06443
64420h23797k57361d72425k339425j081308Q00300d36435A940709H7141a917895
64410d503294j066616K435108a374747o90507P0169l82892R32335m12169E08089
64400A900284o74837h3060E81725J379507N4817K714713j34307A273177b660621
64390a757883G54374L89600k04551f76888G55789J03685A16015K070414q76396
64381A310033o33827K906643J291813N05579J552343k302561A369125n34991P83112
64372A617246N47997J292786j636198f81494k865750o84330O14267J146901B69588
64362A091026M24698A8140Q11677J315593M22240p69241G6259K05885P97913N13716
64352A593773B23420J019739D93665a191800j093415k163467J509636E10211L073434
64343C583645j659090j06909H24899a509481f20162A557500J576817j09641j073547
64334A951129o84021N74281n45648a469153j212810g8654A673176C77323a842083
64324a391890q08999l2548A93835g251C01633m7055Q19407a80814l362684j481497
64314e024995O02983K130959J082715N74309B98894P77278K255584E7544b019301
64304b088587G04618J485461I88955b65028j34378A574005o00284A62554e69674
64294e81325A140592J114306J462408j00077j289621E28547K19536K018N35873
64285A285974A99167b132144A3792K666442K271812j469198n96993K028578J325961
64276F240394k652189A675781R33510N66531Q04250A360911a504368n49301M03174
64267a650495H02744P01804o22055g79354b56939L5992l35233E59965R32770P1864
64257A564599O92077C18118M10973K046197j87115N07591K922454Q88820n67626
64248F339412q49659k150630j274887d90132a97868A285665K783004N97090r77234
64239C688525q74786j406638q6818J572675A438084d94951A273495N88823J74026
64230B036344j51984p86663d11267A592531K283550n20965k25586a59962j460509
64221a620471j338079k752929b153823A335303N82287B94408e93713B75827d66476
64211b098193l06154a082490F93179M45457a03018r91568b35262A305127K187488
64202C492615O02041j232567N63646O89425l54902J731807j171444r45880k54197
64193C120544k06121m39604C38814i78238I37901R54491K14546b79163j263186
64184a542349I55471B48132L7553Q96146J049398R13653k67637M68933q89123
64175B457055A054258B90506N10217K362423j335479a158002k42941C02849A43672
64165a573456p56000J135552C79206J251953J078343H85101a586529l165846p93460
64156e545835a422769k82913r23034p80787a363247A47386a361813O47744D29641
64146d90814j691649j069486k12699a493748I32691J272599R56368l06326j026238
64137A829094C45095a388739j633498k32497j425938m67620K228572j870124O46935
64128d142909h14790A090470q9394C35565C7494N14453N97663j50379b13990q73388
64118a087378J41642e839j769863f94036B816590J157538j35090J46950j375567
64109B610421j176573R7434M92764G11653B80067P06719K396465j481124c22060
64099B084575K810766n75681j285897l83983J836256K52206B306648f18935j951077
64090b570012k63204k09483Q13992e61567j915722J31508k493784K74154e32223
64080D360085Q23226m6693r71088A858369A97993b84181l70538L5085A627791
64070D647536k073305A264535L17309Q26292J069321H92995g58364n5044c1620
64060I97044k68099J175489K446493K699058j48882B843687o40375N34886C04528
64050a826640d42775A812362K73552J014767m72460A301806e8379j070034A197522
64040A458807D18710K784741K73746A036989M29261O35702j007327D70447d01764
64030c529557J02714J660866h29236B075881M98348N2506L17777k91012j269028
64021A384472h63613j299567o10919J249252B001668J279678A199993b550162
64012a848059D38192R40699C09470J081549O24049C32331Q06436N01855E56883
64002c29601B034442C94845a378951d1925A414125J435009K018003l20358j17929
63993D428850G69737h81991j388072r53506a538610A158980B33829J204606K213513
63984C651948A824179g10769C31436J423543J563905O3111J99898o17755J37815
63975C101953N05422D68709b947906m6210L57075a045853k05181j036536P0279
63966b217291K79438k88589J048477m42671i291A42746g0236B4123K05039L77767
63956F06929J182253J583455L08819p65801q86792J2847i70976j010752A616167
63946B183684c01378n89505j007079k0240M72816o33330j730678K32027L33271
63937c244096J569637F88028k82739g54558J88488B92034l6344a116520k19506
63928a336026B217822L057849q71168L41753M26476q57833j841983b54891f775
63918A944560J472182o73851j320782l25797J946989r8590p26979K47987F91781
63908c82787A510417J149284l57519q32994G12064A93277J789751J535795n20722
63899B998101j091393d52564B39841J489794K88423J171636A039150B22186P35884
63890I58070h40127j395860i47636j581745m66405J369988c93814D1230Q5656
63881A26886b85255j022188e40105i187k79047A635560A10522a714583c03983
63871I87592C16450R37313g81349k746527J87640L22283a309184c58350j380230
63862a738580j82978O89340A972376J051513J526876K10743o03525j635763B2878
63852a51099j985448j8624k73465m08754M67977n62255k56711J455219A77076
63842F45575d0382j915905l50754N18888N79780d46471j590882j683517q2554
63833c803424j540046R32333b149591c89516r93010j724288Q11525k37633j87520
63824b720442i22084b73121n00327j650247R39473L69667I01854K12112R43568
63815B057534J169846M66625j202134G11454e06209J8796C37806K441657J797800
63806D577263k122157e55431k076771k87599f34717n01736k316042a673853B028856
63796B626776A209632i90851j133395R5648Q12039q13582o68196M39102f35752
63786b27673C068536q16390k90772j85061c8265l380501k012662J234829b92710
63776I56279f57628J43158D80174a568176f89414b7149k913490M89966a150511
63766c128950M56160P82239n01835j884001j084659J483515a839598E58630N9863
63757F18493R90637J310785N48756k45015j212753F2198d67809j105760j317452
63748b891021B24522J315338n58156R76304O30521o84029p91319n54552a038086
63738b733474q32230M38867K10653k65449J033791J29985p74240O75751q96157
63729c012503q51584n78406k08507a849734j002909q97812a557569C66027Q16732
63720A182759a91387j919381a77918q35536j613477k094706p51210O56620m1245
63711d857472a655540g91005F9663J60567a875063j150679i86784A652057J296897
63702B948954J012994K77093A712358d95019l58105A821434L45115r94360h44801
63692b309205j264557m04008g15305B62578a311153j280205j247562J61495a536379
63682e23638A64635a397436o38544k48854R43182n25707h91239J49080A68855
63672A035213J218259P34707j418999a822299j085177j23016J399413A084174
63663C200710J029683O51682L60672N15461l85627j820408a33950E8718K614784
63654B673502N79599A333947a452670G06185L004890j364780i90363j18303j110197
63645b218863d81086A386186d49171C21730J011275a738734k810458j627860J258107
63636d918945k95912k63611K221496J343094M14049Q2187c83482a57354B157712
63626A995447a140581l58521b3416m36093k112218j197952N84250J164326Q45372
63617a175731B263456J004185j109680M62744E23642g51172A544785K157783k73727
63608C428841r99552M29561m82948a031272j696640K6185R99217K79236k4574
63599a447848O55007m35325j0918J81371J64611M05669i0838A043903M86726d98548
63588e56187B051686K16747H1165M16037K511890L0933L83746p48359A000866
63578d52010B280024J894169j285417m36806A144090a767586j005214O47378J52028
63569a973394o98819l987202J372829J939097a453083N82481n97877j286627J69187
63560b585919g49494I97715L84279E16795c16285j253397F59961J378067J06895
63551B144923J325541P4739j432328d22593k327985a243292F73522f00213a84209
63541I39740f76939k384367k562221R67420M86803M66390a454628B22091L47922
63532E70013i3847l73429B331773O59982J123539n83696A608619J451099j105450
63523A954268b24592b9799o24194j466196k33346F33313R65594n41301a52298
63513b351248J112866B321389R20974j596682b224390j961378P05205a286162
63504i99949q49436j048880N44490a41072k313355m01499g65213k44069D27484
63494B93639e29890J90982n42370j018333j047755P91054k23217j098570J209469
63485b268630N17614m90392j709997j332211N48392J694705J342993O38619a34899
63475A386121P45282J453356j075390i25277k434184a308556G14100B05584a109187
63465h0488j282346n01948m41937A348189n47363f81645m54374j702701p81589
63456c620309J627257N21664f90972D21932a88673k260614j899532J656816B212151
63446B767353e04139k450554o04368o88779Q84777f82764F07519K178616J091379
63437C877514p74766I70779d286169j732438J156842P64306m09993K71750c2559
63427D134296J351527k290994n65359M58723A345703A99420J007769m4159O87778
63418A850808J77261j47720o06287l73089a120440N16162B732162q74290C59322
63408A919656L52471K018717j184213H26292j00678b17029A038261J332224k80295
63399B090190e89998j622573D41768K136985Q42851H67560a433684k47909m01363
63390b082956p11258a306807j96014f57223A153591K40199Q88200H30685C230
63380a621552j268231j27246Q91616n1681j144081j792524k71766b487173A071657
63370A972536R41498j008566F49725B22200O27345J090786r32193J84782g0334
63360a317368L83474A604216J828964E76356c019009j851378O92397J528190J121384
63351a528416b13235i8825l384507n73750J673597J086401O26607p30178f77345
63341b149587N69060A553020K742645l43200j148490j118710q1451p1949f5748
63331b518750j650520j007103r68677J710148P03019J564427q30819R88446Q7679
63322a922150Q72919a24242A140437h48787o77873f83844A239230J747757M23092
63313C410079Q38228j131966j424156m26547J223893A203149a663448b81827A811332
63303b26980n9081B61700L167500J250687m35557n60429j208213C11054a380354
63293a320305e36614G29642d96931k221592J047847Q03855q78056R4558o83518
63284b333837L90848A062428L96439E73159M07413J125273p56739J525722M42684
63275C317512l52964A017509a065825n11352P02081G4569d92802r44099k503845
63266c940746N02682m96336j87086a146209A062225A24239c117791d01049m08615
63257h09664k020442c08489f9352E05215R63731d90694D84179A24471a13855m5785
63247a59640E89770L244713q9024j140600n94626F64777a844294k307394j950467
63238f102155K25143J225875R17565J459325J060987F57439Q36913k1477l46381
63229A126494A31869R81955a33387k040850m34927P99147L0248L18272d12649
63219g45066F87820P65227A51195Q14445e00596A01857K94367P40140B84116i17134
63208c776092j373030J881183a210549B322324M1627A052475a98480k157083k229011
63199d584574K111892h50456o17945b19879E20547m2399K237413L821088J2630
63190F549279j468565N92203M79333k045850J13678M03866j257565m09325r33386
63181B023668b06910B24139P46004b478088k050383J362470E39556L199654q96230
63172B842980j121830K4231K658314K805163j376538G46261a482064j692230k24427
63163c398721a351682r05827l53089K11738h26663p78096o79047L66756J34212
63154a782838j006325j50295K50622N32146Q80010m57972C3642K362025R98973
63145C394640A316245a066141p54474j386773j590545q31712J111651M71267M90506
63136c556221j096438j655370K697925J379251D22611L082671P99588M70605k149411
63127B626064G63513h55328m28424o67056k027087k14414L75992R57290J87470
63118b671557N10489C40137P47776m54745c74011r88235j777809d06205A726217
63108C54013b72970f2822A185493i66855j074676a005426l65190K84623A870170
63098C182694k01882F39491K48400g75251m29804J71748D01752J081327l97357
63089A085722N03070O73092R39385L32700A149078N03120J449395M44309q00182
63080B745720A159206k98779K858479j751305g83393n63519b46361n7598C59942
63070C80037B0258b05182n18070F21925K751874O16759O16801Q49403B681982
63060I54667b60631D04592J961671J602871P10305k080718j201794h34942k882719
63051c717661J488344b12187q60305k07432N36426p72726l59459j7655q11068
63042b704406N0095O52054A75511J448590J909596k51027d62632k42764B03863
63032B45252R87408l94949B70358J40162D7318L46710g85621j614514J165093
63023a235042l86478q16851f43661B064855P56206A119218J465148R78543A432813
63013a178933r16209N02251A36827J355816p40305a266573j797583k879736Q48775
63004e095117J749257N76111a47892r09560l113373N24692m7361j79493b51719
62994E15922i13026k097398J12733j19919k54956Q95495C37395J025232o07436
62985G55191K050535p46005E11859A05116h01829J92619D560e85282B65065R62044
62975A227109c57292k658404l51657j54123L66778a027355H06797Q39827K026366
62966C672990N7156A168673a630369j862836Q45852b78470o06798A187804K865861
62957D053665J972633j727668o48464I32313a751667g44464f4025G33592b003675
62947b907432J434012B076775J349650j013523q19272F11747J049272k25024D42452
62937A361031J374447r83810G96546N70327R60759J208876k48445n28020A17495
62927c10528j4944C56594L74614a71826r83227k71773Q2046N37954j28047A4164
62916a190008N84958r6302n18052B68793l7875a313461j94479B78175c007401
62906c296085J178843a19889A212320b196165j29641K43137R25332c81968H66304
62896c14700k77375r52507K02287L47646m32115C12258J218819P18275R79997
62887C229349j275225A10711a796514j260757m9298r19715Q01649a431304A181765
62877C835172j057923j21034A257295c55638j422463L80784q78844j54581e48954
62867a023550j137973m27891k576266j012993K995993a522621r32121J27870Q22258
62858a504614f19880a28511B276152K081987j726820m59222K15357J049444J592780
62849E029678j925230r24048J019476L56474j696421q98719L95916J66509J633028
62840C156663J501071B325348j089556H8717L26327L496302j322467I58247L90818
62831A349065a536991l69518I36223C53195J369951J129126I05244L59771J898728
62822C163743M79060q48802o32687F39904a478862n82930L57127d59364p92758
62813a252122q84613i68862k62644k63121P17634B744874J697164m72005j861820
62804B108213L19896Q68916j394455J843364j566099m68441N05637d06790j41241
62795e48031a36908n97345L9926a85249A118978A93284a28316G91823b60110q96048
62785a156158C18980M041571K262260k321907j741544D32551f48053l45316c21954
62775A446274p3677K00018J818136j533798G78282K58601l93017J192711j31774
62766A704803b13464p22589G5889J388071M82850O16624K78799J047784J496435
62757E386452k467004L42442J067561j372130d10361k230969B063883K957943
62749E021826j837177A017175P46937q43197D19290e99979A31932J809021C63927
62739f30640D7334J425919D65319P76587l26584N3279K090710o36861p98625K63775
62729A887600J020672K180797B433717d563187p05624K056504q41587r4562n46517
62720d694973K05119J645639b89551F54988l23138c69365F12613L02056N4746
62711I69415J746602A025046m55371J014662k63403h7650r3989r00482A44196
62701A958528F73038L197191K740487r12035j837165I99268a194718B48943K163418
62692B412361j186663b35052D40951f52540L7362G99325O89195K241489j162778
62683B567231e22136j809444r83652o47178J625648A707639K120807A720153F62264
62673B748173Q15171j314284E36946J95422L51643B35728K37021N40487N48605
62664A561841R20798J322637J199223m4112r43474j21297m08318A413430o73436
62655G39994K98697b335951k216336K101584n68698r93729J678919B10718O80018
62646H90736R53126k20084b286989m40906c20582E04302J835825o27743g50160
62636b430317o20349r54740o15716J035195h71132A679507n088P42805k9814N78348
62626B965758J454198K49474q45747j250355A242653a419556d9003A548506C64507
62616a003372j075763n03371i64574D16474P48711k93911a433379b59785n834
62607b65619A322265a083927j130899f61470H30233Q25015O25319D70085a493337
62597b88046C16719J18387f53820J69529E26661J767410I07972g54239j57371
62588i11610j72914l89841E52318K801254K27703A226720b620220j915072i69585
62578g05661j487158Q09432f84585K78280A770391L099630O78222N50076k955495
62569C142824b23351E93141J545066F22356J395147J566007E04529a641898l43385
62560a985283j85564i71038d40215p87460n34064J85859A7787a608854r27488
62551b536342p22594O7013m41245a775223A091657J229818l65902D66866J027679
62542A494545J034499F4183a320134F95686J712323p29497k11176E93340k19228
62533C74112b18292j966170m35796a027820M23819A52997K73247B06180J217184
62524A423364B48676a806921Q77394H96200j11077a456765P08155H70644a464293
62514a740517j028612R17549A818229J307668j75573A324946L62535i58832m55653
62505a414485d16651P5904B25868K03830P80568J237552J805844R8318C70427
62495a53446m93869k011865i51051A081835d6480o65785r01265F40010J254824
62486A894834E31330f74088r02952M78982c24777B54386c47264k352220j560416
62477d259900a780943j237129j922130O91760b036564G64763B94542c47709D49659
62467A307290O79771r70539a374514l56389l0789j767708j589776o77371k78882
62458f075429K208561J589212j152871a369582B07664J066151e48434m461583
62450e010017j204481K449443J277496b80511I46113R32013L103042k18781j642253
62441C120134c10537k611142k09310j615233j023585k6265K895175k57884N61211
62432b597570e94212L6279m47468p14997j046669j692042r02115K410237f63609
62422a31962l49823n99366n55463j389446j121945J367305M39063O32273P59521
62413i49843K75956j331205j971932p92161a485640A292807l62352A17182b53151
62403a331309C71317b87596F43552J141926L06939p44626J135886O87397o14201
62394B556873p99640p47754e71981j610928M50656A234530D06887c41293k954212
62385c295505j694420J574920l46290P81202A217938L048141o00789j661749b092119
62375a648996A09168A1309J471546N24814a035394k454112P13439J137670L59653
62366a278744j369489n83127J608j625493J935565B131828n9412c1247m76455
62357e07702C00564P36746N12419d59708k374020j027604n5342J123698O69470
62348b123506O23292b58793H50340b99149C83498A48485K86325e19813j701534
62339b221347E98652J501897H47208e35665i7230A426503N23296Q96019N33419
62330C379237A677375l57687o00191C43545J423281n94041E54641h06472k716783
62321c523255m28789J319475f58484A233613J510223K331917j15090j118648Q24990
62312D667005m93697l68395q63146p99064m85946f90060E04029J813180J674437
62303C991646R79287j419608o64224G52947h70922j911997k483611m19269K718168
62294b967631R08612I7590R11003M20672k36m57119d01557C04330L70827c74695
62283a001630n39163q16993a159058N30660L02553m1710r8765r9690k01734j059668
62273a827412B15901K537787m89794p51581J041364q59012M82489K140247M25094
62264D742495j036263j97736j89836o89325G05441f44213j669635o77042q7359
62255c078249j35002m4385J039256Q96095D96271k8497g46029j227220m40876
62246b414125F69605K484236O22553J105461J32659l13073l48180r84346j556908
62237A812007l68974n93419K046443J103150o14504A575239J82023a585657j648680
62228c234337i96063l03436A148033J849686j216516J223266J542829K20592j173527
62219C594363A640078a865627r23580f08342A359791n08232C59714J558997I52626
62209G40098a49526j174168o73902g93581n74382k253149P36693h38767c25044
62199a807005j885505J275172i10708b32089j461852m5717H26799M64915h24076
62189i41910I16475L91191J625704J960643j896268A345737o17411Q0931k56932
62180E52325J29676a785913j398172N53426q22954a352217D64101J347036R26656
62171B737793O30091O55688K20926I78160j41960K249100J644470n39683r65846
62162C224241h69155j008414i24884M1776L22238f8453j92026E8214a155645o90073
62152a845718j028249j395150J908060A059431P01290B01105a083422H05521M02635
62143A208156N92623A35731i45101A25490K799218K496526N01671k323752A00449
62133a787558e90429A873148K644171J471476B516084B85328b499307r46792f50991
62123A635998J939771j507007b34690o89432j919196L1891j02444a014329b70313
62113i16023r7488o47823d3732A707793q23548a061508H80548M95511d68787C39320
62102B401425q09873p14555J89693J222838k21782F38385d560001k142324R41091
62093e761234b855527a331743A596639p44589b548452j325755J187044J144394
62085a542769I92876b53971C7702M92212i83921j23106j238615o19546M13221
62076b551967a237345E59694J461758q05624I4090K759087J484976r75616j195201
62067B167336k87613o576J05454B14740J00980c45695G52966J246176M27111L22803
62057B749056F61026b333411A161315J893480l71498m46186j026941J93304k19768
62048A183706K296467p33799C45546M24855N17027k21076L35903O88002R5299
62039B185556n50746H8552a022224j71715d63883A63004J051654L24664R15601
62030B454923J711305A865193E13440L096775o35877h5956A267929J164213B61957
62020a385941k309667j274965J55003J846830J451139m19122j790397N15958J81211
62011c029951J199131a96697k480034k031265r38155K124600J036589j783060
62003d268022J415549F76270R55129e67686j213060A18017O47386J865063K461914
61994E092380j504944A119949E24050a331068j451181J132184E24767L74219j33022
61985G65964j35612O18570E61378a923309k4835A438232J717472J30789J80237
61976C466730J064921J58936J23909j229029A643232L31307l47274P08777J436658
61967C772700Q34319j478935a074468n07814p69305O34686f20556a36398A032763
61957b43820j02597B633058L38064a796132k240480c00301C163117m44062j191687
61948A527368F57846a700832d23106k36293j391239q44389n75860Q40630q633
61939b638890O62525b39694j04650j148280L22871F43161J198791Q58549k938
61930B697563k4562r77247N42665H23748K173432Q95959j165240j151139Q2698
61921A659458Q67250N09582b42007j76822a51741m97452I31462P48372o14465
61912A065369A5735a228406e17624D83493J596524I81537g43898b6307q72974
61903h99281o14944k19361L97287N39297q78650e70644D60753M50000J09359M29383
61893A449495E58828i43296j07322B122323K893804m85863A809855a001849r22791
61884a924640E70750A00148l2844N13187f84847k01123A758264L009823L0604
61875D798691k041467A274979F4430c45375E90267P87581J799158J297544J20457
61866D595007j443902e19472k072091d78807A456159k847D55901i91731j515362
61857b507093j263150m97182R99846J155720i2562o77005c08693B057474Q71591
61848B929065m10294a09554r63698L40120G97602J204181j6388L71902N87594
61839B944891Q90854n71655j021464a602664j807544j331893b291742a116427
61830f36036H63079c04423F65778b87819p01679C00386J119060J551173o95238
61821B275381F37040L052273o06812j06887A481344a523825J83335b11982B84066
61811A388574B70590d85901j279517P40276B484477P79970C70465b121044p68139
61802b889183J006676L63636j267704J285103o19432j670006k69089Q07191O01453
61793b651355j07672f77510F16172f67317D86477H1573N3459L197823K294699
61784E627554r40341p37017j955742B55875a216687k490453J070915r61644N80511
61775c017358J484584a613o46992l20339E51384g07796P8132n18791k42862l85316
61765a776633f56721b00801j463245B85193L410089A159636i1695D99843K409058
61756B908901p8608A28740h65469e0652A360616K538190j25985A446181F41374
61746I77319R40773o6502G62637E2649M20870f68562k588929o04949a719339c35206
61735A16539J36680N1978a9310B38087b056855j754709Q30232L58817L03304d10914
61724A014225R8577a35022j037860K84815j256768K78964h90775L74503A056195
61714C185461j60313j099015k33517J166564n12521l49585K310084l52565A525745
61704A036253j28593k26505P91103J565344R305j396487K12178l07912P63431
61695B318117R53760o29262A157299a15073k659937n37625J439403A814524K051449
61686C865973J132203p35152j958085A48408a353005k224128m56158a538790E38116
61676B979121R4440j95389K22495M04616j160995a571724q14926d32327C95411
61666A84935e71268j528730i35766B337314J765814j480181d9643D5266J18070
61657A63336R92266J544196p48144D91725A58183e34502j801962r10161k040833
61648e287458k79036J952205a404951M48115F1850a263620k60013g43139j041388
61639a784527K51828d2680j128502n35836k73798m46078r38344p85308B69816
61629F06319J039342R43229f36362k673351a224788A74777i4274p84573j217663
61620b096510M37555L98344j39499o48354Q33961A524952J730247r72852n05503
61611A776844l65417E76930R03523J411468L23674k17757J291545L25249p27319
61602C887313J051818j797565j016849J05729L18545n97497c26726O5355g5486
61592B7276R80910H169J222386L424296m6582j237541o91101a099856k390808
61583c490664a257134F26351B70778L97063J916536I76663B26005g16934r05303
61574a622237l15827O60401H17448Q44221l65444K9322E54709R39496K54756j67376
61564A581585a57469k937923N39473o70470j402686r25374k5187K101272J087117
61555b391247c00424C08432a415486O05578r6206g2046A213383L096594k57803
61546D052174p26737j633243n37593j97431K287590K75853j326672B33512J620098
61537A853610K124175j598994M74091q53659i26192j96865j544272J242864c76066
61527a281246k34589q05747j763298L83097a705139c79255a15570l925288k634277
61518f675135J872612i48980H86945J024143D11715b331317Q46034P37594A89704
61508H09517l58866e47138h7065G80837A91240a011087B258476K918126K460779
61499G637381k44502l180846B34993d84759E50536j4190a991798j89336i56653
61489a691071q44308j511638J140043N83673k61454E32104J065898D18887J019908
61480A438795R41903M55901J680361J778327P86297N79379j413211j687244N96870
61471E157378j078533q66177n19984I83898j4519n2095e80973b16904j254382
61462a471286b30125H36780k63458b262009r14254j91713l4611L29706J348039
61453a724842g9857B172514Q48062m03468L400543O38671j006818B306452b654145
61443c232565e64511C02825J8999J69874J136358L18247B55791d01842k180693
61434b582535M21957b12541j289671f63560o03067j374661J272432M02208d79681
61424i50100c20520k459947k078207Q83320a629894O47321o82349g27557D60263
61414A240358O04538J360063q3528p54943o10165a743239j836521K85031R78377
61405b316352g97672E72289a076176l205089J09715J052765o63973a645745H83071
61395a17999j361026e21264b11028p7727B613736M5442r04105R10912n89005N36285
61385B613265L26009j237182d23786A081367l72172J360330K111457O14579q36579
61376C958982J80225o51515j519229E37805e21648A035638J418396j179396d5885
61366A012048J382639A45839g70473r34788j763591J560340A784847p68779l33473
61357F82595b32794j015453j523062K50034D73373j23295b554633J014842E65288
61347B178778P50390j137931J000679J874026j032184j292500D18564a696255
61338a586192N82186D551J47246b73013k775924k091737K71378K356473R52784
61329a560039j142179j179967R25299a188372N42159K24704j809875j060628J90863
61320c101149N86916d40758A97960c077669l578812K286267K104193N55426e58925
61310a257139k52734r66736a084405B113483k8465J20598m62142F80474i86226
61300c081315p67527J533820H14899A06301K175776J683995j648683l61104B1708
61290a286823j460046k727141k4871b649758Q41341j21060E09111h22638j892680
61281b715318j298803J560270J041696f28067C44392a115503r81160J87561B94143
61271G747b872912K27925I60265J783052N91064M72188q12310p08021J143762
61262C430000J061928L15603j554081G65892b77318B629015k83620a754432m38998
61253b193430D5852L061358J406889n64366A952792a667542O50231E03593M74528
61244I78121a85346j878665Q37342N28766D68893N33891P79529l45376l70070
61235A066867J926754K06638m13054K519634P52942k60459j895330H08029a714906
61225c124120n60857J542852N01639e00959A123893J508944K91571E02921a119563
61215c679867J810154E05976J289451n63822m33173B04011b051351k514008j020245
61206e585604J255417K127808P15431o51731m26537j547500p88361J484221M00052
61197c016804a379964B682023Q4241i10521m078852J2290J589216g91722e5343
61187a696251K08424A40542O67540B69411b020925J94591p59692j22068J134672
61178a573422J23164j042170m34798J275561P77280c32011F69761P23200Q90462
61169B283423J064116J06089q77485c86740p29234H0733K11822J90470a036251
61159a721833g16623K07820E45373a313922j782916j040142K16134J739255f12035
61149E91223J007919Q38439I46853l67829J358589j25464i55436k004999l51676
61140c312111j41152j178331j103023Q200b780152C70734O60332B36024P05565
61131I41589R87996E01005e43557A328962J274608j039235j18980e6920j292982
61122a349902F90208d29338k515598j428742j566991K00101K84679J783857a097061
61112b286439j293404J726935G48754K04161J478968J264713k81154j323016J397279
61103C489705o65916E52195a818119M50205o51826O01654j006428J7368i01266
61093B740231J236780r67347A98580c321688m70858k6150L61348a225611A159752
61083F19341b105859j781435O43172J117795A69876R86423P7704L10890n01970
61074A042923J674063J284688A56826h55054E16703M65495e13420j471233g82780
61064a756357j37271d8315A816352J625568Q50838H47760a337808j798336j25186
61055c261330M10139A18871K186917i84496j492865m66895J134525K97671j28821
61046a640881B84886K98089G3888c48006j101908j302020h60957r15329l71742
61037b148028i59602A509849f56781l56291L3851B7064N6874N3695K548571A227168
61026f53720G61155K76550j18149D44793a85494B84416P52955J677904J713469
61017D428744L756737l88632k545972j872668A87783b074922O42902A02959a4598
61007c91338l043987r45842R2629J727069g26443j108341k643927r67531Q0904
60998e365338J26451J768968j21702J264259C0996J264172C88182c53365n6657
60989d10022m44576j97168K32329A172115K638048A577453i98991A122111J883403
60980C005514A043029a777274j182178M18540k116239J817302H66215R5699F7559
60970a587339n82248P98783l96800j441895j25055P27246Q63607b74496B68389
60960C52837b90213k700063j78155j34174J527028f53714m7888j65406a53625
60950e97690j752328j383566P08407M29280j46895q24247P12799p7493j785776
60941d717509J812737d6330l27492j150750I27047J277244K90415L20611I06114
60931a328727a73343E52671h370o27808p40342M57814n1937l255496j106581J218114
60921d114606O28503P72056J343915M4428p09685h11058H08535A33579J332027
60912A465606l61220E06102K117016A272212i05699m37161O08298B26714a827993
60902b178201I27742L537787j604785a059015j600632f29056k9291j963513Q19969
60893a801891M61091M1823J03860L52431H35085P39646J780255l11218E92296
60883a744405l273666J001366a479898f32079n68032j409035b05233p22587j730741
60874b658561A36706J103453j35421b19182k200144J076203B034591J578020k4515
60865C588096J34648M22125j017944K04746M55724q73162a37049k189669R39758
60856a386960k62297g76040G85223J489377j063107a318378k444189i31887B326849
60846C853966M62398L3580p41201k72523N8486n59345C45626L16843J860234P96684
60836C319387r63501C38301i3605F41396L79897J548278l76530Q16095j176601
60827A832535L11750C26338a38326A508082n10372K4224P30076L47662J622599
60818C722271R6825j783554g93660j786538O1782H34585Q17439k07304a680019
60808c002878D63004K413090o98638j89609E03906R41913b80532q81479q36234
60799a998245P51494A080852j6401D24482K541613K06450J33725A130794F1175
60789c52368n7146p62216j275520J215784J48610A97585a68121m29951r13781
60780a511853j295794J388046A598213K43307b88841E94859A93939d73446j09825
60771e83271A161081J146749c20237k345837N60509I84260J426025r05635K114208
60762C618858j007251e96978K96642C24836g61491k139434j018982J597297E2383
60752A780066P20675q39575R45356J457942o83771j200000a195389k606050p59033
60743d560472k570958Q24771K012044J783994Q91964O76103m18053j294136l67521
60734c022264N17294d83189B48397a858235m172364r86863R32686J856616j249762
60725e477922J219026a353064K81833G0766J811992n58786n29388M90165K503174
60716C787923m58950g3930A838507J903634J340842J801821n64329j668220j591186
60707C061069r6680A437984k35678J917096p74957m5459A001405d39314A549830
60697B488055K364804j264309A714160H10074c77061j248715j216286J021248
60689a820814D01956M50344K628689R34400j326342I34480B22501E8546K00157
60680B58703J474240R90379n51500L7912g7769k23135A467659J37043e24385j826147
60670b350532a149206B61081K75225K107739J384207J0755m97809m14783J283260
60661D409675L506696k03168C732859c78792J59681B626629L63102C38803M67396
60652H06199J350635p44786J559627Q38081j653856r91518C11997C3116P16424
60643G49540g2259A263466K850461p40784j12799j367536F81393M76218Q21757
60634A979368B83591b616151M10227C20428N196122O40706B023673C39564e13973
60624B21260J338175J163743j286297i33145h3876l69127k432043O84762J074304
60615a125980G7597a020676M20790B44862f03306j99059j054198j967184o36272
60606d460019N951b121312G4869a723362o5295B067356l32615b208007k525392
60597d733399l40243m04920J723772B92119a36086j727930O90987a45717m80586
60588f26303j883712M5103m11648j079255J047070J049983j38617c51057E52530
60578a548069c96555B229622K36280m38743P13390q89477b71518m67310E63353
60568A201495Q73107M40306l09687M92312n94960M48059o53598g75932k387555
60559c163487J473137A593557Q69071M65350p2426K444081n62996p27114r41871
60550C067652A481757D43543a800431j17856J87901L01101G01967A40839J450901
60541A591740p38865J648232J979731o38903j268518p70728O79529d49924m018448
60532d468372k129663J603521K383866j131453p54477J606562g75040K85348D90509
60522H88568a297645n68493M62990E7158a494699O26007A943744J67502O84140
60513B795386N31105A228238C49571a607336o83663a044376A525442K065097n08451
60504C082088G80355h59804A35456A4963K23372O05152J956257j362556m22995
60495A014193K021502j272880k76516K006058H58979g07426p42019C58038e62075
60485e70782A546916J065763j270264b327713k248354J265832g26228G38925A07810
60475a594054a50984A373419C18239M51781J514661A094580a907895j036687O14168
60466b330414A84992J401547a630921j557152Q07329Q98498j341910j092582a351699
60456a159668j8822b18470I30736J830381k98078A02077Q23926f8567m78021A556147
60445B64315b903099j058593Q019Q13055J386690E00763K329759r16264n74169
60436A340089J61502Q72807P0747J054655q56898E10089b377003j344898O86671
60427c035230i14157k97208j693492Q55279B39557J932639O24288A37945a894642
60417i1373j829007r15501Q46274Q70024e55125A186622L34236k52702a493921
60407c340096a552792C78475j07821a103491E90933K453941d61072k364731F02684
60397B022785J787753K105142J60904k922991a115887q12482f28714b57142B101617
60387B301923r82110k6586f13223J45513j07311o25165n12056m17313o62921a092231
60376d5523B350310J082039f78762L03733B237612N83763G19317O39609K346201
60367C705127R29282l87969l58733J049N50115j77717r18582J80357j422375I56036
60356F69314a04405k713884k31381j76479o06864a181959c37655j614545n07793
60347b459993d46906C172141K59857A191260L91315F14627A33604J065940k14044
60338I85500h66923j193591M83031K46915A5736K486368L26434o33831L93033
60329B587740B51755J173586L472309j566049A630166p34180D15823J41928h29443
60319i92968j82175j362326N98339j04430j759290J21971J286769J18443b07409
60309d08472r47582o400j172101l76730a288772I60236J238204K23960J477411
60300C899811N1770J43028o85379B01526b71945B140570L34600M81656p57075
60291B199751a136615j239736j15145J060654A35922K334377J341722L43877j971988
60282B183910m01034H55684l94017j06399d91069j197346f96458B85784e61294
60272b501595J048193A850464H76870a684528j299168f94272A410959i74530k713266
60263c687796N66381A397580J475211A347537M96227J614732p04194D57029i54752
60253b109334k84428f83989D01496p3740J78680Q11386K244771N19331n03982
60244C577942J24409o36938A481861j69464k78298a016628G37550J19815a48756
60234b48275j741242j416022J509037B62167J485011E46752a560843j119339N42346
60225b137836k79272h02370p31857l34749F73083K257050r68033m54747j97272
60216A310081E05614b140664j115879J131856H05713J078552j28340l77134D03036
60206C18201L41707R10138O10002e34010j339492e81319m34930j587116A068751
60196C289406l49582g16066m91100A328354n74271r9990b92589j194071d65999
60186d92037D07137d38214k538839c06369B164891J223095J791635j901648r84508
60177B293465J244170p159m04290a201040j437673M19973j511877P29094N86083
60168b415440A657455M91146r72681A70902d74319J38006j048192j414224q49902
60159c648631a268496A159905B84028K78814g61471k27090E59219R68062o51551
60150H75730J68756N27730K1881c72366j500109o42515j39553R58859C88735B4061
60139a179926k284426p48458K103268A305748P66313g6779A713550R85196A023160
60129A577884l44460a568476j209345m992a323312N23184q89040o34481j482661
60120c806310j079667K013405a074518E67290J946589o80182J041464l38917m95116
60111B041128K527669j788706H23430J710704q07850F27658K99579l50771J289876
60102A866342J929967n04934A625442k04075Q90596a313863j837691n21930n12976
60093d186460i89557F62994A11966i68808j467550e64297A527912L870941J585352
60084F984205j300828k297924A141329n7748K31055E97785J547054j25121k90889
60075A728829N66178J81633o86121K69163k15328n39760J284034J188030K00433
60066C977091J429626q89494A840153H35285P67206A9242d84407l84560F50969
60056A700480l39652m01393a72461m51376a57712B37887a545153L35206j711892
60047b921839O76697A579495J850281o758J95023J658016o89716j979808j64586
60038B441947F42491a76467o58942A686061P33358G3924a076801l58026n10575
60029a945402h2761A183856L60606J625270M88459A806978D6497c58464m47861
60020h06325b29907k375434j263753J810450J41372O2809k41534k025826N42589
60011c579234M47980n89032O111N12690m07347q58582l86432O81268i63238d11923
60000a118708M72057n84500j241106f16799B150307J000855J135996O55490B418442
59990a021359l39883A195036M47366e11038r30165n70794r81954J266821b42721
59980a151000a09431A896007K849400J073592B551658b702886j89712i31064C58659
59970a92389m4970A783006M99856O52725j089073F18094J776442Q03252l0060
59961C167728o56120A180642l12104a344369r42701Q39753e55641B222689K139602
59952D362291n72682A471621a33791q79670j141713k059176j755486m00473J685138
59943d685171J069812O74215R13265R13546q62779n96452n47423k222452k675088
59934h018527J71014c875678a707888f50333A355162E70881e60251a19850k208817
59925b328667M20672E31191a404357k882175q98386J997768a245938j341061J006054
59916a580945b80549A44037J681407J853466J910909j088686B074582a428222
59907b108344n14343M34856f87165D54848b34264N0798j46583C14286J148477
59898A462763O82927J43892q95898B97350a947486j343984M80216j339563q54540
59889e005357M15847a887307a93215B584633j81879j079725a345582j545636o65690
59880c556908q49628J907214g26009E419O14194L08007K31324N89385J301846
59871C050175L026770J518446j095705k629288k29931p98437c86398o19902A431402
59861g00860k824825f28452B771360n86022J724746K282502j888053k117970l12404
59852A874159G96434b305539l22010a270967b46068A447423O30737I44101d10250
59842b189224j496988O7519P16756j046542j093741N38768a658461M90906j71552
59833a339107a12740F33149c69685m097968k127083Q80573J657015J492036J092964
59824a472148b43906B36995J647881j66295a077875k45732M7825A004733J362559
59815B367292k06985E26127m7583Q09905m46924J37932O55184K617216N21995
59806D773852l1786p92739J54730j468241c791B281704K021170K93975j124274
59797C472575A530248F18981D3277b19780A187311A06278a235264B199891J226736
59788C426627j372106K008042j560127K55345K160463N13105k237787C68675a130064
59778b176692O30634a17949k35721G34301P31885F04633j50249g55671k346744
59769c102415j1840a71230A634723L05344J514355q53129J06627R45371j471096
59760B182195j51175n87520J58691E71329a315330o19803h95055j029409q68794
59751b793258J086555g33134J48249l35310C26114J635569Q20003K33346j00112
59742B914920n0381J31700j88654B02323i92476j73667e23365o89732j015937
59733b229034e65978j660640K5980f83880n25207E16890L577021J034405J74274
59724E302590K87004B368991C73848J090683N48611G16053e20240m27072K87984
59715f59328j680069j381798a705568h31363I10388K062132k70363P18093L76649
59706C796899n02783l77900F84809a54547m4262A316324J199708Q92513J084522
59697D493067K066714J908183j984498j039747k062055A466399O41711B70456
59688b787274q31503p61718a332640L36014D56595L69993k20285f81512H96897
59678A540242J92574C23768P10337m09432H5473J806961Q39754H15448j79263
59669F36185B09692a852572J67930e74374C40125J42939j12318K832873o07069
59660B596550F90677c12839k418786j170416a97175j052595l256944l6757a522087
59650c49460k594133K09081i47110A598442J72177B6535L02366J151301j59089
59641A321113M81221J87995I76902K23220D04243I5075P33696d97050A919858
59631A637619a518822o12338M89880H82593e70841l073653K31808a488044l04491
59622a792535L31014d41148j62737a3644A459441O99684P68573j08872f54504
59612a786822r32533k114957J860249N40598K53789D69238J601295C16979a322392
59602a681742b81708C91813J178402J057943J134621J415689j406878A858212
59593A696328k03481o44178O3836b14661m50471B599603K025924m24117N23835
59584D725245r62467r85825m96876i12097k531704n63233P25694f02140I41851
59574B029267L91821r21982k66671a296685f11833m80857j421388n13415J424988
59565a602505G45151O73403Q30092n25071j40923h78380l19522j022656j530951
59556c751509O67062J62385K9392O68056P47213m98415O57991e43548n10885L24221
59546g30212a00042A505870R36065L02251A083277A61899J581709J278417K940936
59537E962961q02096A352360f56718l01760J34023K95868A02930i91894h4894
59527i05395J12016k30067o11239e07202j755609j5889Q60113f86925E80254J595977
59517B176231J280884J71443A118448a931900k641929j007865J556939K55113
59509c769642k40119k75900P83696a750976g34728G7402J387074g75724k530229
59500c305953P81850R72369b48074I37113E2980K62039b63215m56005D11080K636020
59490C047100R8823A128956d7992o39080l379919L51635J393928c76621a53380
59480a16013p75901C60667L84776q0114k39951b969152m67405J91844l16352e78126
59469G72012a197123k54220J51300j219601k042909J154513J378396R51479M59473
59460f18692N2012k141806l11337j181441k138332J850550K204956b61330j24612
59451c85942m23372j40794J37750c4572G05183f0286n40157r11575q30221P25740
59441a616499j784657j260716L78373Q3879p45795N24029P27086J230945h05263
59431B71864M43033j10391b83510A504695a389434j043959l37515J75971j09027
59422b703964k453594J710297b47375i6730A784612m20327a535955k341840o9423
59413c947218a968338J80376M85013i7408k38853E6098O97875j08965a17208p53820
59403h71028p69302j72307B71881K91068a114950a48253l46341j713842r03037
59394c111473n92619J137085g45761J44200o21063M49029j279922k104631n43271
59385d701419b297895a081430H44530C92551g86666r53396j209994l61260a529015
59375a811562j564646o30458a967167D34216P71158i71276R9105A066240J325419
59366B391659p14620n97552R83254K266131M9726j308931j309877L33991J736503
59357C830284l8283j430472H76700D09865J070178L49168p90533J759512G36178
59347A503833q5068E67101L46260k19665f48961G34187L77000a292480j655891
59338b948371N21770P99031N98233n11703k323627L14313R74396h12595j084428
59329a897023k993128N69291P00586J77153k59489Q84965a109295b70854K9054
59320b41800k62399j322446j290878p0453j51108J514230c72377A994102J415211
59311C409313J021730n45874j740798F09202J267399a69564k557788r166J159365
59302a577153A944304J330943j359676c32157k9021q91281k38921F48151Q5626
59293G33777l03265f9208j898392j635203J223076i745k53965j377047p64184
59284b404941P96555c40709j872349m3239F2525J238282J155898I74682h64482
59274G38601K746078j431775J98911P24848j51167A167061C04596J352170J670219
59265C326985K10135m79629j090783B81260i97466A821801Q57108A277325M10603
59256A687928J259528P40847q60452k78770K008003m51720E52654c13126A224516
59246A765144A35915K51283g67009l063079j325584P16436J047450a531419f06683
59236e65059a80220j24134j606374C94635R84670F33558e93798r66280K68242
59227a291836d3091j181600d92438B541412M03625F79159c94028A544330f23266
59217a790896B227984L074715j27894o30699K040773k307744j581517K36354j164681
59208A767291f45872H84781J190390m55773k1371B7254N0427K188246P67397A444858
59197H21536P57249P66585r49308K23566J493370e1271k150983h55359k54949
59188a110308j22838A751595K160280n83157A081636l80687J814652J99186A235419
59178e9159j223559k258768O52549E62309J155034a480685k937308J091793Q1627
59169c244573J165905i05477E73c35949I36746Q91330m63479K40865J728312D95642
59158f37091j400593j526707b64436n13574k235427k08785C81890K602912K647857
59149E632659j487476H79975C17910f07119j813364i69469a24519F42793P81347
59140A424140M92686J12194K62764h46069K74565P0582i987B699706J408301L47775
59130D455782j737544J67388J89185M51472j170337R31313j86015d38754k133356
59121b572110j125951a137855K91507k037460O16027i94667d4977A137667g22456
59111c451583j296296k0919O44540J347598L00934Q78402N14146G26521b39653
59101b439379k449654J63052J723452e75112B73681c978047j837921M08636a654848
59091C44769K838753j78206H77576N6256a605186r20549p39527j7374B51986A24820
59080a489468L18602B41716N62814K82701m67657a908838j218265a375201k59936
59071a635137d93649b30955j944620o22405a324442A682757m30831a26383q39399
59062i65782m41990H26381j98870L968601J198477r01213M9947A845743o19085
59053A226658K032440A230615C76467O07448K619640J211752j236143g00179j038758
59044a738937h44312c02537O1486F56418J235747L00278p08892l54478E61160
59034G42077L007527J389694j644091A448254a894306j501809p35643J410004
59026b721754J223163r5830a66238j58391A044585J893950A316376B17844q8902
59017A28942P66509C30663a63672n08779j187165r7127E34141J749967J393551
59008C677659N34166A242372k2437j05074M7366Q26015Q07139l97362A047032
58998c02263H24718l21117a185708m86322k25980A559037P2055m42822C13742
58988a990302K1564a65298j110369N12415E06213a513971l26969e12054p18844
58979a230898j146670j721250j84140M008N49379J433317p29395J015268k293274
58970d303655k09125J040823i62575A732236n68949a363242k207325a436074N10914
58961i25160j177238f57620G19249j12594N30728A85248b444638q70084O25841
58952b688881i43973A63671J70363h33193L51523I25820B82217a713159a84241
58942C321072k11872A412689A36431a304489r31556f85621c36263q80929c29160
58932A093726a276919m67758N80277D05737a478906j957754L02214J490513J17629
58923a526304d82223C81736K170604q91400i71279M03301C600267J898036q44991
58914D653312J250275k30425j582282P363N97838K81086K027052j540223k675930
58905B788066j176763g03696j30285A777079J155566K72485j167429M58760j098453
58896A398008a617486A592655K368533J5216l68870K37324p96956M81201m17714
58887C111389M20186o17073o63919O3752b008361k39818j11501q64106F4293R87940
58877A052233J411291K447776j24097j668632N11745K83808o10213A317276L82230
58868A699506K68760D69981b477964j928694J873997A468769n23137b141435K26815
58859a914620c00461q39540o74924A240796J94870f82282j416521j046866d66261
58849G89495J74441C09807J82574K798549m55032H27097a017107d85968q63250
58840a349218l37816k068570L12890J713385j07634e6034B116335D24249f4880
58830e31530K17573A418880o39445a841829M94003n44527a03514B72212c28634
58820H61282O07452C32706e07413j380351r54300Q94579O06234k082637a124256
58810C346861Q4053r13771g12219k231358N93967g5198A499414o0337n20896P44498
58800A662679Q50989J134362m60235A320256D66334c77051l94970k40004k670608
58791c682633k28217L43009L35807k307873n2781J546750a940750Q85070M84476
58782e71204A637138p18526a984014j819033J182234i06883L95287a32619k55982
58773c88601j542556d79361G46068k12108K552713l76506G56826O83416P54782
58764B195024R25514J139458J59979A412543b527352j874205a234689A007854
58755c86081R2615j364544k497675o52852j570914n55879c301347a105281A188297
58745B058829c19688B222893J828855A848026D77509b15622k241818P97806e76624
58735B0988c95713m07760G23349L06659a619324P32215a80706j617807N8049E60986
58724A32126c068400P62891R68898O09983J89222p45844K20019r5873n26863k68931
58714a954898c41569F04030J340517M121391k095384j682530R58005J079419l13901
58705D011547A117974a976041l729345p48122J232452K333205J319233g73229
58696i86899Q8309I6594J314274P72890J76946G56971k94990J451097A98454a648695
58685a393046j204028j435046k389460j091081K170890a017941A294340J961633
58677C255973J576343J067308J07059k694474I85537c95797j356016b71739q56620
58668a128359m14857A949822J122177h74384o20545H86216A08375d71859f291
58658a719420O61743F63458J662229J231209l59051j554337b93295A519955J574159
58649C094114H04439f44607C75641O85422C83583d64561r74029J2776D72234K509798
58639B982032k28897A266698a007980m20854n2612N364e82134I86763Q34792J588469
58629C410024M0340k62518n63865N09540k39896q3781o05325I00858N98880K1694
58619A521432I925a696687j323783J313074A887943L780755k634838a583404m13600
58610a997004q57118j264538J567890i14990K89531C23240p0746J179298L45756
58601A777548a85320e4136l85099m55214b97832m36d7001B453259Q88459A617079
58590A172251O05302K008514j855053a878028d05997N5283l146344R38259N89588
58581a969211N2827A206625Q46814A53847h34644l18367G49280K428127j527196
58572A650211a420532k861025q30325K313472B70942J228441f10339k6501a83518
58562B60774a119924k701790a605575b29875I17704D08051M32027J609893j38387
58553B311584l93938k52808O0693H43924K28425M06944D94583N84605Q46026I06550
58542H21397B24597R21657Q24168H95445N2801D71756R87252n77105a046639I84463
58531D449228L31081A862968k75139J574195K946569N30324k558564k019973j65381
58522A894999M49963L41626N22359m26143F86704M23192R25213d62506K12640
58513b49866B807998R7968j158450M30672J777252J618095q98195j441824A572948
58503A279623J418304j5957k16681K651198j037864A168140g28242l354261L50411
58494c732092a302142B35201O07939N40930L91209J819596K234476J215308k265451
58485D779208A367922f10661j040252f15855A058850C81391K291040A67872L6070
58476B03942K210582J109679I7626a141632j92234A846148Q04925e67625J05741
58467d61884B709583j253880a419658j426199J31312j038521J694187d47505A234490
58457B351697C64116J376839J249838A271720b671196J260027b74732A036689
58448B287806C20548e58396A58245J87072L08378A3292c654554J65323R08081
58439b581150j579090J019304h61478I6113K267219e86930k094115D03904J938050
58430B341954N89603A285145e16421j549170k45531e94193A59107b284753o46399
58421b931152p48572J95250J314317Q28738r32673g46421A807676L97484p44520
58412A460640m82893A1223J779896J384954n69440l78082r09448A72724a309853
58402c823007j487845K210349E79977J538518P26863n71452o50454G25446J06015
58393H31461e87980k20250B273585k28012b15781h2907q0524E85669b77796B531162
58382D247757j015297J277304P77653m28961q73700j596686n82728F58828O37068
58373A295896f9210k191747J017618e91473A375520L072415J01385k061887A86489
58363C45559R71862o8448F06787i06491A210936m63782d51334n74424j964001
58354b989759a269345L87648j493949J12870k42266j042531J73305J275711K40259
58345a858298j249759j35893o32952r16920L54822m42522J069329P35736J305007
58336a771450k82953L71298d98623j064188j659398R18911J43157j856957e92870
58326C754617l31389j021634E88174c878783m05505J972784h05045l93121K74226
58317i23940B355796q12704a364039j583662a292706D77253J867460J825757J313863
58308E484333J198635j326780j814563A684160K32919l69647E21787g80937k288
58299g83225L46982R8165I5198J726222N11199E75075a303921m32888N56735A46928
58288G02896C22136c21207a05708A204621J35029J05837n11969g42283j307909
58279b050192P73177m9188j942869O09735a055027E85327O98628J2714c41826
58269a487453a02148B032820p39492H8558k3126a944499n3933a26620H71142Q49746
58259A720888M81182n32450D03708a324796p46639i96778d53935A9090J527052
58250A546142L67944H8473a954672k07152M67688a58371G30870B24333L67796
58241E92129a651678k547624J134848K00813j934150J289350P75685A16034L221131
58232C337165O6844m36899j373400o9254K33469j63410a895569p95642J290047
58223a401164r39521l71749l0916i52915A13465J115774J859507n72331O80903
58214C197318k61029A298308L20321m95856B62379a071016k221358p10454J052188
58205b950640l9673k681407k810727J976772b167517A285967m75169a261888l158170
58196d420058K03992a814258g12010j549836j179603R09014g06981J85227A195473
58186A622494h25591b2499k36812k901724l546558J766807a310508e00840J43826
58177c57014r24170j114209n27984r43995P12428Q12496e29943o34300m19002
58168a583245m08852M33570f06908J23332n87734r30886j719173Q37496j747105
58159d630978J380466i35702O1527k198126Q61281J034751k83635l32639N40057
58150a252486A744284K183823j096234N58473B34270c207206L11788J265252j74451
58141a804617a57885A69265a002813j771576m37790a240560r96399q25506K65818
58132b796647a247026J98210n03925N6367r67868J055809M90456l51858B55128
58122A315269D7116f1429k335363o27464a491126l32723j537089M8873Q99617
58113b412448b0120B177591J134068J757478K95936n14181j289835A520770K148464
58104C669234K404981M13960l94129k084374n74059j309214n94108D78711n7832
58095D20879A27719O6945d89667r13129H63101K751564q35452j193715o57131
58086I28367F7818h73409C91016K55849a663803k009498J360196D82544a4385
58076f26827j452980j072525J083536G60125J115512k86018C29094a833882P83894
58067a049988A338967K28916M87107k09800j64607q09047J17408J87285J544648
58058B720877O24061j086511a02575j272486K67980B2417N46317O38170P33308
58049A940212J033923H04429b924114m93206J701540n81058n54050b97403H13084
58039F10909K865499k7811A38237a352365L68181I67093f98670j291202n61939
58030b551811q09195J608082j46968N12278O58974r16204j155908R51012a11141
58020D09155i5579B278524F61517g78374C70857e07949r51126l10481J74400K4643
58010a570513g36756A390251R12526j138809f66351j417576J35906n34681k615634
58001e098336J538275J635319L18990J05826c54636a35526m38323k21389j362530
57992b157768o90018r08953P54335i81407M06407b29262j363000l87967K76641
57983a703588j39123k98350k581245j128414K095117a691958N2100j14313O19937
57974a134234n44089L51281A761132q279E46023e23936j11811o73077f2715A665615
57963D76178K424722K077729j163082e3952m333663j42882J882887j39849j48712
57954b936171L78406O87084e28548A526211m53452J605264J339734r70704k05198
57945B841855j82784I11207i24569k656894a406285k500125j921431l28452J710812
57936d445481a023992H75112L01582i48771E62732L53865L65141K128433R90843
57927D401014m13924A861724J752180J971519j733584A266577g22251A049337
57918C306210N18269j57517E21737c183768l34836m7712O88088M39626j578629
57909d017231p23331f44929B734862o98212l77803n83744K16475J223866r89078
57900A526366m22240E06331e83777A11155O84884b128576k402502K019273N26488
57891a985317A72452a22884j884432n021E90219P58387a418972j382114o45421
57882c446507j165710j351198M49564b531419n2312J249828A242836J830380l19129
57873B754087G43123l31365J57400a034751j688633j11794j114357m54297a453720
57863A621615J559052r65793n94328O30098h0881D15020J627643m27794g32338
57853b687454N96659e46068A418674K073603N06652A374329a589017j247394Q1080
57844b755331j848721k61751b364089J096353l86555j80451B1620K885656q17778
57835B089498a731312k85334R81775n77244j379457P40255l32481J225376C342390
57825E908676J138335j028275B634778A189542J298852J985454J088831j636027
57817C926652N2868j24125m53331N9835j096487e65118j587718l719408j896120
57808g768364K705226J436605j66120J337338R16540j897615e65788C23652e31049
57798A69673C2541b356415j152203a23487A660108L87660E09914a120276j738129
57789b858405J05172l23757j380220K08558a789125K27660o5546N42705A494674
57779B331393j165222a860523j380196P77806J007825A389458J719934l02330
57771B807062j061101e62785j914468j278780m8135a459484l17354p20329i81174
57761c1995H41191O41966C34235J177642k7023n66181C43514M20073K276220K110377
57751E150184N55043j187017j314599A176408f28879N2076B47722J261383n57428
57742I51677L37249R75876R90268k47959G72328c83348I4761J001779M36376B62576
57731a415072L04130F87664J476530K76953F42423c21473H33793a016545j02557
57722a119102H43207c38809l156269Q13977N28191j295460J186923C62082O4194
57713D26276f41734j562006j642597m68088J7587L84502b35520A651867D83888
57703E62069J638454L32205F80602K10789j6946N0588C7969b320203o39172J226235
57693a733140L60718o05775C52018L577856r97587A102760D75563f8228A444807
57683A769258F52774K472681J80036P80152J503636n03064A102856C48870M29775
57674G78645h65884m05096E0530J801340m72589L61205K045656M64526A583118
57664D8056a234380j385573P34582P43635j78405M66688A320854J726486Q80021
57655C927361j949101P92046j10724H01183J140815K718387j067138R48261J020838
57646E562346j690431I16576o0468J886068J256334l56006o513o58674m7639C80335
57635c69525B725295q98625C50056e2046B12984L878018K147162j883578H68775
57625A597539L25889C00726N53697A87656a860943m80634O95289f51161l96063
57616a047224c74887A144541c129867j136300M55857J095097a171737n01075n44420
57607b217232p4905i12408A141674L64515J280878L14708p68192q51351D88813
57597b141876j198217p55209R11425k50367a345669G4258A8758K679942J109717
57588C808417A804293c60174r81460M50934c26759p62291j765723h29247I7817
57578h0417D46638d25150b08219j025208p01668b59801O3541k63122m40980j046300
57568a946662o92828J034416F20649J291768l8477J472391O82418j876101G28825
57558a10621l18863k011314j307239N5368a250579A844660Q35277g37283j257991
57549a995274O44593p18132j131030J90421G47701Q1328J34228P04574l50028
57540A317803p7827a585889K6487B71832i84815l99684A154857J161652A52356
57530F48697E3491b605050j091347J701436P43263I78436m52183b368133r16411
57521c284544J637765j87540O83178n12711j771623l52190g01242H08208A91010
57511A202046M27511K15491K33409k42675B09080A2403J15917h76693B482002
57501B993416B04634J503410F29745b112174j900496O88799i0907A128610G3524
57491a083441j023800l92687j46483a176184e63416B68861O78526a037450k122461
57482c159911j445791j721423Q41707Q40072n67127J826888A49048K621747J024178
57473C794973n10541A096144C94859N1398L54665A33897c363050J80668a521382
57463e29879r92512o74021f89585a30999G58853J835340M385j78733A154873C86023
57452A151245J72414B64217f30781b98577n8282A269156N20835l65647R20961
57443B345305k47849r87520d65689J00036a33291A621554r2527j75490J933516
57434C287053r11281j055619l5629m33216d27454A032684L888041j46348B278526
57424I86195c012941j381708j274134J545364d79895q51890o3348a25078k47177
57415c72255J79525B051055Q62599M95371o3974I47878a628064K36217J52345
57406a239502L19710A00839e92194r56671j479022j964312a882648R16611c09247
57396B532151J056699j170153j118941L8244Q81571p52767A40604a190280j760558
57387b950838l11491K76243a179818E09794K932571O49113j328521F3084b818398
57377d385546J468347P67899c07577C199999L71493i2484k062584j237407k164133
57368e556608b444414G26637A18971i930j463412g2991A668119J155076K8156
57359B851351j422309E85909a382060O3007M32396j295085l26324K47184g36950
57349A446117M10200i96395j271396i72321B351202J325887e28207K05548A21094
57339D79423M98795k68007M47682P18139q10919a478018j123552c52428G21448
57329G01681j8427b3693o50125K95719m2440N7780c3366o1405E1357J681033B050
57317i93914j55059c91249a30620k83071j752312n91444d57917A445806a628558
57307b043201M64518N5166l23439b82214D929459l94258A007813N70159K073473
57298C651445q47004C75581r5128J45156J228975p35673f3167j440761j4102O06446
57288i11584j483501K17155L84573Q12181f6173B260135K323193K241368O71927
57279G496623k040186j792266q31053a98470p52755A024320J219155G80947a811728
57269a071139j66510b14106j169578j353775k36332J40636j965538P61968q84746
57260d921471l20649K11093J063044N09263N70931j94945r61440j502699o81565
57251f228438J386907a960286l78513k360693l29028K459052a062494k18141O8870
57242a211765K27083k29361F24031K310598H63587a924396j2974K97047k065599
57233c705922k922858o19294L001282M5401k362629p39043K994184a368334p66717
57224b135051M6937m43085Q35268c13628D14120A46288J138537j98184e85214
57214a549837N70500B709248p71491a204976m33324l24962l12190m11785m6645
57205b733882q05467k19273a833593E47409c85587J24189A415668M24878k11247
57196A629299J69285A88889c433831N98165f10679r21398j137434M57578L72939
57187a838994k80269L8418R05724C585496J516520j533514k46439J017272L04155
57178D643490R64452j024835q8613l92088A475264g2593k421543j129297M22990
57169c200443P66817a007035E72305L6551a014758j212651O92422O44109b75289
57159A74952g51332j106761j120715j631350J747248f81985p12047k194020o818
57150c594870L85045J8914f61220B559573m27727q32174M306768L047067l057681
57141E595826G40383P69057K785775K50888j549434L06781Q84558r11792o57360
57132B618856o79170a322204l67574m21999d92018A709045l04436a005324j174493
57123b179817P51991c89525B209573A067778b47843C18905e34479p61020m3026
57114a338525N75415B81201O47368C26440J963366p1868J6125K09860k21125F48759
57103b82825A84036J712046p5881G66893J078808r11060h23948k95157j420763
57094b539868O644b40498l70391C46826R74296C44579a77575j069200l87706G59770
57083B263878m14456b73301C14454a848997j386434J469781N75658A081902B16208
57073e3191B522060m34508D68799L170896p1838a162354l180458J565619J002211
57064a774982p35179o17703N53562J012731o13020l05804i04208n4685o12709
57055a571602n06037j658709k0593a530910A036689G4610a528362P62182b44558
57045e51598E31037f27633j566267j04860j212176j3478n51353N12619R86488
57036b576660A55262J357881k25139i46312j128188k53767n10872O01898E94894
57026E057755K61290A758185m35793O48721O76863j281044a913374k275246J620792
57017b567828r0218j455079K21325J583725J047729j791435p7417K22881p81886
57008c688203n0544R29329J94114i43515J18451J77423k581625k086951R54007
56999d362210a983170a72147j144778j370794J69588J75296p07888l19801k76132
56990c646656j080534a872137b34903C94687O07354e19151q68350l251658r5231
56981d734390b024602h93864H44301N75976h35950k9490k481927M25081e26037
56971A59562P65647l68355g26085k46134d72070I20274a652921j039862J71401
56962b521382N09934E16322f26420P49F73677i2109p62212L89330C68545J435332
56952A803877M65009o8265A96598b604216o30168J259155A853745J455025C84879
56942e91508D35823e38065j259413l0958c5854B360609J220071j195088F47359
56932E17018a53866F27124N58986e44538n93114L08060J14181A016419Q18123
56923A834542C59995G953J215044M47586E5893d97084j922312J163964A283362
56913A767137j78598J621859L313329J407294k054595B421130f5996r4463A550490
56903B3266a785626N63591L94301k62326A557354o72132J449059r99420A18944
56893A622124P60530k05033L01260n74622E68838k04201A33058h02251n25491
56884a327742H9360a80175j420998O77739C76782J402067J011641J094464O60490
56875D545444A306279C38314J685721E56295a106243j309676j730275J3791a203024
56865a9387j94751H2563Q20714J761930k96455a687131j351848J455886O34429
56856i48664J67824j67608j187031n87523O67382l12444Q79758f58208n55480
56847a213688r0252C79627A41358a265096A15628O3654O52848J199718M58283
56838B490131J052651j421509C20455e42415B17518c41632j94579I57306N38349
56829A495655J477887J262701o06017A105168c175997L64387A310974J295954
56821B606928O69884J932894j803052D78830g44354j141464r67116J073050D36715
56811A124444A31394R60704P61951J965500o43747r35542J171652n5050j72998
56802C183864m50519r26509D80661J115748G68713b042377l56613J02075j46852
56793b443767A875347R64978f40297K1036B80488g19574o0120j144380Q63107
56784a060967A788205J480887l82765R0410n76039n80989F01233a817202k803917
56775d621119q89966J547944O06584k205318J666038g60552j051177o75967P78944
56766a708752P41876p01382j638493a582049j92844j526003j216764j025577J422666
56757d120571a860209I66720J572247e94384p24059I87715J731116C41485a381590
56747a418235F90938k63576d97354B86485K01243a638932j13163L25892r78305
56738b404508l5855A84221J558009P29632N3294k78584L50286M67953k51914l64191
56728B448706E28261b861724j367452J162029a190112d38944j664736n13590h96372
56718f41463j103892m70618l07945B84925J579254j40930H26331D2132h4932o89703
56708g74635k007742f1251C42734d7841B010215J664827n81292A391542D28902
56698b16557G23023J525717K47318A192373B72809J002128g2125j463476K6251
56689a509350k065327k249819Q71918O41514c95465A715708o81863M50501J12493
56680A596839a78989h0018j488512j232354J9840a347483h162F34154N18676M94777
56670A647607J681024R08479m95454j054229l44818n49078B17133d62784j171556
56661a634340K66779K14581d56896m78288m53208j017610O8005n85185n23540
56652c446722d38925B735180k80727A098564K60731J48207b83608m3146k77939
56643f04693k33988J50298j33890A864924l11272b248551r03158J483829d93916
56633a2869j14595H18534J577270J397328A337143c614658R14062b27721A422101
56623B180726N8088A06396b93289A607946N33355F88750k60646a066288q89922
56614a956210K12053G3488M51126f15263j515705p29133J125844P24723b0479
56604B01355i5082C47891a608878e39447B246311J68169J318482p53993P72278
56595C751247J486777j204125j464770A036073b7397A45690J240752N83657m93870
56586A476229d17546o70340r04802i09310A547805Q67179k98875q92786e7823
56576A4554d54423j041810k256718M39041g14941o64170p04887K88783j614411
56567c409626O68634i58521A009486D29856f63253A16282J10922a054867I2661
56557d28668j057817C22238K580581L58816K50644n10460o68538n34055L41923
56548B141149J011416r16212A05948a065592a9493j09604j020886L09051K6014
56539h14918n24708j012688O3442J043524l32157j340424j207574J763296B33540
56529C113838p19244L06643K38790A079800a467187l8505M71907e5893j84016
56520b39909n65979j22728J60041k071862j482761Q09632J695363H00067J257644
56511B057711o67752n85769a764855r12C50713A28860a234432l23895o80113J116521
56501a121919E21754a247040j096474m52352o10885k060544K462535M31493k51620
56492b824887h88818j91729j073017P01344A160108m88460J356664r12111c41852
56482b70333j738673J85617F14072J803541H33526J275641P36893j228320o20375
56473I97365d263004j367493a394349G46746C18739c9869j714716n11127J09292
56464b156420o6864n66943R39188j68453N81357e27058E87276K317383J97390
56455C102049A196553a193138k441234O20028a287652G11816J043355E90583Q06993
56446A397576J50044p36363a341803f51462A684746L29138B18350a029164K1493
56437a007671a69261j092972d65749A689601R34812r13826i8488m94941l5074
56428f28503k68326j977576n1081J95615e80863A876521k9899r04404D35382a174703
56417b739509R97599Q45877A177298N19443G39686k6045g86583a84512G56713
56407B105834D38429h97000C71633O27016J87096K44881q3946d6635j362393c63197
56396A101389O36601b16674j169389B21591a242298j464709J41149d93994K5346
56387d68648r85836q89598L98551d03616A43331Q61858B06666g27855C6073A235
56376a057035k841908J360572G33284K789659l62506q02237A027769R07433J469589
56367C404791A432317m903k73375M03483K976200k5828o02310j246998j178691
56358A479895J072319R54613N05795L05626j446793A112199O97338N27850C75692
56348H07673R36632D14419h49238m17955m17951l24036K17430e56525k106161
56339b662686p94214J565651O463P76586D82116J734816j084268l73880M29527
56330A188311K174708L75314r4016k37301k39734A103991f97601j905407N18754
56321b084254b20430A09748a613665f68447A46089a136179j012805j0457Q52151
56312a307290A257977L100399J031661B584036B77651a696719g04810E96855N45129
56303A141984a84039H71803d33110l294049J248517R05047A318230Q51405J9150
56294B188785r95456D6662Q87968A03552K53580Q80076K223286J284755N93595
56285E338844r37712p81316n12810N15580j80652j064771A5736i08289A595842
56275A645860J838480J053368j501144j030306D13168a837778j721665J109862
56267b449581Q9345j58942a063071G1503g40393D54012J354814n33125h96581
56257c721746K26680C74191J895838p08601c86155o87818j216873n52888Q98693
56248a945041c11484n34696l263737j12921o75383a580578B149636J400222A082637
56238a518796J92480B27546J719411J78399F83094c95714j161502j511626l49219
56229c418061J333152N55213d73142A488883Q85889M47327M79634j372224f69778
56219b897525J021297D50397K037123A206336A73923R58413b31953j781206j346308
56210c359467j6982Q78011J226793B2851Q91370P03340k62007R74575K357746
56201D687875j060578A225544a012682k077611P35795g72433b18162B65534M16288
56192F81822K2710A18865a300818j564772p62258k068806j028468a390885D88341
56182b418708j326131h83823k76424j413440N3711L60550q49790J204488d72243
56172A030092J15404J339369G73192b774472r2973a295596j27973m49221l00928
56163b173718p42947Q77949j726440J093336A294891P16594R59322K19340m2055
56154C148092m47610E09589c992643l249208L443948a153302D13151L226849J79689
56145C819689H37686B20738J112931K45086F53204P59937B62322O90997L243845
56136D197164j065567a590479m881353P89363K462823j268520p89957O46180K209709
56127b422234J084001k013620q71678J663208o0168f48064A746860J37677c51744
56117a287476L56266j45915D40202L482996j852759b99785F10815a319A210510
56107B366256N75034A395500F89869A93371f20590j203968r82293L8994e43511
56097F2693J059911N39708J174739j270948a051303D71761K90409J381849L764495
56088E908514B390358C93779J254911M007m21254A67191b470970l410339j969
56079e883278J646714a846723h26762H65870L10086b08364E93734j81890b978234
56069b164638c67583j260261o63156n21706k258364R05272R10135f41834C44447
56059b283773k216467j03444K292862M50296p21733m02888m39187O51466o43478
56050c416346a272576F40451L95446m87462B00888a34877c8545r63629o77703
56041a679877e93168m51340g4792n80162j859042k003683Q70068J607808A64579
56031d16592j664B55351a025513j623580a151331n13950k589636J678305a43325
56021e68715j430559J45324A059182P73426L03661P10385j041630j3807M37222
56012B228439l282G4951M05803P02738n25467k58002L77066a82331k42067r054
56002d33452q54039o00173q49893Q6590M43870a018563D1187M14765J147726J270404
55992B874082M49762R66621j333604f05296j253942r41061R10548g36166n75497
55983a311663p33901k454781j176049J691919a643257f57233J52671C64036M81355
55974H45391l82060b97451q63189j336817O09021j525387a483594G02906J264420
55965A967326k54453J01089p35691j1181J609385P08532J256141J127125O0063
55956E828336k814758a825325J36215c35004B653477J155691j291720a028027
55947a870108o52994L92057C87709R86805B36221j00421M29272a371296p15450
55938b086746k5728j234831n39861a222324C70881J426465m64672N73084Q23317
55929B729075J143482J356161j447987A087541k81297J189859C1171b622011b3650
55919B872465j428917n70652K859959j691366n49383F08117P17535b4265j997308
55910b021573J40993d25374b7051n74573m82238r0050M401a75850j820700g41907
55899F45673a494243H5783K888227k59570b87589j800719l20473j56739o62648
55890c228168k686550O71009a723582A011179L21756k05773E58462i69024j799808
55881b768832a360749D9323J391326J925854K157107J758458o31848j359792A969415
55871f90749j447965A15983L43759J38408J921426f13763k835595K60105a479659
55861a186889n59535K91857d78970D81115b90104j62085m41904b44084j562402
55852a806486j425540c96190n36093j390861O67312A39561b33379r58666j424615
55843b616660J143846A790020J879882L57776j823586a455103j866688O91889
55835b629902L35121j375632k744547K17139K020784K59249J072187j343368K87428
55826c901541J625398M10375M25365A4367J306088N37449k18840d1152C5014K024952
55816B059966P05765p31678D55112P97633J696198A061828l38136K279023Q63722
55807C866437j5574A078775b555230k55459f7542A782721K55660m84952F63531
55797D10108J65303J300314p01000E67505K5689M73650c12896j486412h06884
55787A03465Q5645M15880J024729a329202C19019g63482n14572a58787A65290
55777B38028a775224j344237j068180p2993m21203M65265J591820k132202l87846
55768e144800b216476N21028k36145r71536m97386j644616m92629J257766K5817
55759d254177O75951a780418O22552o31487P11892K99962A895684j60860c72443
55749f38769I07058N60054N43098F86681a641622n95143M99085G1124a502499
55739c557801j2722I2226M081834J638796j350158P61640j129138j369978A035136
55729H07159J627797K8410a790545k341547l81526J577483J406472A885613N91296
55720B476909A164512i9404k742638K2217M17201r2569d43301G89790M39359J783750
55710C012899j63823H13561m1182e31754n3923k468301j097882J006876L13510
55701b831474f10202B314780A099972l37399J286904R61072K97825j632590K634045
55692D309829j053143A428892j14268B92544L26890J479620K097236M44090o47976
55683C992404L20753O71984j135551m36179F09174i47368r60320O21537e4545
55673A463456J143674O90408j342991a597462k310213J691072A31977K62799b14507
55663D34788R61716A60587a027634j339905l37743a125444G45303k79234h47567
55653a237013F31959J523447P10608K06528A492189B55418a619619j922140o69265
55644d211024q46015a173727B306789N76461l98152A241407J29674n82813N57625
55635A345893b25040j920736M57823e69270A633337G55291a987152h79589D31819
55625a036952n4966C28813J266992b531814j912566K057694Q04645g5135B725487
55615E231306J138682J523552j660769l052096e62298G53089J369287j055391
55607A066985J040681J5188P46865A373881o86802O498J357764N59959r81698
55598A629602l1354J29243A60194a780084l39150p77741j475252k40320a595082
55588A017023j74464Q45895N67071r27022k99594J689986K80142j200580i75363
55578a172719L00442D99080J73410B496L162387L17152J39590l5800j727736g29518
55567h72392F37848J613779O8424a48521k778786j238982R22205e9390B402464
55557c58944P6874D34141j72780a875600O5131Q76713m54700e05067B240555J340439
55547C580994F97125h06890l327032J327865c42375B65452f72126j224487m65589
55538b362202m78250k29929J37099n440J401346O37247k61846o92057n3611p54347
55528b661990k70892j024532p45555L13988b037194G84231K008952R8365l89102
55519B502446b23149j124807f73447j575112q56824a246898c04462H87950j19271
55510G68679e45268E40600f99280I01517J943749B06091c58774o28875k461897
55501c449546O68403h77961b06713A26291p893g17067j77559n52685A52825J206975
55491A359800B00044J870507O87497e42330k257664a344267A171568L5081l07617
55482H99032C80841J506676k41062h6105j920269l2823i38093D16960J667873
55473B084833q71574n84635P90350J78790a66511j38332A751409m58091J26280
55464A419598B1731a769896O77229N11943B320965l35086k75376l57774f10719
55454a016579b64461j502j326752j953002q68075J744707a070583m74163L84060
55445a160686Q8995J32792B93007J160748E39487a453368L95263F95792e5925
55435b098123K33714F22434j32773J1377L27685J35836d62316l40575E31953Q83191
55425A415144n96459C53078K047687O17386p37096P25045j218653n17269Q68495
55416B138673c081C83797J334933c92643j030195A340213o50527c643215k125310
55407e768525K766205A22973R2266e36889q79867j037424j681195L41155Q00271
55398b993949M35773N74723K96975b11725H35313C4288a647965M37493M55202
55389g55270l57686j009231A491468J788967K01473J349525j511025a418402j219835
55380b638237a77398C401040K240536j15393j616830o12067A433457A54657J03937
55371B58594a651324m65398i28852K8210p47151j545538K96940J251725h07397
55361a053440B71528R52482I3931d48080j114013q25229N64429N42807j807964
55352c088050j32710R47925P88207F31835J361483A05392b859480o40278J61715
55343c338043j170206j044661b368929j34327j071426K41490P84822d55040A303660
55333A502084J71661J154006J460654j556419l61906R84164j299486a95447m66373
55324f61820C55327L777235M01267A151392J9644d46400j939279m061J22439K20800
55314b046501i21797L51019b74959A454132M79298a817799b6302C597146j014476
55305B582670j220239c33530C59720N80833K9148N82445E31812A10625c79124
55295b69519A353436f2823n342l27651I04387J529045P40073p32985j157895M7367
55285A329992K016546R72480j133038A425760J480701j80629H5319b59697F79901
55275B851634N75893A025222h38228k174652p28713J349085j007908M69333J003890
55266a927193Q24151b81594C895680J866725J279437j038136B943124A218118
55257B103899p34995M22983m72014K068968Q97094j575363a026482j06407c30761
55247a576265j08157L05948q49193K43425f12349H50160b02543j886366j395162
55238c484071L63628N85243A064776N142663J563434k199186A470282b18130i0171
55228D83168J274332J119713K386543M78551K61275k31546B715908G87102J139392
55219A926494n76791a499108l015640J000155d49222a09240A332555J754457A066966
55209g25554A02052a39966j090440a34650A631153M59062p72709E11936a31602
55199A468440J37960K78336q81062N56748R37258r11444F56942i76457k240246
55190c216703P49441a089268M95327A2292c88419a41329o54883l79688G98592
55180B423983m64204G36136b21087j496496q2892E5622M45514i39596r87583Q82831
55170a044348b38142d8959p63542E04559p9238C5625J387560F09433c474885l83230
55160c858115a446880A20512g56021H90982J167226I79554h25765m88470l56907
55151a671142q44967p78612P79730j071310L73921k62671P03833h99727A092432
55141A466417A35726a271975I87494r0369j92644P74474c6785k74519A048474
55131B803234j317373J690636n2443I98834e71985k94734j423749j587189p9088
55122c956745M08206e06605n26737j499105C26694J516010J21970D18244J000088
55113A418332j61370b77546A408675N0953k10826D26129h1142j093455i3242q37053
55103i30295j905732Q3896j611909K99165a79414B207374J382805l11323J17148
55094C396004R24841j720452J126815k96582n04458m66301k73982J274622n05259
55085B955248j471750P67596q51477E25588g04793O2302j581021k008163J404039
55076b827636f58866r57390k217556J327151N77161j913231k067309J192139b004867
55066A638236J366562A69539b058502p2330l91033J130323B348N45318d92787
55056D74902J442679F89434o7705b54556A283069P63864E49005i74944j049545
55047b024489j09567N8638a020604K25441A44709P41647J335691P35567j180912
55038A776702B99984i92761j879076J28065M96046R17334F58755L03326i53825
55028c779977M08132E62071L828752j254737E68262b261320a100852A588995P16086
55019B305081m2610j46431E22665a055394j621596Q40420B090025J377452K78543
55010C746020K616892K34355j265983k175644l73274c23949R2515l44870q30555
55001a406859A470155J974840L180014k43242k858888j658497R33426l7063o19220
54992B141525I78036e3643B553315K320145J438080r28698j591502j212657r02805
54983A675878F98072K712148K508535R5599J657026N47138j597686k540288A261777
54973c66420p8879A203470J311649F45330a76956B324800k49383B66377J830447
54964B096824J95822a6295j120579E95033m7008e42605a0575A499068E90376e07647
54953h00601I02557Q53529E19452L193769K908879p0836B888937h8067a6140A798454
54942A280264e61374q09419r39540N29952G90698J416601r77121c51103O0878
54933b90225j184559k639187b004186f25846r90211A279508K667666A88313b18722
54923A399101l60441a213309h6215A93517K63170j58960J108479K37253k94482
54914A348977J323188r05988l62012F63392j82055d70783F67508R61820D92076
54904c41078I17936M89816C65979a895072j610630a721652a1790j934328n39331
54895b485449h68151a08530k047663j220481M88799k09024j522589j123562K351162
54886c391888a354601j231769a57001I08597k60964L75513J24138d99538l08294
54877h07832J63028E87940J027531J153673j23631A243341b175722r90885P1391
54868c095216J106223c33617H6604R70716N40947E92528a119358k13784O46316
54859f86826A294671K57373G02026P57347j61745F40311k04174J90117K766374
54850C392628N92121j303726j225653E92841O8620g10357j172802M93145L75091
54841a014923o74022P14526k82219E72371N97403B28715b82109A79085f34375
54831a771802O56840e5462I99721f37629l42493A051364J844590j038093P916
54822A865777R05203J06491r03736a47137c6579j113680l34318q89293k957876
54813e331746m74771K265719J254679d15213B119785J857979r47481j317587Q05530
54804B518226n79652m95363n83254i9955R064j054303m26116n54479L86049I13771
54793B200539o04767a248757e12553A458099n87377e65345r09813e66463C89058
54783d64772A020175J209225l71647j8606E02607b36897k48463E58869J131470
54774A690339l32753b43542B96533b64147j894597f53874C28342J069973J201560
54765B599875q15219a51973G77683J56487a393174e14065j127230k137444o01895
54756d380634j21283J612611n62924e8870I68016Q42506P21174A205163Q2843
54747A288006L4330A20960d49729j476142j380574K73964P44830M94870K62614
54738a530167d0787n03876R909A297536P93982A7458a917928j50311A641316Q74068
54728B515384n67175L19420o54457n27784E4454J45220R0896a853654j081210
54719b934864g6520j012668n05121c77495J57744A355546J90773P75982P3598
54710B395899H19423P46198N46021J53758j033562n6131J310264A205699b924748
54700c740708M36774j376655j034494J000732j077097O07058J158483a522872
54691d47260k073826j715748J259537B87543F8611J34377J509016J330022L4307
54682C076333j430887E04308a923704j790559R63838a343828A623811c01486m026962
54673d328448J72698J327420l62732P98144h00162b8337A866597J159332m5749
54664B980180A073308c08984n30957k29961j27197j591389j315435k014807m45360
54655f564090K416680J495960m663O54324E0381J107944n27282l02699a176810
54645c243523k90418k9085L9112J499053F06318d58188q1379D76474J755157O05583
54635B837214j090677N46005G17344P8808a0051l48355A313905p7169a567112
54625d078851q36071k39196J053898K046731O37860l88582c74264A885581q91753
54616I93828L56771Q14548p62225r713J470699q62693p28718N17952p81179m62975
54606E46295K37975K054483G81044f36731p16324L93926l83518j299401j369292
54597d011340q06769K328501n14351k502215b503033l48742p79886k66286J474448
54588b423499e56158j004894L71577k587905n87738h61456B228494J700892P06056
54579D635442A870855k83809M92680F75529a180477k493013k635J206268N89913
54570a879944A32792J078716R89008I49479a656385O45823H57450M36374C67364
54560A031347D37862a349894k139106j206905N87202g58131A577423F14015h42054
54550C54056P84719Q84443O49315P82299j093993A177915G8804Q1341L93967N0271
54540F04383N26782a078894l169523O31537K29009R16867j79187o50864j060437
54531d361492M68427K57730a111896A737885R67595B48472a183759E6191O91676
54522G47867b70932l324183p17372a742552A455214Q73877J849075m37134j167628
54513B573404I64899B69530M740g93233l25173K68822r8392A878381J647503A067900
54502b27347A162504K424973J181364B082916b33279l68750H65302J318484H16690
54492G73406A23306M68023K00708K8563J240277L6999I44476g68266K52149B0780
54481E18771J97505J186829G86669b003130O85377D41890g27537j6817G1822h12426
54470c89249k69615L24884A443876h00353c78096E02471N48527M07881c6450j871717
54460a908167K16883f44691B189224K43734j5780J89824L230542J375373j560535
54451E652382j651230j23480A092962e13825E85767a340207n14662A042347J878669
54442B921016j302509D71644f83500j608908J92313f03200j533648j36742c3778
54432a100871j65543N81982p82551j156152m01309a334219B634108J440444j997444
54423B077108R02875O21463l13741Q6095j258726a411925j572391k910369K73667
54414e621018K347463g63045j28795j206118k36388q91784j346570Q29190Q39957
54405b903553O65366l81094K66946a132319I539J999456l77944E57689f54418
54395b515717m143223J047946K253289a491162e31516m98163j168747B22278O09745
54386H32023l26598A06433a183416l07449k84949j474324J119162g52573j146714
54377a899287L80098Q0404h1983A873685P58430R32301j023650l66693O87572
54368B861645p06340O36736p67793D67101a626337o48620j078484a610387B4765
54358A365433K719580N81974I96572a262282d59591n1912j376087J86965d49867
54348C98759J621521P21190A067145m54580q789Q44105J73791B38624M16414M08220
54338A063258a037898p34503r1252j351105q73903Q43597J372766L0701g91674
54328F11895N42501N09222F10695F6727Q5847K603776L537570j417814A777384
54318A774400O44989J712D3486c536046O50176H28455L41095C05676P2082a5526
54307a068794o6309G4820K596201J131129j032230M15921a214005j748251h4256
54297I56896D53649L83373p237C58867f45697k55059B66488e50002n2391B485744
54286B959272A030833a65014I27606R83587a90065k891590j081587M4059J537255
54277b581928o3550a015333J33519o76821g08139D5735f21722j925176Q98704
54268a648194M87107N73945o36096J93062C58812M38678l10624a945004G01793
54258A522807l45075f65164m00249j539785m61491b98621D31878n2901J242213
54249A621190Q5268Q72658b72399l94540A223173M17339M51453o78409k59234
54240A154322a50728j021824J15912J67341r76940n40553m19856J04357A626770
54230A851436p81068m29032O80358a13261A04637K027999m47477E26276a900150
54220a340454B21661J340254Q76989J46469o15273F54980a129852n97304j987238
54211c714394q49315b165866O72833j812212k022415R03038J241583a057482m90219
54202a547701d72582J95464n40591e4140j794599k051782O33601J001832K16729
54193b048359A72238a019824J44932k208992j448402K248154B32488K21481J480398
54184A934367J259922I87834k73257a56871j247288O49853J1376C82874J515213
54175A898087L0273j74689A31692c13470k24130K40817J23349j736484Q04230
54166a105688a42209I82020i89619l24378I29722k89821b2949l482926j342246
54157d848121J610132l43316a301939A457142P0087J551805A039452a67972B168167
54147A661004p70990b383568j679459K12193a87441B733130J935380o06372A532513
54137A668553J44261k53903M25016f20815j986707J16329i91555n87617r07059
54128b486231h72271b45143A3028a083747k023290P44876C39364c88571n01121
54119h89692K35547a74788j322660j626407j259233N70424Q46183J343430D55779
54109F86810b51980p81627k006508L77559L02390i44620d44297R7543H61926m2439
54099H19487J426127Q44036J88660J946231J815614j291121B224791j0845M34206
54090B648152J250409p54225p12978A122715R41476K588724L12477B008515a037920
54080f69772a90648k67195o36011c73727j848448o31294A242602J041331b48055
54070H87625J376521L90388H68444a44877G89343g37511A153881J201558I39308
54060E2339a02595q91334J48992m80047I218R02675m36087A55908K230438n35319
54050A851027l59865e65294k543225a530750c6074p89617K02327B253016K062128
54041D315144l14545A999640G8860P50080J951574o10345O5741J251845r02850
54032B584905p7929J534419J819342p65980B049156l09513o35666B17544i53144
54022e06503B140782J080251k7372Q31070q05399A519882K544210J48543a080833
54012e113427j263532J954575j10626j179241J19022J287109J187684J402965
54004a715471A647308N61908A061380b17788n50595j79474A796476o98160l07873
53995G90443K301187J093116j581538A080916k16773M70428K566365R48029q41713
53986D007252j451737F77768a097484A87370K566850J31395a02511D29198L167120
53977C596318m30898A035105m03650J047017m79153a18449A023489K373209o47539
53968B749159A1546a157291j64609m42448l80142L58071d87366j28979H39601
53958D0972c069576L78093d27712E31893i76764k135624q32299J137676g48077
53948d92045B097745J047019P44589J316707j176219m0693j976142L81242J434726
53939C828974N37029j863678F35723L61972a42832F03173Q55787J295207K340388
53930E094555P37129j244640o48874n04800j007796j029949m79149R52258l92991
53921A475743G29456l11166a302250a74149A905012n53700a4903j573043j396470
53912b984416K30184K37450B655028M383343o68546k337988L15378J714128k047486
53903D013857A291778f02899j348277i28788j263126k226493J074872a067441
53894a714424j29246e87845P0180q52037j755141N62962l89074a115142A388673
53884E84892P19486n92975j6060J630808M48153F70897c05155p00112j201447
53875b206714j034527M37278M55793q7429m8359f32607G71980L38197a689710
53865b379407a055523G50545J217086f04253F96402K456141p22679H9120a125227
53855a515144J14654k955694r73488K385565J307612k97746i57395A552993a240523
53845a151530A586735Q59702K454897j170960A582747n53871N18970J814905A520993
53835a63782e3878A782621L011308M14392j877894j516625b024882l36763d51157
53825b434790L84260j076823Q80640d56128A197807J189947P46865p52722b55987
53815A008773L021547J979052r5002j04909M01423N65183q86798q43859j073379
53806C972031A502994a280137j9848L24546j045831k110405J151238J89085k43398
53797c034750k1251L6723j97631l65383J592519E63818g80800k878400p57500
53788d416700a420037A136109a18140r93421J81878k17775j486654g82272B637850
53778D794476j814317b51775J9326I78425a661359j135367J200214j236158L09716
53769b522954g31836J83789O5508C4821a604287q90262g61960j486614j495128
53760c743702a110389B283045k27918J5880E99107B50446J537209J010886A90195
53750b367079K05250l61135N45173n09161l63381J016893a93356H26940h12978
53740a433084H11735k55955a140436a89764A64532a121654q42345n46617a096514
53730G98661L557408K304539m89071j070444B503228A195082P49830J516640J824727
53721E286279A018257a778421C43522O74993M11320B27555a522139a98499j274246
53712a472745O74476A820608L9789J524738J657616j296218q55383j52651r20108
53703A818391C71132J30695K014180k66998o73341m25944J202924J405467o84137
53694C073978B62445b765509k52179J485479F30878A76777d42469j742716J87480
53685a997705P66872G90360J636502O82648j430599n72446Q68488J400115j184764
53676B190304o62612h59609j364124O98407J01619q46021n33353O43923A58100
53666B603643l47671k40101J603152P38209q40856j68972j621205C02755a87632
53656A601385l10315b118228l74622D0241J217178C28570R16363L90007b81161
53646H00509J159565h45338j996032M19965M05137L0286k247548P64312a509497
53636a940283g14222C84845b39278A272151a55216j604735f19084o81770d37318
53626a9527k079510k297527a967615c60253k188341r63050J482816C69266K34642
53617F03908A10050a67701j184897d55176j010866j187548r41033a687922A76878
53607I06379j19702a117240j954415J67129a283658l72320H15629M37753a571562
53597b763175k69300J85682j609737l17531M98625Q44806p45127P60610a255300
53587c46490k44172E80053J33326j6056j37569e897G1768c58798L6716j51800
53577d73882G01493b64585G62232J988938F90054b267344h21107J09588l62395
53568a073914A5172Q40343b51203D94523J364627J316962N33317j414282B89228
53558a47856G15610Q46067n91620D66328J34130k87554J057217K95039m66641
53549A198519N99612J71869B55603a509753n42411j316238L76993Q39496j132317
53540c284230a178663A149555k04848A14873J731880m61282d02927k629204j1005
53531c043136a400989r2484N04231M73554j549027e46806C222854L13587N90826
53522D127267j835678G58098k05316J06703b93181C23394c60302K4103A478997
53512B514618k58881R65968q04637N65651K98930l74174j051767P98249J094389
53503C748346r91532M56085C64367a296905k036905R94009E082b04328r46287
53494a150615k797091k39274R60662a099417k67255b50482k88877j003701j73140
53485a716200j840173j441333L86940j007035Q51087R55970J236884d76212P2948
53476d03264J81401C69099j3886i08332J69243J34978D09951K10512l04404b92256
53465b891089q48434J218147A63799K600343J432703j882184a870296q69949L15794
53456b424451a043842c91815j3173H48380a764824j657720C08034P58342a404160
53446b840933J092127I02803J846162r95856q564l80248o31830A76798K665532
53437B842330J964399l74174j67670j451417p92630J657185J069110k43673j821721
53428B681739B0073a538378l86507R12212c83001A931132R58686F36239b000575
53418h23961j739385m01560o87660j268427a199307K38186k964441j058494O76675
53409d307381J926845c79562p48271k059121j315051J690688J254061l68649P8463
53400a847442d06517h3377j243677k02172F84008J552711D48296j22325e54550
53390a674475O8045k02978o59351a48191C50953g52469l10643j511326j186706
53381c761144g16921B741811k50219K296045J728617O64009j038366k234631A906988
53371B344440j100168A59783G7559i08382p66068O10627A975451n20922i32046
53361a528172g14919D49967a440432K51071H7075K045537J419360J29608L82582
53352D064162A241576K91133J510202j169960C27261e12439b7701j670745L82726
53343a315720m70034j230801J93558K96642o88967j78412a102246b45740j313174
53334a558914m601258J79268b710390Q64504A772406J365980e36806k136614P28025
53325a945395d52347E46783O9116k20376q2723a134893b14702B733163K562993
53316E296156r64483A375174N14855J03470a52884n36887o80711c53194A712547
53306A142413h36560k684094M07781D74760J253958P40205j044039m84696K19959
53297A160147g83822m225592l181483J328976K777618J821682K11638f50936C28198
53287A212004D45000N90050N34546b94643j328673j596456O01550J249217B54460
53277A538902l9543K30769J014813D81534d18896J01619k8103j395669r5866k46291
53267b083206e75740C10272j22410Q48195M38619J051117A227981c54175B096238
53257B914639n56481J461082j519516I28675P26114j07119L84529L248266N51617
53248E732082A329721a356519d36156j326466j091673P94328i22099q58038j476487
53239c256624j388190K000704R99421F43255J220931K65920n93748C64525J37899
53230E02424K35367R4831P69962J007842J444271j237790d07914l111283l456690
53221f975887M53048J745359j06530N92358L37223M60069Q15506J17669n01386
53212c062571a512159A178400D81687B13397M75232i59051k861893n60388j61220
53203d542552J081861a516182f08520r71098N21134m68206j150711j796005m99215
53194d972621J953387P3629j145938J501008C49094J199129N6668d70912j864683
53185b335595j297744q23220O96841a144417C358238L093185j583734A348484
53176e70500p31584j563866a188893G91556J757228o0650I47798a060352k682181
53167c742533m28741q8277J660029A222897o8591E59259M91360b268197l53018
53158b621215J158118j286135j541375k146J064801r39066J646475N89946K55541
53149a675056A145095n04160c53464A373378J82553m8303a199117j526215A46740
53139G38069b154361j868290a173144C584968m2377o51694E59586K24246K518410
53130C302242O69310A765803H42757J879673m72210H05968a075278d52019k892662
53121c344681j699061a403601B866741k71734l61059j83978k84785K46553K431488
53112D443226Q49506n40631q38348j795137h07316l071704J512054M90656k01907
53103b078217a96165A327217E04614a407840e34825A402871K360707p44752j235595
53094A783231l27501B04798F6531i36546j038170g02803j64558j585236o79770
53085c132367q34283j267817N35940a452402E46735d59048K23497r33067l019779
53076d188397O23741g27646B68375e53276A38337j2431K316780J956508B087781
53066C82000N11800J02052c24995p61921j535784a52825k181953J87305j285087
53057c432560p73964J639284d76303A585612c69250l442731o6576a018584A20546
53047F96611B72232L88784d20934l281629k010738O18984b457284O71055p95021
53038b581250K67637f00636A272986J849381J04217j482813H12484H1729J268775
53029A350504C39440O51404P60266P70921l1533j153588R83838R13750N99702
53020C834200n40513l59218K82970j170294e79712j922761P04203j447541n83823
53011c829634P83866b56444G31472e49408K07078k622637o94908P71056J148156
53002a740663G33500g09958j744399o65871j431766J157572a493839f7634B141437
52992B056501G33591a326906d75735A031079P01802k57832K84548N41412a1846
52982a92312A0011M406967q7311j663125F02582B0431Q0146J672640J693112A390461
52971C52064i33195I10246J083377q66023a87830j062801j041767K97076N14200
52962a481122E90379L31355R51011j42251o69196C71760B7174f29168F77435J740481
52952B417916j03555q17680J65091R94823K683123j60595k525926j315485e63881
52942b212743i35671b85387D71388J771616m34598P81971j80088G92555J052234
52933A844789N42366P62023J814570r38506r37942H68510e92606q09927k34849
52924a637382p73716k006458n94532a539973A34862c60779k499736k91009C79647
52914A832226r11387a481473k6100p34639f18566A753158Q58403J666251k49401
52905D028411A410612a218288l011246k412143J729457a317806k74667j846596
52897c439069O58458O8455N77907E57547d05989N8515P7719A873358J3291a288021
52886a256960L71919b62528n97698k064252K93315Q25604N32357A262631J083949
52877B346580J20180o69481o2363q41183c3819q84238m546781m71120b638534
52867c436776K22838a372416G04824R35345J363564j058177k46877O62440K18694
52858B579813j130420a269016a10459k6448A077186J540738P50152j297247p66728
52849A304101k76004k78074K727829r20069E5516a591912d17916F83549f76363
52839d45431A54799J27021O45345a226914o01716O48591N56229k194523m10057
52830c228390N63613j484495k01973l13396K160019d19496n97804j9116A094987
52820A159173d16561p95788j058560L75409L76058m2007j131478N02337o03578
52811b794168a056354D3274a679269P16264d73473j515367j578216a099185D8076
52801F69080P88545K07062K94603r36305O37361J95180P27362N72971Q23957j939635
52791B040181h57811L77378j23440q7988J84962k440357J32967f75526L27255
52782c48271A025277O56879D06066h33969L4663n85749j450504K67756d39801
52772B898399J096516j604992L44041G92979a921242P46983A689076L849932K347056
52763G886064r41867r95591R46106j965080A013251h06392l09760r80525j235770
52754c332447j31891Q37485h2854p29899j192730j327720j00671J21499J608776
52745a703599L23187j865476j77058R7290d77882C157634k62487H73220o5345
52736H07875J278574J479224K595011k17068A727188H21329d60452Q1554l3003
52727d11901J58550D39271j04165o202Q14452i51107l435010k17546K265990D13523
52716D18059a234106j786071j132585j732739N56258K127038J333414g86497q3698
52707h70195j254713c43118q925j150372d94769A495559n41065a01540D84065
52697A456500N27834J42078J028882j334326J07412L42406G31566P59240d11538
52687H12086J561101J70576j264205m71002Q98978P77092A072322B37363J041906
52678A279269P24238M39969N65650k27514j005981q05249k92131M76744J400006
52669B555001J015182q94463G31435c92698k000644j611532N80857J127030j87815
52660b484802m84392R15825h10394E05162J412869J642431P2003j486716O13287
52651B759036J16023I41851M40023j04638h8122j734243r00153O95827P75165
52642a251526k23184k463237J354455f42646j095588k564812M54687J514175K36098
52633b098086J001793l8403n71243n45199k396130m89077J726350i11947B251693
52623E849847P39186C271082I74009O25732J053586J909335j990008F65095J119809
52614A784904n36626J229171l4165K43890k1507k66878R66019Q87962N70319j524195
52604C298894k41427G74886c85999B619495P57192p02767h80959l18309A525523
52594C513579n31935h663k055101m70698J79760J003239F53375P10825a80427
52584e10225l23460A673215G39691b990072q30021j45111K08429D59608J713168
52575B172776K207510o60055A803238P33814P75268n092p16588l22801f41775
52565c891846K24471J682499B89559M74816k69902L85750j80580M73430a26504
52555a005597l86503j145126j101605J725087A467209L078558q52374r03272q40193
52546A949928m94123m34542a878308p2949l35598p00915p98191J405016D95536
52536A093526N99129p41548D4801O30601a52445k578879L01957B188813K737985
52527D926798A982761b898910o72248J479753k59439P1566L76347K68646j80533
52518a814818k225800J717284A289100J485631j061085j7123G31750b060128j260147
52509c320275g54493B019034K16001J515107J26147j172512p59072K094160A989244
52499a261173J95682H1931O75067J72541i59o50134C22892c58564C11134J43267
52489D54401B5484O01381e78167m79883F72410B70381e57509a77337m96342l39690
52479a013369A05832L646065n90755J1913K78526A385371J019752M14963H43154
52469B322983N37875j385690a579985n16068L71471c91298F04154J881263G10017
52459f09615G16610R00728K56680M12654o0501n61670H14209J54046J509966J037984
52449C516205O058j536507a262595M69870B115483K160466J219681j036346j859794
52440B599490E57429P23831n56901a871298l19565i01423l06159p73148a452G84680
52429d36326j402321O11717B67172c98966J94065E09556a239176j186479k002490
52420d428145K80229N73945a04924A349321e5792k122463h30130A177577I5636
52410b92537G77261L60118P76863r29047A7191e05984A154473C36534i28915r85381
52400a914296j831440Q11413b01441o96778m6007l06348l27307L10621l01037
52391a568297N19374A706207J749134q30737F14552P48501L83938E05060O66739
52382A171799m79723g01532n10832J51844b80333H06647B50635R67720K307635
52373C525990r9163K58317q55075j237792j73376E99029B98680J152508f53192
52363b684990P76358O53505N15362q27304j488634j165212M97514P51032J182253
52354a790116q95122R8139j02979J009168d4753k58805B511902j6970r35426J904293
52344C463799N21482k94930j469493D11357j66417C3421g4375o52664J30413H26627
52333A662555l5920p39287N25437L18225o33104J391354A063285b2293o77711
52324g00004r82212C36659J961302C63371b805778n19416l535J409554G05775
52314B971123L06640A596121a515883j457480J301029C102451J042386F63644
52305E92843a408177k758360J340499h25210A187155q5182l53038M595i11269
52295b165734j285006p71347Q98694a396393o57846M9457L73496P90018L42619
52286d98649A784364D33588g50139l9302j544212j34592J123355M98195l811740
52277d658435r05102b439410N53957q29632e85172I41796c68971m38722j1499
52268h19192l87214e48172j322456j474194P89943h08513c09509l94501j88597
52259h92607P9077J60737K46927p7069j110482N26431c74878l39208m58310j328562
52249b500958K29549c60163b8876H53620O69678A49979a954901R04030M3635D90837
52238B275832J330641K35667A741953A35132J375317J050787H27496a384413j642179
52229c026592f73477B8491b827876L82146L20957r71883l80318j335200R45778
52220c866396J283685L98109L97051m5625q53308f30374A95876c06318G07623
52210B322104L94551H33595l76625J013762C51246a29809D72021M02391B33559
52200A038121a144040d53528A795939M4836A20418b034615l43862K63327P16344
52191a398806k67948M091j003752J95960Q20147p77738R97448F16842K640123
52182C256965L04313A092869n9869J592794L42001G19139j5481M12112f20752
52172G5665P85412l40978e1419q75606d42967p00506o92851k77210P52066b61779
52161B79673p7286K75065c0907D49142J889321Q40120J295530L75777j776420
52152C073470A233429k25404L71077N35938A16383a395761O79552A765060L899636
52143E664696j724824A337879h47608L68550A862641k30390m13493j69309J52818
52134A202267l47436a22311l30400D81244J138311K823805j497393q75140m27793
52125A643034A07265a601953f78643A284481a54621l389865L90779J363184p1479
52116a862002d8712B611796j127187F09522K792497J87158j192272j07104O83028
52107B972829J01673P74171F29886b000010c56836A225241J928998k42015q08068
52098B104156E00341A68227K61625d88543k147961i18727A881644m25859n03255
52089I52530a073411k715928j300066a773340f67235q09697e95200D67508c11132
52079b533416R01084b28917A765213K46004C38654J92576K100a851225i05107
52069a950236j981496M34973k21743J823848J31178j708757M67448N53460p19001
52060c170326Q29485j256560R1534R03823j833449j017960K350749G17331J659784
52051B377115i416j543613p33042N61719j233059p0948J044552h45124m46676
52042a291800j503634J048189a19424H3587J665266M18685A058667a871650j003480
52033b875130Q60609P52001N23994B12679K27344K231461k23837E87658f67071
52023b219941M89871b66374A09995N69667K127846J952934J020796P2192j447576
52014D405854K764571Q07017k874993B389315l33119q62796b5817A182732O8901
52005A251633C99322J007918K153326J499514j95005o79789j964974a018639i1064
51995A344265j02188a704282K28075b89738r63660Q0953C33453M22783k82088
51986D74148a014995M91303A863694R6053n65192K101167J296482j488490j251935
51977B051779l44302E54618Q27343D79845P9116J470735J040595I44485J134413
51968B078898J405266A478786a434983m44771h14537j488809k121655o01623j483268
51959f509892j70019L59759J288940J305852a284840A457194o85314M71468Q47340
51950B090688J78578J523916r02365a631515j073994a318220C33297J057735m16487
51941I74545M17300O4899f6112k51264A055812L435304J364933p2421j897311
51932C886317j327764C8754a447363j214261Q13708P52555k95358m86417j379807
51923c256943M60254k092053j663657J727174a415686M48665k117862n14515J281677
51914b317721A98112J714607J732510M74129k63693M54787l14938A589518a010099
51904A477699K484397A785681a238998k82754C55861J270602O41086H17877j93598
51895F24279N45644j29806e0566A511726m43632b124265L29709J59814m66861
51886b101603m9159f26693B258711K25023g5622m98299k18547p7264q55075j184154
51876b908961L74483Q28534Q26059A975881K003814J90510A217931a646003N40223
51867a105780L49085E03101J409458o62063a514629p50162i33354G49691k85718
51858D63973P00127N85998e7835o23834E65012J639993N25160K72842j461881
51849A541126h6313F47279B46790H764f28970k75848A169766k68767b542583Q8689
51839b453894m92797J195020Q04647k97336j051186l09955R7888J093909O96116
51830g17588A652681K629083q44490h71795l392358J928573d22060D26518J018678
51821A445196M33940m60578e76834n17121D3400b209670l150747O59088j31875
51812d833204k277560R72400K805715l25826K00599r01880e77134A488497a303972
51802b228671K6169k109765j97849l05831K237415H54812K260111j433586d5763
51792b7322A91048J683656a83164j93636j211191P87133G2123P7355J473115p49748
51782H72845b27564j54025n05384B39734c13731E51848J937002r31688G313b0041
51771B788592J404894A896576d51393R2125A837172j65963c221240N53481f70703
51761a678919K24940l56931b34332A677671k70172C10597b546088j28657J70161
51752b504584K73449g45509n65747M23445D80192j21604e03518C45840m7443a356989
51741d249395J789927J214496A182362J63261b41791A71370Q15715m01468A78918
51731g57224m70357l861L4208A110299L211989J249869P98139j531701k305867
51722B532728j130381J650908M06698r26438I56438l23298M51940J352456K516051
51713D953587j364199j279806p99389n72957D65850a468977c67747C79002K210797
51704B589799L357914q5204j440649j634344A228607c31918f0974C38672e27801
51694A770428J165451j47915A303970A36328J196569D71098g00061r03872j128748
51685b732681L44380j440990N76781J268895k152048J150714a247630N43986b04358
51675A00704f30369p79130d8149l52414n96227d07148A870102K507785m23701
51666C954186A176886C78520b86072j946403r0483N71095f88430n19063m9026
51657a256519L70927q12715o86563J87860g26176B793512J142334o79851o77360
51648B578635j15233Q33460j569570a988691k574569J944360f79732a40557k198745
51639b339302k214087R44235J778134L58501n82663i24962G34992K311023J337456
51630D383471Q74926p29243j723222r94393J79386J35982o46385C46179J877842
51621B224021M35043o15660J359284J681377j766789A556418h25306l982305b189052
51611G21163J366355o99240a142769q82408l56430h52626m56556j339567N63120
51602b085629F39046P06337d78041G81805O269f99008j618200R53087M10386A417331
51591a70530k605266O04833i42818c82191F98834H6343P13892O72059A43193K331437
51581B474630Q16696D08838M05636l28105a002287n61055j993262q10682a50674
51571B796603j296570B91917H7974L72984Q68131O32303K95466D24927a40243
51561c18480j696065i84367n63171k342080j223948k548849J439930J999204J922843
51552b300438i83646a69910C56721J124498k08231P47534I61994C41439h94579
51542b0712C10894b034111j491490q5994O17162M99534k29975Q3396a213253J31531
51532a081722k88709I3619J190621g61830j369231D3358K342286m37390a794815
51522c110814J358992A94286J893374K30554L58987K87877d4103l75044A448850
51512C46754d64814A230640K324850L59160m19445j458586q79989e79831K22346
51503c57485k082946j295222N3481o94817J301006E00292J967586j37967k17968
51494B111943D47171O6017A39675L3107a96744G66781J339246f56973p65028m81865
51484a903866m68240n05842O86979b47302A78941g6767k28581j096198j989104
51475c390650j528123j005585J802958N47520l03219J808534J26569q64516L52278
51466b454234L85835j692130J125351h29295B86584J684069g34683l581939o96514
51457e013136b400041b10485A120957M93973N55831K7024d50789k71130E13577
51447a13586B62601J69893b194071k15138p923l65386Q3754B51187Q16250c24929
51436a66370F0276a296965b86912B01867M52906K28185a099052q7997N22436l01298
51426i65911j016037j063606J230704a2180D055514M00667j931222C46833a33547
51416B78618a138439j804019c69035A0667c4774l88116n98035r37200j364637
51407c322762m16419m94673j605949J133562J005960l13895j753108q47735P74601
51398e840418M67094b382347A616014m88592a247948p57432h30042A542693J209550
51389B752243r80659G89528K806084J291715R74718j679972j2561k00247j097700
51380B871565R01723j246014J02603K728047p10746k212794J580076J096719k115920
51371B995259l5403Q76323P6127j583626L60880k97379b5192j71085A052332K216061
51361C268393L573175j077806k461715A293030M18550q7508J496673H50789a546798
51351a436135O59068B949862J38833C16162G768a579293j73629A537891J517441
51342C055332k72097l17820Q24514k58090j317142J31402c75114k040447k19305
51333b634866K74383f18804c7136k158882e92777A171551C21817a167065l62342
51324a529407f61153l60585c20526j2412J43484k115425k248348r46083J66663
51315e332647j40170J079885Q06763p76828J265991L78138J110820H9442a241009
51305a694377n0190F9405b191217J060986K06131p15886k32003j229212j552836
51296d654037N84570e92786F89384R98037h112p54131G46577j67457a609638g68612
51285C755417L601817k122813j959705m63963G59634b44903A34391J335870D38212
51275a128162B74843b32837k667769M97725k25194B8354K464459J081859L22893
51266C897565j561025e29603E00964d47332j392608M16004j643765n28122J664278
51257a931545f8027o2350n41077k05517L19310j898837j063678m71440a502162
51247A066390b39739k148673O46067f3013j787571p06621m19344O26738O92204
51238a657607k37392e20950A612996n21476a535683p5169c44375l94523m63559
51229a202457J83496j584279j545205k79180a863688J9343n13140e23121O3131
51220d59990j26828J29880k688284N58959A04718a579830j988304a464415b58795
51210b33240B132e70221A758582n56929a71466q33316c60974L5190r8576J66111
51200b58249l51382P4281B90875K065455M59020o8441j69180H02912B05693b01127
51189d56114j576303j15803b82948C330259J363282o94546A016482D04840Q11087
51180A215927E26429A90530e24508p38422k056906M60949F70889J397863H18657
51170f5473r3641k265019k66244i97127D49321J774239I82403f40087r74854m54998
51160b069939J24664a58533A96997e05417j42461l812921J91607J387455h19161
51150c24866j67713C11821p9265J29437p7286a959185j55445f18420i0472n11083
51140f01555q54139q22998J09879c5082B034575k40514g98902j071544j910787
51131c781233a678387D34288M38850M68268E24643J429630J314546P40870j585647
51122B424042F67820I3141f20718m96728B249388r98628a403796o51673g87834
51112G13226B77581L39327A39697P52993b68044C978J082171h9565l9987B55768
51101E50583J442855n87987b00064k007597j420384j414401L60928a991286e79637
51091a595904M03319B31204k9908c76545k36945j764647o42611J100593L38315
51082a581840K42728A911241p50878b305321l34218J048144O52785l59411N97198
51073g00823a50489j479637j004944q11656n54730f80143Q746k430997p73317
51064c875711J043648B83307J16319a83568A232684n4693m56319B86640a327828
51054a342339A952888m58564l98710J985696j234079D37327J261044l32735J714603
51045C080239j181946a329616j149999m23850j325942L35635j602984J723931
51037c772825f84067k72679m10106M40150j27962k035869P53542A306298Q96781
51028B203079B31181g76916K07400D8832a629218j397287a396705P6026M85177
51019h35502n324A3231a71447A20563J018576B62711R37784O69232C79584J553377
51009A932961q38232K37452C2735a350541L509j711404a324800l79901N4116O03799
50999a046786C75962a45197B65396J767568J146008l08397J74712K193226j344303
50990C894210A707278o1801R55738l13529R00844p02762q71001G1154e5546o09604
50980f65150k302649M10880i57289o99927a20349E5698j9966R71370a3985k872273
50970b886258a424290B382294J299614O21760l20130A440468f32018j403462J42986
50961a892494g79615F55142P25863K40320D97033f07520m44782j395463m53595
50952b901360f42008A56345a5135H0051Q80760D39551K72191C29210a054374m76492
50942a530866J36968M84747j071958e43434A59038i24203k965754k477803J235933
50933e131827a333335B5536c027188j283772J799292J093776b36084l02262j915611
50924b453957o77308a220527j76225q86984J077605E06461J673500L70999O69400
50915C220360q97990K93714J041682J143539r56270K88808R51057J038927r38543
50906E185284o85034K1634q91287n09642N30470A665747j63203K003773O20148
50897D126465A805948q91303b73807d8598C14240K238127P14138j417681p4075
50888A774749K155762O39850l09590M62679q88406j97655N14603o77647A285901
50878A69655J613078l61521f57156H05379P28919L27405k03173C22878J287827
50869A610705m94655n24690J176511J399985j376520J139753A129648C22674d34329
50859g55693A292584R15916F82756a529509j649701R43048K95767j836985J566860
50850b210520J101223L04195q5408j485659j000298a399610f26308B88098M18446
50841G06544i16979j687778J44402E22734N45753g34197Q1298G33570P16023L81039
50831A830632o02472A75121b074349k041322l080431J070430b851808i01151J34889
50822g66262A09629b035420k467571m9665q8245q58702P77669J111660R94516
50813b615758B27486J494202F30122a021552j769043N70571k80791n20808O14945
50804b406678R18859j66599Q8427B065270K721215j756239A398315B7202a523408
50794c173158p25474l62148J810891J75693L56367h93990n44321F09003R00723
50785A509726B85271d78019q74217n30214A97680K017709K916101B461121H12620
50775A87603K75352J018959B36525M67094k53226i63503r94805Q00200e76912
50765a775498k198480J181975J139787B077493J193425J81454J829898j730695
50757C551575a009318r17877c73349j424664o25239L24775O57435K0744j333216
50748b753514i76238a16333j678114j307633P25618Q45937E55801J372160H38241
50738D37174J045312p12008Q75767J768019J274331q92261A855451J345712J286077
50729D487240j196714k91114r98504J3779l62019m47398A24670J472445i6981
50719b115799R44948b84840k626258k273412J243925N5078j111645J13172a288638
50709I29774K124871J87866n25476A167198J73525J305738H97816a413271o89943
50700b103214b07944B683132J513449P8112k062731K96235F44497a011772A068270
50690B192664j38617L83919j189674d71836j42963C20291P8028M38404R52131
50681A788854n98060L04048D84755a232547D18791Q78292n79927a930706j221452
50672c152158J169120P46581h5306j595180N97145C75975J047594o58589K2111
50663G87091O71759n04177N21526o97881a455154d48945H09105K71728P12085
50654A792918o3012N22397r10557F60949j33113a53073r71471l48622e68535J89966
50644c78569J55858H76133O03585f56082j654019J02619O92790c17086G56567
50634A518552P26525m1045d63671j640303r0730A327526K88322b559835m22019
50625b981854l53548J292793c25269H67072L081908K718052k814410c8542l514819
50616c553361k582971Q04399Q88743J324087J127451j542753k19478O76669b12814
50606E32020a06329A672830K050583O83301B075144g87987G60228J859435K493308
50597E112971j741940r91201J19133K96652r58887b227440l394404J869459J426338
50588b326047J83119J70842N425Q58622A067091B68608a920354e39427p91841
50579a331268l85146C3213L78975d02359A673944m29092m98329K76242J41100
50570A163865A87198g13315a3126f262r31484n46787p40584j698575k63545q79648
50560e066885j255782P90686J096229a476441A18844b694553M66368d97109L7079
50551d60030j476074Q58726J32269j410166J027099h9624j677367j503730P63117
50542b507604B77784J614570k31975J155908Q12676A428306j7705L16244R73243
50533B700088P03010j611376m27724J373660A353875D97582L34485a903491k186030
50524d089521J347348c32280A821303Q02132J670663A660879a786970j152077
50516b939047m96584a198928E94021f86001G52729J732511l69292J137537M37598
50507C691083Q64189k082542b0231m33220D536e18110B03949n5332P49572N60469
50497A458658F08911J215340J030224A366106e41119B68493b46362H64057N81932
50488A445989a48446n05010o09285o43768e63381b51433r07001K14782A012220
50478B327184G72455L96390a121976O3917B077468K421149j605237j397780J451974
50469B947574P17591H58967a697947K24506K83101K94813c62331k736490J187748
50460a911073H57887L11395b010327N88788A318931N20317M07021H90560a05334
50450A716192H07370B77114J017402b16678A307513G9888e25080m04593k293737
50441c223410N06410h38111N1179l72729d3172A75196M94757f60714j264615f90726
50430a821374j084703g23802C747984R75198j388332r13702r00196n46109J913247
50421B888090K861680k137813I00066f86318l59714c63570j795655n61230p40122
50412c460577i52041A817534o61068d22450A030713n9446k86798h56606o39679
50403a496285j165868k11787M96779k95388J183468J69798j792427j958083a185795
50393C707603j368482j043751e53882j597341P19542J53764j417784N70198j02563
50384b228066M99195j982062Q99219a352570j920955Q10417N70815j279566J585129
50375a586730O70897j576741m99754M68601n6765J064875b77271C06167a006045
50365a363307A116713K176580A597468c00516J9622A478531O90680m71331a66485
50355B07021i7727A891380J484751A637007K9328a369063j805396J48102N7372
50346b968985j09741n48267F35268P55615a230560J60337A513830K109457A372777
50336b474290m718122J904667K433177F25548M311263N71742B595648I20036K006982
50327B927018N89332j102031k31624j51284B41231a493159j538937f18487G15587
50317G1608L23175K20320a316687K185D10976J777711J624396p6324A272590b96343
50306f56496k44523j6783I4457J349091K68942G82714i17698b29844A81933J259928
50296A441861F25666e84201q38605k46510A94984N37646J564267J85284f73333
50286d55640I55075l54007L69559B6722i24975j241588M82994E61794K293740
50277B855534J093570L91845B035770N18128r21393i41510e3093B266983C42513
50267a500549B5915K075396j49168o7447l78208p01512P04022k36212D1931b104454
50256b257125N74624B08966J754572j60229d43209O8476k78316j173491d97224
50246f10715G80565M67040m07852K75182a5200j755347k410456n42301Q53219
50237c870085k77108q7259Q03414J568635O61261o12753q59525j142143J130754
50228b684809j01530k42465J108505a24215A105664k65503o1600J51703E3753
50218A375483J48877b24619q37230J66479B63219N78293f08749k699904n85252
50209c893905L27299A23514b150167j363570c50448B196527O64232l05195G70030
50199I14193Q21256k07409J906769J520168p42516J52029J529974B446370b185946
50189b191465G24687J919425D17490b756483j909532a499957E5927J256236F47855
50179B016307K11052p64252A32455f67474F97455j25501J46668J846028K592464
50170E157114j183925A192382i78855B8763a33719k316560K00763M1653j251647
50161c459510a705318c10383j012793k023135j3121M24898a404360a09447A205701
50151A869677N34098n33155r8867O10423O50416N77507p72149f12361k201331
50142b813692J020936D63037a50470R00B829068n18551d0667r48152C93451Q70491
50132A263942C46454e16462j260722j528323J291465N21065N71454j416732m07159
50123b745414J262408A688245J005376R5782M47293A077259a249986d80785c0608
50113a632558o16970Q94582o03010L56390j070364j773958N19187f56235A873504
50103A116999b38013j732742D8899J616170B72810J165626A10399c18417n10632
50094h29049j076423D94201J104859E07056Q77775c16603j321768L04523j506333
50085b840181j55756a066088k041138k2522J8953j89243a627591J39166q40444
50076b328869N2575O73593j370708p72641Q3331J639537g3974B594747J501974
50067D096721J229046j288262A720513N76207l73812R06342K037197J302595j328980
50058D840062A737554D44534a041187n58299E43356J217024J30380N44733j043335
50049A392158D80711a46447j21879I1193K629491K615895m68926j948672B18792
50039e45447R4341J35003E28778J234810Q31541A130114a72432B29075c85312
50029B455160J372178p42747A174725b8256F53621J425918F44573M34354J480177
50020B559104l84939b51453j838395p96190J22341j243978k8605J144163b06237
50010a876280k973498a381892F98359a310579j540696M26270O08922b36551I69714
50000A552519F01932j20016J165627G42925a40222k47692A17641a972870k024856
49991c997726Q39106M00381J020406h12675p62038r28026k73862P0523a070486
49981A269920f57899j001087o14732M08297g58522o86535A212219L037403J323057
49972E572679Q4683k037498A099874a02229I54637l88959j58552J380306J748310
49963C535742j426652g65482j860159j2894c78721A508603j73727J874345K925907
49954F135128j479891j967158J426861K283019M42315k680580q89346J955891
49946E226239m41732k334170d8306q79245A428855A00247a725488J97199P2883
49937a455406c89021B149179P56673j419275p34035N86078J888527j448722O0568
49928A838993a81315r88267A669234J171993j255993d70304n61808j8078M1951
49919a008239G21821P97227J527358I24859b025058c74599G23688B93259a134250
49909b182433Q08261a25390r46116d49548J94374j093852j642054Q89412j80376
49900b282044P6028P07030B07341b12382n90077C59868J251640N80782q66264
49891A326026P85996a480284f82197J20988j980078j847707j047293k22436Q68313
49882d790410M98843j033080r69664K255468J895903M1578O91714A040888K126261
49873C167149A515284E21164B46563g21964C06946R8172J849520J974732I58430
49863D59756b16777n453869j404794J718472K96114N01750J953332J109456q597
49854a504913f06094m86666M83797A472692j2628J58304l61041M92881l69304
49845A380904n9989J80050O57904R39948K65952A681607d52762k018994J072801
49836a398955A87637a535484p58808j273460Q08379g68970a55379l513570j21242
49827c790191p5164j004728o3569a721214B68358L97377J501193J909529A406016
49817e99272C65061f3921J3338A292961J26442c17715k512546K65926k40196k343547
49807e148078M51851R76447K67278q60921J732873g37846L02155j170675j665895
49798c272261N23964F73660K194508Q27002K54441o87239m21727I830b7808B92305
49787B177141K028269F87921A73640N24527e26063j055997j690882j138232K69468
49778d141706P33373r12292Q09561J537831d03535L5785j029664M77908i8891
49768a181253m51635n21450r83827j75489R00744H88838J709004q076C74824e64823
49757a052377d75353F77288J715425L434532K75931j246818j152966A102654J349455
49748B452109J447376j260072p67751I23937k82155K41591a83348j111806K99188
49739i95966r97252J14670R36826k83837c88461B406240N84860j121132B98580
49729E29751J555646k90235B53678J489469N53037c93144j952570j169457a133360
49719I70249g724k993095q52660Q18539N45582P50178o02463K45153k35120c73701
49708A820039p52097J041273J786978n28640n11070H03076K405987K537726k42435
49699E504354j692526j533793K29785j04602k42948o12817k70874C84678K111874
49690B496552K347999o62875A733041b386914n32924J042738L03873K52076I03390
49680A783429g15049k764062Q02648f01328m88865m36307a98155B061897j48571
49671A913326L93417f12852j583970r07984j351232J060440J323978i03189b73668
49661D10760b189225k916176n48660K247109a069498E67355M76281B13028J985972
49652B199000J647384k88913n71192A404850K57649j50275b754298k066234Q58586
49643c961946a456320A195891a521237j662351N82921Q57665B67044J150078J899158
49634C316280p36372A197642g22219o9422K2914a24476n66373n26895b33599o31124
49624h64723l336048J464390J233484R7030A285540J373647K16314q47166D15811
49614e83883K07258j523294p69218R42721L14201j251374C45370N54104a585801
49604b125657B66220a827868O98560k02906o62078r8632k50155J076857G39912
49594b64627j098741A43882K32604E9754J520806J195988n61685m30828G25636
49584a769190k84642m96030a133996d12061K2264H59814M95825j1219D77269J090617
49574A567886l41929J394636o01104c31327j21898C213646J969445k149681G89630
49564d95337A5050L18751b311182C20686O90763i84814k650628j929633O03196
49555d961879a746253e25572l46929M0538j86139k93151o55865k494496O25262
49546c836352J082079m22573N21457C11336P47607k39898K918912J192104k006304
49537B923757K21518j009659I45092L61212B01067O39212l88203J951828J623370
49528D027274A198403F5786M35114J281869e55263j199648H14355m05414b794878
49518c857315A322875J385541c98074E68673L463082r52678j536524N88798G34616
49508A951206J249157N45762j68682j626353E60724L50941P064g28168l29061
49499a057229D82336K339449p05301E19131J196866G25156O34355K587776j180989
49490B766298A365551r307J229547k69540F31084O78682J065117N45553H21915
49480B014339J663968l33429k38085A523529a29215A239467K289671j150586l68576
49471B009976k43862c03564m07684A210668J65868k59607P64293a048134J64981
49462h83153A346529K088451N75639j851691F81125J69670A53952d01170A297739
49452d04168A64145K502088J397714n02211q9835m14916j163658G13106B9269
49442F81332a123655m99466H65949J897702K221225q19053j647759r43961B27050
49432E37853j92117i50076k4323O1959a50039p87854j134504M94621E75884k04496
49422C71388a66989B123084L405q45744J078015r96291N30133F15525a230367
49412a43581B43750L59180J031934L67373J410374R54676p2164m80362q61688
49403B953073q9350m58070i76770j462643c44753A388269J215836E48957a12979
49393c47826j48450E98314q4416j82840L43653J126961Q15915K326674J848846
49384F793107k663248j583367K62487q75743E58207K32962l93411j88317b425350
49374d076888J729283Q83664A90266L51951e39738a88372F50194A1679J39293
49365A50972J68799d88856n00124c05642j073735l01209g99949A56274b33817
49355a040275a45583l00483F85939a163824k507506a698759I66920P84511a726089
49345c726695J074779A980572J116112A46652h96600D13065J103057J34956G69198
49335D99926i08434n18380d49492H984a08117j518518F50998N92595g4282p95465
49325h69747E72374b54422J20894I31843M91330J43380J700662p18722j095588
49316A452905K505184o2849L02181j90902j557590q73663G03690j18237i8116
49306f79823j458075L12393e19539j364296j07614B25055j06631a387659j659683
49297c047342p6269g52323r65936j588647o92409a549576A652188K73313G73661
49287i70002M03547G83434L20363F8265a127862o51437J62306G69241J164438
49278A933679Q71597j38583A069094R84932M03994l5043j094112C33874J114204
49269A448078J269854I35494M65111J353309N25324j425576k45372j82618j63301
49260A262371n4833D96261c06807m49340o26536f67927q08747l29400d79351r21349
49250a400700k271351M493h50755H73271k31657c85293E07937a609281j460064
49241c069345R18365C74467o9888N743c68557p14594A944595L36783D70505c57345
49230f42711A616666J6677b97199j096945q22902q71645P41081a030559H53235
49220A750108j26868O85844J045250j324531c18668H88293P09575G32447a799723
49210c686627J100076a227274j76064d81165k0518l250912L06806f7037B614896
49200B981588j338857J11941N0169G66709A62317Q79269J330203j105819h1209
49190a323349a03450j277596O03637B584212j147381P17853P99473r90256I30059
49180A613448J6018K03908D34892a256914J47789d73561q26697K83586o35663
49171a652335N8513F09253L013386N77588m43796a03633j724677J48131d63214
49161I41902l12455b19337n26658B253953L30156I50997l67637b48202G07330
49151A024926C00713o0603I0503J200237J196438r17644A81783d45184j8112m09748
49141h73044k98004B186182J769852A860785l04881C5325b156109r97598r71762
49132d125469J358638a103130j090345k454181Q82605J431294J78196l318248
49124e473809q00847b703441H78014c34139j55743A650262J09056F92557b82928
49114a159181j19983b63890m07730l24058c83530G48202J506611K324012O14935
49105E193760m69900j938645a211904M62851P7557m00314j066664o18875P32636
49096b024713g31602c2936B226783p08370d05619D49538a811798n15730P67944
49087a559584L00525K27272j563288R06931D31590M95891J123013o00229F92988
49077A615182L02707n31307e51163j030068j09739c69540B539391L820921o35500
49068E724812k84791j239449B11786h71327n89983r15624G94739R18427G61198
49058h29772A00410J514594K344858l83409k90756R03207q42688J247035k249034
49049B344217H16373K05770c21765k742712r56332a996279q88529K62222n4353
49040b676939J280396Q6866e67841A094604K498330A730703Q94127k95322E35969
49030a057620p66667P65065o81428j420711n68071a310300D17591Q73882a200428
49020b802906Q42397A05871K120176J048328A090959g66077B38529J676677N40363
49011B455569A020730l83871h4440A476476l22256a466653P4662a29770j112759
49002a242529K1541j50446r95355m49027l00346j145879a449043B600311J809112
48993D409423j23599A745943F1471J220332n35481J12423J407943q2336p77883
48984A406469A71151f46764p90948K0919o55587a63958C696372J328190A426973
48974a306662D42882J805393J993824m14521m77842J90976j16389J91211q22176
48965B793358q02235a0484m0499C088204n58139A053578a45438d0719H56196l73753
48955D82443O1910K363874L64770I90811D83829A64084f97911m60807C03620K393677
48945B697297O6729j07654P96877Q97527J86893k057595F19628a422743n44539
48936a967282A125385L342254q51783j506302J31621r11797n59158C0865Q47441
48927H78306h88234j337632O24886A801551J988362K83435n68956A710207G79027
48917A718324J755066j643258F85887h76846b4303j82615k39488B342509K517308
48908D859817J45363m82096j836685q30815p0481l72687E56422A57852g2238n85312
48898f57550n00902q0180f06924n71442a57489e529A598863J09282K133515J39288
48888C980948j956688H59617P98394Q56378J877628k135998e67155A433848K037884
48879C471732n7218J827046J425226j699296j994334p54159J832577J386704j682856
48870C755422h27151k842240J465289B18128M34983b026618L43754b89389n07762
48861g97151j162023F46331O48897k80646c0248j017870P4889A2281L09062J278481
48851A599824b01837k15229n29482d08387A469864K05541c62388G51523Q27374
48842A578897Q66198J33932n03783N56022F94533a160249j238002a112218B223507
48832B856723j71603J71161p36372A60134b151306K9518G17373K549735J585752
48823D852860l57578j631263g57025m489728P62113K27323N56617J541689Q51952
48814a307059J68151b66244A117738q0572n15288d8855I4623a080907J38558I39364
48803D209944N9032j863402r45580o56109N22603k65508k79159M52444C02379
48793a758253g17362j014603j546863J451933d26170B539661K098358q91615Q00943
48784D547347J08054j731868I01803l08510J278702R21690L61376j337821c784638
48774e254225b548240J069746g34977A456203Q61381F02043d68461B76157J184052
48765A460209n2771k82015i29023B75281R47131J14143j92589a834155j712009
48756c546164b99283B886394N65150L05027j66417j074691l92017q61544A39252
48746b580809J063544M82083k416482R1578J578837h31208G13358k60175a55522
48736A185227A56362J41382K422763n23381p43715d23309l277179N39803a226122
48726a387127J13811n26714p87424m35117L6053m9003J369319C14250P04826e53812
48715b345105J17856k82361A26900J806755r2063C45476a879252O09455B43781
48705c43005k135669o40086J337127f45609h8293A78202J816509J655754L95593
48696D046058j44157Q19886J52380j835593j083986I25804C78041J244250J162376
48687B784667J264497J343619m814B357623e60759l36943K09120C11102J586326
48678A897428R5782l84640M86261F01404j9767J889183o47834D36157K342471
48669B778628J938359j383776E19298L03239J676753J34073K028772j68960j590148
48660B903027A187846b44602B290833J521564n66728A048883G3042a502914l740015
48651e242929N98371a292476D75575A4950L13921J303952n74108h22784j709874
48642b532658N30219P27372D71765a361770l140825p75448K145152P40892f99981
48632i52550j684087j628821J030783l18669J443793A89020b096418N93263d42886
48622b05458G20030O7194b54227E24965J39894b92433A148320K75606A63708d32030
48611b458648j09400F84191J339871l22450h41213l09369F95399J177427p55839
48602A116987D20145B1094h55194E98263k66383a443346r28464e61310A161559
48592D7435a332200O48382A724972k62085c08370j310180L02386a08841j35879
48583b44720j137470K6274p04192R5039N88411j259559j365571J637814G627O47339
48573F54966A58891b62688h1347A424809l51171K033357o93527a058490k216053
48564c274543N37706P42388N42928j574439l079888J965395B70646J407868A79438
48554c39532J15026F97166M58134a9838k775212k283410J5880K247300a405753
48544d4894A779067G26625k33427L086201P55784n50093o51936C39486a417229
48534a491068r91565a09239A894589N38536J456305m6870J46663j097749A439070
48524e07085j170518K7806G84308K849033p90305B39351c098019j953363J347115
48515c704267J463592k311471j638561R45480J131282R36182q22712J324251b19370
48505a79601h8014A686721Q15691j227872g41280k229371p87241L99146J530707
48496a828039g9423m32334j932265J110880G24747i9198m42644n1958j341417
48487a935217p52592L18865j436976n50534j191097J563740J035632h74638E75984
48477e99698j242259j86942P27177q5294D97481K255589J240692j38285j796859
48468B058618p0980J58125a23555B88464J421373l16966a019916j481350a019589
48458I59960K131371J099276j414611E42491b70081E53774H022J441639J576568
48449C026229A482715J312284M97409G85614l81351K395580N0961J278594j93758
48440C935640j453188n21904j01180O72184M48715j167436K84099K372125N99388
48431E068443A959414M81150r3500B1939c29274C20866a522850j18691O70487
48422i71054A04080J870524F99566b056020p64836J083954M91462j82126c99339
48412I32937J930235R47784j618947B95710J307064j06718a855133Q5653a65931
48402A921866j15124o34986f0886r05209J10128j00541m95533d92457J19252p32231
48392a105436o90881C76882O63831j11740h93183j045285A631207k53624K32478
48383A610061K102507L37875j136187N90157j247781a141811l28996A684608K59308
48374A943916Q90855O46420A430614o79562f97091a60497A080169a25147j515539
48365a640686k073312q75724K13896O25108P40359k69060K79214a88742H21519
48355g08837k371309R8439e13528A035055a26319j252735r11121e06383l1324
48346e37707o05067M23869C81148J065726E0985b613418i40320A142862J264409
48337B407271E0723b035516D84215P43710D80309J48117P30180o66386a524541
48327b479413j825888N65553a765749B387133K40155a192563k392347k321214
48319e906124J923156A255841K951338p28560I17888P02789l66284f63306j96996
48310h60302k604614l67451j438120m83546J323578l82996a156714e58636j474355
48301b032991l81837k60745n17277K97722r41673J106723d7908G28577c84719
48291a849647k135922P50547a508307p78763C3977J075182j86462K48824j81999
48282I89522C35733p5389r7481a226590J96362k38150I11512P02958C74729c0929
48271B338054R84278q34832q75644E10227j94255M43274J68047a409175D33135
48261A895174n2030R23137J858234J029285N48783Q47491B582537d36157d6495
48251I88384D56123g55230A22112J623713K037694G45375b60080B83104c866o79033
48241f82899G02432J624211R66534d94674m336439j91403n02286M71967a348596
48231A015046k79417b59174l00523j177182l5073A400013J138998I62038f12308
48221a656280O86168c13827L9950A270019K033962q16377A133725J46161M74179
48212A754065G82681K761443K01931j563030r51590J974699k5206A506125d02958
48202a014873c55323A914441F97323a813541j518522R96199G5638J060935O27899
48193A764472R31455J644700r02325L21917M09161j71050l12435k28643j366448
48184B090804d05961o85909A032202k69610c169044P82215A611152a30302k95197
48175d25499E82241N22840d37097q48621L58301C15113F4559e5367m90859j490852
48165b037078N24445J03317k052767j611403j564078k62908L24955j20810P87055
48156e909272K321627c09377G94879b07595j38471A044645R95734I74065a675764
48146a744938I30447J11052A5921f51511C24156R73201c52641H53850N92497k23522
48136A222825J521516A007335K88503L53874M57964C70946a93107q44685L97557
48127f40235c2482G8055a078961j818856J439907p58826P58308J67067p35071
48118b026432h19734b37235j175984A56220f80445A396508n33214a284140c91869
48108b313160K7104a090440p11938e63390A930571M8099k44796n57257N00689
48099A677306o20844B20153a011113k940577K27864Q09424j672370j608107N14184
48090e680695j615127L05543c486118g76898A082972e34552b9318n26112b36412
48080H61527G9623a419263k2480d13272j57296A076221D83825a066673C65132
48070B780230P08632m90281K58157J245126L87320A435614c49715H97998J072769
48061A970767M93001k59440K150725R20922k095060j146857o35314E40218K072644
48052B612862j22667O73780j116818f43332E6188J196723J769119m71421a688500
48042b283797a26736B610523n79136n35058C9397e07407A156501J001427l71725
48033A786203J716230P69809j792281b085142j556675N52588P38516m6924a116811
48023g46058A97370h17833B50513e4170j356598A534693Q63214J468694J559598
48014E426199j392201A381529J212016q1599j236628n7379J688783m34954D0864
48004a627836P39511j513784j254455Q94989J070408B087575P8887a82194k080157
47995b262351p23312P2522M1052L30510N0353j410898M2813J473310F20721J537037
47985B157758M32948K72079J330660Q13031j239437B97807a529947m90576l69690
47976b390213q73317j92738a368450C184112j61349b39446k023472q45424J43846
47967b964496c63615A064667k47597M20088L56925k04353K1034i0087r85358j794672
47957b870117L80829K20745g91155B21136B031Q86377A41950J041963R65708L06978
47947B456599J615158k99028j401054Q123l86380r84253b41179A093635P21773
47938A815408J635589J021272l7866J683436j208888j735702A467452J586210
47930C053662j31332j108338l07513E85747N82102b80250j174853l53253A078624
47920B093171r80265i45865b23172B020534j28598G16332J14732M50011R58173
47911B239248J326313j683903k32127K976256J167318B704714k38771G80974h80894
47901b43998E57054P63686E21792L51129B68469h2239j435147N37531a36982G85596
47890C4441c311860p85463J356400c20097A32850e20779l26555J78035o57051
47881a326350a99193B446675a88325k039556M33388N78958d29467j218287J03504
47872a544250P02453M20009J80146j082410A131832K84729h75549q18651A461328
47862F02437h71987J5331A403834b93094m244453r94638L87722L21329j117315
47853e940449J810487b045719j228665P86235N46997P17261A169909J234389A198441
47843C70733a577152j292631j132158J956363A013051K085072A544833F61001
47834A882987L83198J321q96418j33820L8656C95343d95392k82840l15967k93827
47824a388026k23957j702697l20378a352296o29737l593873M09652a236968a21691
47814a071668E17703k17823L89904b2331F56277d44928a04139C004703J529559
47805D534262j647543f57183j610451i83841J29890p11288J69886f52277b54399
47795a033864j784675a020477c28709E4210b165424k428425J744109a311309j700855
47786c012164j363456l62705J228983J057077e2498F19566a455865r33852m06659
47777b796376a157917K35293j585882e74391A71896f26316J09609K53303n54972
47768h18376A663299H18962e48520P6977p07740P5245d69228q07905N81065j169719
47758a865787I57911J795748l53079H59347J550806J2972b55358j114275B57977
47748B419769n01558e1533B74632Q87196j59049d51724j98638B96089M94547l12291
47738D78345a072376k024090J484629A506798l38205h81611c33289B328181J693943
47729D022124N86832j055829G62971a383447j123713j932419b159543G41325J203653
47720A944978P75327m97120b9523n85817B28083K552446J318431k74846j491541
47711B332573O22352J9410O89356O28702n25325j705312a185504k003674J207253
47702a981925e65658F47609g00262q70019k259662j412983Q35394j490266k195565
47693h093363L989791a896753j11517e10504b7888E04621J478012J54705d60310
47683a959279Q94355d07652B451919J121756P45142K84371B049886O94273L34395
47674C078554d45767k414422a28940A563054j18219K159031j136216B80230J711732
47665A991962L50780I40282b48817l19883J03774j787811j390190n89412N1693
47656d180646J522236J143932l217796r81587K126704M30601J367938L35089E52744
47646A736991h90812l921324j30046K04350O75307a529444d63407m25705j351159
47637b240271n98751a353412h4633j973494k685383L78706J563855N0535B52906
47627A785401G36120A20074h02026c70000I8355K237057M07371D49297h51340
47617a349868l77630A006068N30836i12821C33926K539241J149429f90434k245932
47608b936366J175362l06721M12988J05469g304l7818A841645N08130l52394m6993
47598A950388H55546n1470L76359L60598n15760m59533a657376q55649h29623
47588I62284L026C69968P13960d87572E60562K856752j001980H62765h8996A16366
47577a080834p23945H53571Q83290o09595g26808j03993B849493Q56113j241291
47568B464315E57280a095805j78660A70252J965337J495944K17878o38423A111436
47558c152729j58075N14196c73500A894303N63313A057575C59795M82642K393218
47549C235655A609334a263040j067656g56862L37602q7834A63762a227721l28365
47540a556086j03441L25518a92826n42906j927515O0901O43889l29669N11934
47531a776192P08393D93468J214726G77799j73696i07667j051478b49537B017531
47521A847770J096838n59047q05935J316210K60597j321685K32599I15123i32988
47511f40089A356220R48969J310561J243128J92533p78303j359236d89587l435669
47502c925256J810629A329895L444471J549143J08462j062739j370125I91714
47493c493777l49086j642491K42140K74861b127647A079089J389501A192233A36360
47483A111567K080846k19715E05920b264908J16044O27044p93830p76547k53006
47474c345203Q88512J164827K39179L55500o6361K18964l72294e5937h26j23257
47464a24083m92864k450419k246527J080672J248793j258168O74284J450510C10962
47454A78563f13888C42217Q8852j48421M16775J710186R73895B88927a149851
47444a087404o49258k719514j1894J294736g91088B832450L322070k716009G05349
47434A021201C54163K44344J181823i63967l012561l15651J688739A031365J585108
47425B616473O51018K4296E19567d08947D59375e65736k52788K16891j96603n39562
47415a337798o04365k021356n98102J512117E15463A62782b180293p14344l59163
47406c253800p53947J224759i81379B84201J159918B93806P28488K233276q12084
47397B443486b46116k849622j532741a846598e72158o12097C18386J047025N8599
47388A424010A78197A6094K46285K61389Q97230N55412n35783l77193R52204Q46425
47378B862063N0009j166149G30446M57478M60765l18224m84308K06672J271539
47369B324368J528638j718748C49165K83282j80303B07305J759913L12262m16165
47360A863315K095506A876927D80675i38742j348773a141036N20316K97571B529510
47350D725991k336537a54610j866811R44319A39461M61884K49336b07680j304898
47341a512578j428713a282268B032892J545400j190880a0837j146455J86826d43522
47331A194979J402024b4842j162347L09218J55489L58954j6630B22460J144791
47322A367251o5119E89540c93519E53826b333638r48947j023465J808738f02687
47312f47517r22575M21659l21282b98936j21239r23066o53312q16539i98530j392008
47302b390538j456005a323660a19116m79923a28332I87134c45159A5034a051004
47292c06339A99364H2970d71464j234946f10123o85715j267993o01540a71706
47282C231220L71734M67096j060154A262480a554723K43647A77609d80628D88154
47272E72306A0493a059580j88002p31662k310102r4944M30646O28242K71525J09728
47262b944149J26672J263004M85333A7105b09288n46189l62851b81377j761958
47253b043335j124907k722368O14420j40568Q26591Q70837j27220o15652p81645
47244e243847J235871J207188d48695J39426k128522N25963A39146B0744J726114
47235A746858J115951I82816d73590F60197J278410O00597c45322j768443h46989
47225A239743R77050J468625L01425j62946k67032M23564Q4467j301753o51163
47216B111980q16164Q37245i24446m76103O27879A387763J265609H16642c96267
47206a14333F15198Q99740A85706L248636J7163p31933a30145L0911B312714A53604
47195a393474m51047j603970j781434P10256b193452R77654F50172e61269j689552
47186b250821l45069L00938R54081e57704j2445B51737h83246j017128p15435
47177b615809r6164K31904O24317j116155Q36540q53641Q69155B058476K497446
47168D555922j96846r85887I31154a708542K34054N92747L2231A582822A69677
47158h75439K69440J65549A597542d3017j89405m57262j209177B496176L272155
47149E768331j60175k427062b87165q05505B14941K356397E69580a798628M63079
47140a335549C88404g43690k823226P68126a184338c34595q5478J35708m92630
47131g76995L23058H64796P37328e53329j427260N89218a90351A380880l07348
47122A073532m1235J894305N23978j596453A63161J73100K51766K83388Q86027
47113A757442n0797m63382P81745J474418o49398E91293I4374a475235J89814
47104a285421I03436b15996j130991e60106D34774J378430L712163j768831D20846
47094b730904P1525a269407F28828d4337r57482n18292G68636K107170p58028
47085B117778e7296j186606M10146A024663O45376F57911L67584Q95725K019257
47076C940477A399109F92789J03706d14349B301656K857363o58695j347067l57276
47067B795981j142901a704403l75990D59944L52224k72856L202175K676970k2128
47058F396329o52498R54792n95781k388901j635861J264664p68874J09407l90093
47049B293184b3470m47021A688081L034216J394434j552390j981113q89956P83352
47040B476624D29398a37361o42385m15880c93830A176129r0669m88012a37740
47030a076492A08033D830a506734p71465O38752A74247J108941B31122M37452
47021F68574a088526O6952A281317K263831J753574j558188I74508a183771n23547
47012a707318B34135K526796p09744i10075d41962j022276f67506J22910j026954
47003a571550f56045A090866N69818L80905c68142j154308l37127J66454g61056
46993i74494L18784B1733a513547P49082A279876J606929m07617I59725a753981
46983a353666m17635J77872g24530Q7534F91782j98775J098771M29771c69884
46973E98134N54862k15380J872140J374141N982j364978l5708o72775I60803J875257
46963B836060J348578k054197I31095J395512J124553o6972j148707I32149a118773
46953i61635D6341a65149H95785O73567d16734j029776f72814m54213c52916A651077
46942B172837k64234K59543Q45385O01040j22130q29719j21892j22235J942196
46933D360791j136457A201394M79183p78352i19941C34135J83170M73444l70669
46924F20080e99261k930173j95417n07304k069151J718043b161538d07449B59652
46914D60162K18023J133732p37966K008703o99430B6045a39328A004201O30904
46905A635105j41031J560814l74887F58225O8429K07574a447331p58878e85197
46895A138330J348573L60649n86134E43418J51445j1214a529045o70867i16566
46885e3009E21465c58340k784107n76873J076872J42273o940J238633k3568N48741
46875g43309E32293B51115H6532J562413L35770F51089N82475D01168P43157R19135
46865B063460R37831L24707j91627A025243c428364m08602J605136K83490f86831
46855A064107J063314q79420o20666p4383I2961B8885K16928J679296l29315e88441
46844c442246i80984A190137k54393K91207J723541A033186g66156F52229b588727
46834e414134J642802N93991L83544N79118O28881P81957C07112d88114k325215
46825b813329g97980m65239p53843A517960L092238N1878k161453g05841m37804
46816a143645m90951k150672J53179e18063I35646a455236j561350l38378J518273
46807a836691g99695o54161A092100l51463a003988j47549k860925J372057i81798
46797g26639A202688K55090l61877n9917a208998j61362b92143a23118k528401
46788b651519j918070N68758R7747J701536i36499J919A341102c40370l344684
46779c685054J20374a440430J30093k633316q31274a116758j38704j04801d78486
46769A508784d65895m096511o32351K533090A739458J926932A622308m57213h40664
46759c210092j864256R54372a035351d36189A300144m46542l21423J626171e14400
46749c544538j71166Q1971Q16905i80688A785362J605168P10474j821775r68591
46740A310638c10494m06572D30926O85775D14265j84943b528699j928194b192454
46730h72144D20248J388296Q49023k20176J00841K53915r411q09139M56681K993289
46720E423567m4938A704595K67741o87416h27460F91235f32865j628197n98296
46711b859358O95001A879621M67774D0792a759182o27311J057415j01169j018171
46702b448418j736411M97238B75165P26013b37368A855056J288725H28911b195368
46692a413544A223332Q0840e61300j946072d09289C124620j58598q96031Q23539
46683B893530J655783q73080j79586j0147A475007N88750r07952e61844k343533
46674b905377j479440N84332a670394M56054j083585j247932P00107f98235F88744
46664F45375e08327p26072k69031Q9302f37024o28810O06575A306881c70986C408
46653A93142a987230j10333h98417c8885F95574J026532R83871j83500j21601
46644B400876q09977E83709a388036M5574A124259L271562n53998H30284i83020
46634F858K880258o19762C00975j08795K384709J83779O38430j261973C03491
46624A237602R95450Q594J86895J129743j180560H90660b72795o03066q80584
46615a756445j439486J360743f63998h4286m63803l55316A45203d87690n96790
46606a084480A2873L92578R05952m02097L6136B50073g14566C09967P8327M74450
46596H62744L00074a888379j170343O3910A151445J390291j096076C28917a4575
46586c78506j41998H49571R85334d09017j081462K36001d25136m41868q87954
46577a754958j519783R87273N16618g07034C45433b799621N60589g288r84291
46568i91579J25604k2562M19948m98924j747948M72497e27551C15319f05921A793373
46557C729791j777808D61814M91575P95015J258511j18987A012771j26345a070752
46547F32611J034085B51957h74629b4059j398457m14645f49257c0772H74310N30941
46537A405251P21892Q9697l1921J629509n83059j531867J60098M72835A56991
46527b19017A079139L711897L932629j132864l534460C26499a558771j869400
46519c428171J526055A03758K81474j43533a257092o00088K63707f03350I49738
46509G61217b043506K55244N84607F05267J372411K425281Q27703j962381k76880
46500B991401l27761Q89314q05590k24537K045203j646994j183009K913627K579021
46491G230675k650584a433582j981614a677957L22351f3416A612642h99438j586392
46482b485830a19010A922618J185440J067115o14346A033588p507J285290n02127
46473A809244G0501f63651j517349L07923n25250g49407A043113M28325K22695
46464A694133m85349m49774h96875r04227j074857k8703g65820I94392J594346
46455B588738L10193A368888l15477J496025J686846l86616A879135f24668j70120
46446g94788I70796O7667Q21960J944627k29521I48377b03129l554044j722968
46437e480141J839127J437687g35505n65264K93900K02468j059422j388685p5779
46428c328287A67783J786514q01178D73853b95913k79793A249795a241801l029219
46419d271020Q05429a486273O25028H09129L8981J612984r78262h36491C8295
46409H61745B85272f95636r21195k79916K81813k27340j961499m20223J378920
46400b845076j797621j280540j10530J354904j69312J241412J511308a91924c6664
46390d58152B795610K32640A484561K889657O10180j527793J23657J129690j750412
46381B959540A211269J198988J177883J273738J365228k162917A054086a03008
46372A970766H06910a814710j014A313810K085666J316684j401669j378938J29920
46363B065473a281213E4999i0948b5196o11357j148989B87408J514832K332449
46354D134689j19425p49570J531143j037829A788126g15767p66115l69238M43706
46345a407414p86057o91343N49549M34176k025674J420326E09116M94787a475823
46335b828597O10144L03113N23798e29538r03350A03741J09515c499502Q93259
46326b606243a276136A529093O41995b27510A354967K106879m32572K196551j043014
46317D182811B076718L20526A67379d2338k5571j630142L69536A943934M31191
46308B375125a745r39449b03596j029241j700207M48193b39099H19819a390021
46298a592737f44128B963845K154026J77845k569250E19937a32862l28789A077065
46288a095735j475002r77431K54682J150619Q45233B78195n44R36678J374094
46279B588423Q97240L96104j41617j137683j275449C39628N9652d09317I5089
46269A761269B28987J01139j61909d36088j547874j621291J364237J81987j540743
46260c599772J118411Q23186k20349p08172K5388J94947G24566J281538H87255
46250I9558K51644b40915r00565J38354m50821N12044b90783H63987R40921a330304
46239a427764B91349a717362j558831n28997j39379J431151A139584k99855c35735
46229a559608d47175m09447r76536O96971j328514j8309B42047L55229a737929
46219b090163i59290j44765d08506B82777J025920b385253k093130R12682K04111
46210c361590O0918a326485k09520A224271K363093A193754D35455B09772J223461
46201A433233F42949J902095J241980j606736G6763f10923I37306a044258o36001
46192a680259Q14622b92615D64787k12372J699364L66855j038262J64559J424719
46183B869650K411084l44842Q7576o62454m19735L94237J904020J485306q06508
46174F918334q60954q66988H64648a546380b89478l29556J35118A533684m14610
46165A119074a258001l69424b70198j787738i49752C95561J64867c25849l97195
46156g23044k304744k553145j33410J737836k56447k970264r05849K478159J757210
46147c873698O00630n70954j187284K453598F04845Q06639J770694p2281a37170
46137a009504j20901A05499a56080j366538o23772p98243o05652Q82034e63004
46127A039376J003659J509551K315544k364256A411119J948960k25543f91936
46118c506057i09579B475480R12427q45800b98724k371850l62203a48748I45924
46108A798030J64326r58333g53850m53388e91671B41952J234191K232272p56395
46099B952020A456039M21115K294708q4109p76952o36617N47365A603219b31734
46089a411992n34535e24493k87850c45228D54441J620509N90929R04136r46105
46080B623910A204898L86910J981771M8688O03469j392796n20363O13415A50202
46070a217484J62210K28017H11778P9602k07547L43625M34580a120925r22697
46061b043622D49563L484902K92682j426242j089174h9919j902362r89235j87767
46052c169283a395414H4667J174300K488953K40213r2027j644509D18252P56743
46043A174995R56471q92330B53903A21016b520008p6476b69276k293850m05134
46034b968260d49855C9575a193829A865643K11410Q84938L36667K121548j01466
46025E318740k211754A419737D62257L73055O9747K38408J078264p65239a43084
46015a652092r3171g01540A62987n1569B470J83250a12205j499868n0613f26642
46004f39009j702742j648530Q5825J520689j30905K91535p96792Q44246A55728
45994A564134Q87959p86209L53973R3675A055233a457101m5767g18702B131570
45984D526527p79750A746453p08107m78500J396029J51247l08796Q50820j55370
45975B493776J177482j253135A018365A82017K41856h94015k227711o40514a514048
45965d10232l17803j712519l201168j08878J802646k289366j009659K284662J930154
45956c032163J378446M61542J17268j225997l05441O3432J54147a65226j18321
45947b83547k182258J012920F06244J197557Q07010l9396r26953j67688J307205
45938B783979L44388L53272m32264K2315A351877P69231J187683k35979n05413
45929B567399G27859Q07013J182417n51485E13264a351193j284254N003J217806
45920a412638a71770C869280K084273j182626j354491j025211a225002p53331
45912a978333i31955j389599N91876a01095k67867l60781m70183d06885E81575
45902a098740m53425j17509B784310J679160Q88739J14067j267792K73435j776914
45893B695005F73566Q41029h4499A027849P12878G30435L31037l33128d27509
45883a465065r26014c67136B465643p43839G26997J651201L42090G34011K50101
45874I84112j26930G9229J113462J432616A169546E05806a505517k143780I4764
45864A256940A15902d87265k9085C5666O72352k73173j54005M23983K105565O42940
45854C453328j390143r59818Q85700j34843q31575J395138J89615A12795a788997
45844c46134A198693p4249k68510i48208A014394K544982q53527o91998d47960
45834c325791h39936B827191M79910m79707r77673A38679b834621j45488j71228
45825c151337k090579J903459i12991m60320l138151k85549J715712Q93517b95423
45815C166761K489798p62630j911358n95996q30388L65210P1832J140810K253125
45806E387164m05756B146514q89514k23681K092740r10711a239224M1525B208761
45796C507981n41264I76852E7721b38007j05762H2948i42785k547051j081857
45787d571693a059005J91915o96499O58439j751787j235708a781835G9782b78720
45777C78801D8265a506788L4021j258418e63423G26878K0502N80119O45548M85021
45767B458068J86872G85264g39348J76749p79562q22014P13208C59835c2933m15548
45757d48481J54446F48115J933082A200179J639531K003550P56707p55565k089410
45748B754992j375380g32917k270858J240003l68263j04476O58669j839997J695279
45739a722560A94590J527692o40652g13210A070054l19598J727926J091749N93240
45730D163371K861012J524643L391422R710731J6352331M6386406L8734404n0412581
45722G2711739C0645346A2525762B997824b249706n5290j67984R1738d56326A500984
45712A534835J132685K504509B381921a731763h52078j052827q76771J247784
45704a533892g54000A844583J696265I40457c358598J365924b68719k89712A70004
45694F68479e65355N5587b16231A455304Q08979k40505M23289l37414H90084L07260
45684A197344P11254L06732L8329H12563b020913j279355p59426Q24983J476706
45675a758005L35732D99940J097450J809060j429346b063192q09312Q50351M26375
45666a595778L83834N36238q39089N64200j700213j545990a015678C06093J161252
45657A467345K001977r93159N48821j2019L74408J480781R82047j674626A887683
45647g77646m07496A079715A53004P37227Q56692R6181n66943n18878C01857J68511
45637D70368N01044l03317N05873r09C33134O79859G9768f09316G03893c84966
45626d05459r82656B04828J491713q38531a88677k551797K87442p0224k161344
45617d684600n72464K185361Q06087P42313N0009j849733a92342A453462b489747
45607b616687i03470j588269j26010o70453a520810e59617K9766A724412C30200
45597a173834d46251m88125o38272h0555E00952b142035l820863J567702R42540
45588c452656p1973Q99397B25735R50837k48145a49135p53790a14476A621607
45578A895518N29781F90465P62267G08421f92204G38779O36991D75966g80653
45568a457010F67167J403825n59675f47308r85230i7983A565905Q7963J642706
45559C296574j27282j242630j32326F86601J05888J259741J966994R51340j114819
45550C855745j740886A44270a026925k64787j413223O34460c91108A648135q4335
45541A563800J170405j320593a737459g15706A021076j10381D24733b76029j816781
45532b092810M59822A404026P44478j04648D89719B39237M56308A91514M0598
45523B32112P25104M24728B07314a440154j016073a163815N81257k401530k68236
45514c252324a173563L54043K9673F67325O77005k41570j91574a94366m29155
45505f23521j557730L50977q12069p70052J300924E03634J710817E09934P008
45496E16942O5712k52413a083582p65410K9096P22103G21005j26127j14293c40134
45485A202631K629067J212360q17633j465900H58932G2676P01131J421802j074666
45476A120943J323817J636002j375093j342700l47678J48154g26648m86177f05583
45466b244330a028948D653992J905912r41831p4047r05964q24203j609398k80020
45457A924441m00413C88880K08789M93172K94397J406375j375614m70717C97533
45447e10496H0981J125544J3878l70424D15875a269548j789944a068402J97851
45438h70551j946607L83748R75591k7883j479285j56222J224120O56858F90539
45428F65871I0238a359807P3123A610369Q96616A189200e66054j885653R49034
45419a502673j84697P13660A054849J682577K059859m92172j771934a422340K89966
45410a132374I38040C39017J301553p35754f06918F25125b2792C15060g42473
45400h98582b96766a24940j848102j757208K71555A62887P80728f89875l23576
45391a013451A399265J589623Q62155K774739l84561j773948j481415j177917
45383A807941k37259K370795J815734r5108r55948B254378h20393j137138F56867
45373C717213J693194J343891L99021j113393k254662J59615r43335H07063a274741
45363E55439J042875J58244b01368j804859J001663j12461D96958M78686a929675
45353d348865J712998A396614L117308p77164I47747A68197i14214k792693Q80136
45344b826771M59597K00794b1776A028534D75031J920482R06197G58250E9960
45334d10442n43146k286422p95829a857119b3456C19011M59258J290964J114432
45325C183665O31172A636250a604049p55671m33693l02270a505816G56708A01696
45315a536558L89136c88184D12037L84432C44919K021796j75558m00611D91388
45305A677132M51178M22653P5971n09381p22560C77225L80879J78486A17979P34845
45295H52824c97248G5046O39672c72461j228527o29727O93065h1328G99385l09326
45285D90059h26776n55181L07711J94085j776678e51972C564335K769722p03774
45276E630283B615223l00278J012204O98694l04202j143801A277507J161019P27075
45267C165601j139499n20476b94873n41004b54275j423439L11351B777255K325190
45258E102445l09696o33918j696320P99252j4746n12710J48733J9365A370909
45248B159979P96907A196414b290751k605097a713437I60390J876052P25166j300164
45239B261444J652996r90692c28082k85724j411659g61172l02740k717461M04178
45230c377195a062382D70700J739029J71133n45823J142506k31787o51087P65792
45221B860463J478498l71880n53241j471835i43149m23830j233962j51488d31084
45211f01707C8911K485447J777235j036352j196664q12000h1553q1114E76405
45201A052016M4290B90644a64974A328485J758327r31m69755j56972K27941A23927
45190a930672k52112j06575M80778K26295g37113B68379O81802L245848J335239
45181E531268M28727N61984l091842D51267c0390l94301j741340j213355p67145
45172d146531J697571A194422R65498p57641J709587J50139F8981g14506A446022
45162D70236a225165N7386L28482L22661A044587P98214F2083b915722L94139
45153b521583c28319H21046L86600a526157j813728J596623b30177A437478J391319
45144B828797Q8709j425164c15567a15777b9949A049043M91190A30068M45152
45135E75220B86447h9742D55492j51068a059580l40044c73453l20869j877603
45126b571925J243854A738358q2608d70974B77738K565035J66573J99859l27864
45117B881341A055386A84538a366646k77025j645426M4936a150890B98648F4640
45107A184661l33731a079014j754399M72172F79677K696251M70594l14284Q48319
45098D380557K30639j310561O94139j437116j033586a311531k159500p53988a624246
45088A042293K052840N74443j195879J44385K354658J521308n78876j383844r68731
45079C562597n74242J142520j40038A495006K65704M7693J162291J243480l19191
45070C894983l62169m15135q63187o58983g71442p93720a61809p33565q9816o2879
45060a048069r85820E52060c00386j665986q62005j803944O87980J938330j498302
45051c504313j16606a630022j163272P85885A751506M86002h62749k160532J256304
45042a766977g7619j958616k842363Q68250J902314D72745J934515A169286d98839
45032b005491p77734J08638J40612C33123J450676L10313j92728J843134j825869
45023A918649b551211j018767J715635A346986K681151r14851a15143k699406
45015b814549l4350N67690i56277k144086j264881a434156D27526K431386M72438
45006C331350M82206K136223K92387B830254A58900c77322A202399K062468m88195
44997B776672G92541e54864q50052b59433B431055Q26612r22328d4786k127651
44988b172437o37958j108324l5847a727046J93723a89940I06148k0759f75428
44978b021909e78462q1441l312490j658186K7614K632515B168339J148481N48960
44969C865780j218132B17924b54871H09859L43536B77983f20516j59539L76669
44960d03386l67557j913522L48299D40575O14690b38379j876635c14885F02813
44950A082358J358531P80089l92982j75368J302646l32787A627200G99936k35564
44941E64372J052482a83365j115940e91127j32100O9811k73248j196063N85043
44932a537684C03173J009355K27996k6316K052789M75045j652299f84184l176511
44923c860695N9112J250240L63661m73649j441896Q98813i66347D8759J282468
44914A331227B05901f01555l82551l20411m17739P99283j64412A564709n92671
44905I72038b800638j720122M93593J499956b26865p35352a79324j31397C84160
44895B343008f30377k171310J027617d32114q52723L80928r726C35650J665951
44886B001601R88028j436333d38665p62387A489840L18704c65739j366646j701349
44877c433734a434635G819e29800l05005C679M97274b090865j047585P05529N08576
44867a924345k618400j0723R86533j071059m94907m12118q42449K39510J748835
44858d399123A41339K553530J179123O62182J875930j947072A932569n14186k42047
44849A176336Q76051A04458c082817P59837A446069L042428M48110j375452P98636
44840D359791L6256M6604N93390O21508j325585A645822b913291k074280J752824
44831c234747A01640J470919a015743F5804K295058r0921A121197b135349n74740
44822b710089J215371J89199k447650l25061J504168b20767A574331B79176a807568
44812a860000j177717B37163J943184h96860p93105p51178r19716h79511K96246
44803e83265k839368k524820p88527M81122K524261J596183l64681j126446L21175
44794c304366J504468g08570n33630H85430R40087C48870N85516J315366P58143
44785C007895J091586A956988a24202j219337O37175a20118H85073J317391n62155
44776A640309Q54613O74530j198916q54908K3929l08805b33264A388931J57518
44767A546449M0812j10034K237807K422931k721032I22300L02010C15645c258362
44757d009740J256460L24538O29888f82988A702144M71797P23118k21639I20462
44747I50779J264181i19712j005404L07471j391863J098071P50971p63884f81619
44737b064528k697224K015004D72871c81437j467761r31132j347527a959093c62870
44727g55762J29389A95926R56841K33995L3855m86851P99621J415773m68088k64296
44717B416776j27635F89468d19060K01722j385786j270739j36464k002394m378697
44708i391418j913082M537525B7192K126443I46967j07199e67454j528321o2574
44699b158349P32407d25415A76414N99668b681973k697389J640113a810544L6278
44690a774266o16465Q7244K65274r46513q50002N39283c17451I34102K46775H9100
44679C00319L05840b45524n96475B57725J519628q6588o29130G8557a060807l022350
44669d083157J476912J254715k08268G12013J882703O58059j476213j91204m57501
44660A127857b79975H9683e97388j173160m35010N47305l85198M50705E5130i5932
44649c117394O02193l0790l280814k726137K306232a262838B824590K123789K13654
44640E162033k435075A75942a723837j160006J177338P88595E83866J60136M01076
44631A145078L133702j034430r12075J97849o57190q15257e88175K07826C510242
44621C398818F71847D1849J077900J443140l77615l24660L13965b93699j270329
44612a564028Q1757j050617J040194p64911j812828Q65054M28316J011041f84799
44602G26039N49799J501847J302615B028987a966687r23309j169592r93896K485262
44593b568222a025165a7678A278938Q43283N81522A299616D35156a15836m19120
44584e34956J66111j077532d4124A491789l64140A5818h22928r68968g53399B98753
44573A21686c99989k919790P94275a260298A393524L36153m38463L98492d16384
44563I788J285890c50773k12940A505491k76539l9246K317543K090922l79599
44554E218572B297949n84913c51038o35176p0622a15201A141702k25001C93265
44544A969766J147104M80548k6937j174199N35792N53780L53369Q30591B160252
44534a30597n01608j12307A83745J22473c8566n29861p69548j80055o86889i42597
44523A445774Q01384m02099f78053k576530p87722J711853N91503r31335P31145
44514a939139P85282E20419J657378J308664A604536a895652K7669O34253k79456
44505a513186k07961o94147K22599m63030c12822G68128f69566j243695j886825
44496c800086J469390F62919a190208A826931L466844K31817j117826B088011
44487A299005P46430r41604p4657k47571J790021D87873J86019R87439a758230
44477b057390A720494E37196a580155A225486L271407j843603f01607A144851
44468C513916m46736m66438r65780l82531K32013C97290J843225K360693j116416
44459C484792A379801n15709d83787B244643J134952j24926A103742a38962A206940
44449A715411K78570r1714J742292J095976p56135r92121q95772N4937P90391
44440B941835R11805j028183a10629j179224a28256B047775P82435E02269a180438
44430d062086k228004b707516P94090j666521p13821P24629a624654D55623d32728
44420d01266o86550o19696g37152e4315A660664G19379e7717E79854J044583A039
44409a16832l59908j12691I10796e9729F62728J431703b309m792170M74016b05810
44398d73373l059899p58269J198830m91214j301299J300688Q68574j8888j262638
44389c997488o72646l11370J733950f39886O1615F23394B61932b63892A42800
44379c13114B20031J529232k80068E42709a053489N09892B634568R01907n98952
44370B937523J123878M45642B034706C4377e70132G51209K409617K469007k232687
44361C397146k80351K495506R05403k570608B87024c64083d8254A111601Q27836
44352A939437k40877b43272h8286A312131J518279r14037D29558c77698a86843
44342A550856J243324A212668e61031I04822J583895j227759J098080P34842j071828
44333B022052o42130A80199a201876j260605Q51307r93075a229813N26232J30603
44324e72978j6060b33360H26714J949204M08996J485702A668709c671858l48405
44315d020263R56752a526608A219172e5898o6563A542148a879785l042978J531858
44306c390905N31924J428905n1039D45697L99958L6237J787957J144407A534550
44296b4564A75738b9428j476390j43210e43671A368241L84332E32894a314270
44286c749781J097444f67934B04207J945830P73390Q88883J82469j616764r50056
44277A427959E53951M30087J744775o21812b83501r66773A192364J100n05890
44268F87574M49216b32211k16091B160162r43227i68629p18945A42864e14871
44258b716822P97370A270667O15180q81635b70686n38996j041623q2703k81127
44249b215135k203024J721737m49780j312370i22317D20557b45732C30896a179439
44239a123059A196084J569012m02598K686393q04230q16128l81813j127234m68347
44230A451139b659090q42046J221020R40413N2247R0723J07305k085511q31799
44221d006738m91982M24777i21197C14657a558497p34929g63358r11054j025247
44212b699659l53047J44605J187705h21084k10934j414586O1121b65188G35684
44202b19236q67864k90028q13568m34849J162865J96682H22361J207392N81547
44193B611300j74681m96336n58315l18595J057960K34645K135332k18054j342802
44184B930454D61508a510978K04747R6082l83814D1301K901245j51320M92633
44175C283859J706773j013804j731085e70172k320971p94762j018285J930927
44167b773263J205388H18573J700375q89751Q9025P84040J022656j044070a79156
44157c064275J048296j791384k685423K29176b433255B423221J561030j007408
44149B976843j26616k54162p37005D20607a360340l289560q35699K699786m39390
44140c225203k282041j621601K135549J500549h92845A22616f44225I2740J352728
44131A445468O97521k30614D12153b081356K75436F82806L182963q38650n44254
44122B482865o67215m71721l88355i61154k293653J361355g21879j55607A198940
44112a075604l439579L85567i90586L77591L4120j325864o07538i10539M36839
44103d73700I51804K565367o16760r72644l11936l25607E24300p4658K483393
44094B933035p8162J97682J737657M7087j350225j291419j069863a021337I6790
44084B25031r5170O73693b97078j839991N25918D19890K12520j20120J010828
44075A523118l18210B94010J778011J819034K238645O5931j942292E36805d51875
44065E23496Q9881J163699m90890a199587P9611M19343A519293R83459m08679
44056B094073c75501j751820B77707J524553p78734f0222k49263D20831L00278
44047G21109a906253k308063j264432P33152J656514J030603R79001r26945P73536
44038a232887j71748j570390L19798H89389J295014E49646d10434F41241k82339
44029C58902a223650k707648r00737K201184A803490J980673A108736k59885J988486
44020B837337J10159g79813k341098J539704A201243R76854r70723a370845j337976
44011b708821O74486b09847A749050a097053j483112b27719B998287K599096p30924
44002D866459k044396m35288O42515L037Q10372J659342m91683k024641A287266
43992B735485H01434a02002j492429c01831a07960j689084j649708k01360h33704
43982E30059N82072E10151a260413j199822P36972J92163d28046a82038A044402
43972B022735a393403K55264n913a61999E26504A23413a606667q47582n3537J109430
43962a398356c18689r67481r43369A101478J865901G77931d57752m59770A068233
43952D05454a487505l39519j128144r61081J549907p9613J016121F33345e1637
43942e16072j610880k297320l75662J993859a360447q20102c38825A487990D9291
43932A80423K993068Q6013A196434n55943M86079J420335J401460N50182q84210
43923C614337k14210J28844G13516a453500a18610m2371A107863L60383a121311
43913a071569A700047K801387K85999j067396q50634J58810j049508m26599i55606
43903d473910n02595a788439C1109a27441r4131j89054j572533j883611a585300
43893B070874K484414A671407h16209A83103J364308R30585J647425k22717A424048
43883a473366L79692A50201L122826O38598r89757n09951R72100r37038Q28242
43874C275221A07928a170906E49449d12625m96675G53804K204324Q94968b01577
43864b464300a094250j80998e94834K58501E13J504163K77643g24022j553894
43855b277916a96065I42222K635326R99307l60453A577487J178743M3978G25866
43845C69143K563327J395762A071082E22929Q86769j93410e18539n33932A401254
43835C672302L98595j243462D83151i16990k19098k063866Q6069L04924a070236
43825E06578a189949j220963a96121A474091M45253d68861F41375K939408m28147
43816C152636p12476L66159n5736f37294m813937j722271j60460K015509J725958
43807c592495f16683A269513q1582B25153M52130c021954p77640f89140L40625
43798c48515m269996k013490O97892M38333J390008J874098P48586j171239J75666
43789b478657r58228n16086J469896g11746B3989h16551A65956J276497l61502
43780A080951C91186a470601J58682E80875O23161a740386o62086J010575k644547
43771d036444j876101J932818J897173J08024d42693B91574P3811d23105j086948
43762a510053a86713A258409O63214A56243a501242p95270j723934j542763O92039
43753d871170a563403B30960J508914P61241A189950g1068q39306d1649A706592
43743A362691C26209J940040N7270O69494L00623j009506C8424O663d82762j459741
43733a942503b6000B577433K956632j545641A816339m41292J46178k26211O89491
43724A984505K50435l18265H73621g48857F09316L431159j011983A424299L89266
43715A813565L337798k100907G94833h04062k139957m97666J386070P53179f24898
43705B07193K191578K136898j920831a670661j397820j306006J572627H52296
43696H68818a455002j372173a282113N77451I2387P31124K67912K07318j75640
43687A123101A68035K80134K259070J9690H01137m7950K00665n0763A87194a356683
43676b705687l22282P01747I7847J496749E44601J381290k22093b21780m28061
43667f49841n76187k854490o88026j140332q78279K664926a958198i18460q87601
43658a806061h70790G06922J352183I19291b071407K21052j584137j384470a620456
43648b87820p6370p26700p2106j52724j69063L55489j679502j755240k292263
43639f856299K30469K444691J660862a205767j353015j935123r42051N76688a975055
43629i95589d49952B00004J003470n60842a039502k715452P47278P89756j454856
43620c672776k60420J54777J15287p39971P96379a336928C80631A55405a75720
43610a520861j041270p71833J0880r6105J064574r25500K79017E69530a743946
43600c077946R41575g25495G71314L88824b43315l77449K05534A07257J15120
43591B22377Q08247J886957R88571G90947c081079P41122H29663J225393l49449
43582A705607N67507J079093A531281c5859H04541J266680m27278J550278J954250
43573E148471J646605M78157o90807k477725A528517c8625E04793K40446i13948
43563b305488r24304J538179j45472j95485N9310j550451J491885a22053D48036
43553A123083j71883A47588a77408j49351A318294Q93732k2029L12203q2922J43507
43543B562785m70719A19234P57835L285381p44010o69967j325542g60327J52320
43534f08007G85782a70288j377057b33612B54536K438175K429990J800785l451363
43525C472123c53461a21164G52019I1044f17921o23898c82029C87834N32905P49818
43515A670557J119247M82331K184122N55828q98470k73964B129739d75957k76013
43506g51970k15728L34839o44757Q7271L82145j489228P42782A160129K409050
43497C569179M17024k01807o99327A394869c259A47001e11903o63212j81694e23815
43486h75142J09385A540263Q19278n82239A01500J42614J566927l64937I9073
43476A33697c20922j619716O10181K8775j624779p31626L29161k45803Q83741
43467b690988j310573j782722J240935d33301n2891j652026n34545R74428j473655
43458c171990q75839J037992a175979j074431O60450L98306m09423P70283A068132
43448A233797N12906J439775r73654l54359j43429M05795l86711o11053B59063
43438i0508j445872j424174p10581j528835J914937a000048o04853d53445C377645
43428B979271I96300L9547K47066J13083l67938a382349l01266M88227C08612
43418A269372J680463A007406A92060N94498m857g67382b4252B383395K04221
43409B587616E59763B23772a310814L92888D573436J703840B021729D92290f90406
43399c15349I95814J145026J634842J309215k200253Q42440k95775B32301K11621
43390D43922a359970G4137J488462E26796b27369I7163c90138K0804k25810m15295
43380a010439o4809j026294P28467A153378j0888j45380L63360R09273l07915
43371A961828m53848J9625G26916L97972b16645k567483J373460D43860g03063
43361a6851H34167J137413J761210j742978b10400k012910O19528I20444A07353
43351a559240b78241o15164B04391J859438J250602I90023b361319m27227O72808
43342b115738j817317j874567K575602a466476O45528o74059j286611M22531a079064
43332g5595A983050M21520C56303K031925R05600Q29695J28383M01120j278982
43323C374044j552929A45074a453360p29956o52392Q05198j016270e90003G76093
43313b320694l485602q84083K201935J556307L39149M38578L81538c87709A422178
43303A608947K238629J475685B559026a98567j027173F61993c45995k90326E65296
43293E78405h74555A381654o41570A55238J493613J96729H26306G6386a621240
43283b774568j053348c01312B473319A153779B56691M48253L34022J827339J309990
43274D176295j553230A188179d41779j346199c09167I1163A7755J054593N05804
43265A578152P63642F06370B07319G07L08655N47149a052742j570426J273212
43256a349956f25448H81085l32605i89572j788985q1747Q4466L43377p3346g21609
43245A386697J328442j043993i90258k045746h30658A327040c11811A170166K576465
43236C746631j013603A202002o0482J687713A41036b353158j04798Q82562P23121
43227h52273j252759j214547J089162J087787L9980r03397N36020O53562J39069
43218f77396C1697K459811J275973j070554J577925K030415K16924k245717j087071
43209C189403J13643E88350a33870j114067k652733a907041h49101k18862n32822
43200a600785p3249p96004o18241a311300A331392J382344j009515a301094K27536
43191a073558n8556j157893O99489q01816L53055j67186h74133D57012g48610
43181a2798A62837R79650K02292N57415l30767a928022N53101L75154B62926K106494
43171B369420M65755Q16181L77568j214127K70895m67365A64041a020439A57752
43161A119318J45618n90864h05710E34305g4437m49453o09476d19077D70033K115179
43151B585212Q5559N33675H94133e98392j627217j782857J493503h4980A13526
43141a694282j367829J232748G85980K92907a884305j945643J254544j010235
43133c585639n27757L17240J383550i39678j05355A839978J328317B69930r7971
43124A71959P69575P68447L70562B38963K158881j148853a23723j515116k059557
43115c698396m56208J368631M9953a362738l47377g79490A002930l13239C11911
43105B59578M452157n99514j714128R71092l56046A16798i90692A167927K423762
43096C591689m44317A382617E95916a136479j207840k31417p37896R21513r20047
43087c312166j23767P62083A521648C74627b668397P45847h90219j50949I08024
43077B731287J648029L09028B343565G74332Q89932K024495Q50390l1380j065996
43068C441773M74527j500452i6150A062879g18351j97485d6110i797B741364J935404
43058D676768p10971j923681G99717J163424M89503A022891a241635b09736B160349
43048H02685e76878q10479p47979O97408j234030L76143c60867A944241b3993
43038a701341O83211k17668q09013i01636j082332l43988N5478L86154R31201
43029i55123j821288P7960P02998a33658b4226A207524J139865G12324l18197
43020C94127L68778C48141A47592M18633K71471J832887R15628J81133J282664
43011E050008k267014a153729k79936A129711Q62782p75491l59094k77764A42131
43001A942028J408544A638070a009007r86108q18029j046845a231783c41083k657295
42992b998378P3991a064395M55879j83217j468095O32764b45187E26977J360418
42983A887395C88877b858918m85936a95505A570578J081791J435674A803683e80496
42973b211532g65621G65405c13364r49265j321655L26122D83438Q7799a867218
42963g71937m35720k177461j36374l76541Q20081J19529p65332Q89644j109666
42954c943777l80304K097300j617394l08590J968650p0143q56904D41891J395737
42945A837628c96805j529275q24269o61064k46783k01101P18421a511754L70711
42936a141043C69742K118978p24142a340824p41251L40908G85438J202484J985903
42927C973825j543156A064386D64814e17030k187010p85996J543952q57128j906008
42918d709220r79335J610756a006375K20803F35460J741259J359064j086449E34724
42908D40472K367958A122276a383654c57160A428770J56590j69766d672k969830
42899b974502R19566A521737K048194j353817J004214K91276j025522G09452A70238
42889C80925J287418N75414F04324a294352d68917C08069b61712C520841J97347
42880C718188J112095O34435B405522I53252a055015k46322B289021p99406e59810
42870i36891r74971P77243H26428J569537K29509O23455P95959p22952n91132
42861B730804a480252K88758B52571J204506R08952J499049J140913m51850j252488
42852C301653j054637j023688h71982l617313j591130K282428B16535J758293
42844A974828B89531b415133i70656b09322n83984q52579M45810F80418J646855
42835B327273h081k097730j910352l96051J528626q0346j471961l89238J704378
42826c120755g72260o9395j471582P38441Q1719K57835e40726I04752K007618
42817B912370r01099d40338k416989A2137K861576a260514j236765F9473J400930
42808A470403R45780J727950K54685j810014a91834j544897F70108k45587N85561
42799A010082L048199J358625j679005H71838h37823A3049P66703B8483J06265
42790A34748a04416r25312K27969k25554j174652d00417A364818a078941k727430
42781c806371n32421J372548O95479k93304f31518b6878j661779F8112J026851
42772A094963J842462J143576m56709A431452g1990n236061k173214j19148Q97304
42763f703109J481830J96637K279156q21317j601475J808510A262101K590197
42755C852298q48357m99697M12234j390096f8007k11787A759768J001035R05249
42746C666052M73215j509140j168597e17590K55509A170587a312695q45709j608875
42737c767279J68474c50476B185911o23392J605942J136887q14981j174726Q28275
42728C143916m91612D72684L98276B07255f7696p72855k88761C43046K939627
42719C282673K402610j337284j695247j044389J65482a58014r33422A3757M76925
42710D90682J395530k61728B5498b2357j93713l82232m58613j405013k735735
42701e197663o55136K565801D2293J062256N31045J664486K9215K11093l2608
42692C507780A663413C14877A33127J390076J265260j110683G74070L15006r0688
42683I98388K510943J71708j546946I19828b079148e77321g3040j211968r16624
42674b201632j562421Q1901Q69325M88958B53808K060030B45630b500350l406714
42665e907064J264456b245275f02527B299040B31810b588385h32431A26340a020116
42655a240588d09213a07122F37188q3456Q0358P4646A47707c50732j73680r56116
42645a480528j818225j209286J562793a157812A462779F09981b813982J249085
42637a564897D03433J225760N46951o82338a518930j043017P9540R09963b05714
42627B425683M57678A409632R17759j130076L21398J003509j179491C45618a249038
42617a434731c36014A56785a497398j353613j079844n12493J705907R30272a59311
42607B52954a388689N99099j30038j182137j104321a017571J05663k015580M20653
42598b506835P73740Q65642k99287M74461A31492P91617K607632j60689F14788
42588G77983J21728O5822K261875o54292j282335l02336J657098N60094r20457
42579B285180M64757q70900K50343m01386g71971J16102A481326l22593c18048
42569a634098r52487J051301L40834c48798j857691k226825M11747J115600L19944
42560b586023m80038j073083a761179F37529K235753M74520K87072O03800m10249
42551C828425p68788B92105a537552D00854J089210P28951J833124A791672d6007
42541f49690O7348A359058K42604a083265r57942p21051J09864c37092A178950
42531A192457c085017n40907d54162I07743J449776a18738j536400l28593j509041
42522c492772m5164P0396J473720R78941F47979k82251d70549j675179i25075
42512a899650j405383R57368a88076A505469J160506j75710G73016a923322k315917
42503d239239K21464l58715k049438o15799K394727J665711a290217C54844e55502
42493A49506J858777m43566A66992M39002a856736O1876c16582j605700m56789
42484b379071b5348j243749j142013h59228F74639K532279o77536b49968l74475
42475f24443B09277i47714j272651L31767M52139j569873j357358J123915R20591
42466b319184j002058J377102G52049K623030l4185q82661L68689A230995g2768
42456e0659A263473K188729R68752k001366e41521A079404a63062k306460m006640
42447f476162J10755L103321J119196O20494L47479B88190O13581a550710j095667
42438b646377D58925J80100c320639k043831J020111f99811C874h11778J36387
42429f75391O5487n62695c36671j069245r04551E39152J454507L98249j059913
42420A331995C02563K33453J382579l34799j89503p1069b170562k240056J492861
42411b917757h23545A416897J592796n36484B52670c62427B758283o76534d48442
42401g25952m01166c51170H89928D19222c9837A109423B0074a003814j662269
42392b666083n04046J31730i73694r8780J55923H56732I1358a649665L88404j43182
42382a404443j86521a03410J0149m19876k090825J289367H81631P82559N88457
42373B252647f49226l956939L2696K183313b77989B88349a710971m68332O40132
42364a539171H68607J325044q55118C1926J476843O64886F41398k01516h27547
42354c984610J272199Q14887M49873G54622J734157J670750j425152I82728D77412
42344I41335P69468o09006N99299R43592k57724J316612L38127A637747K07777
42335A845524R70754n35490o80850e74121n88499C42840Q26575D11308N76268
42326I87576a457784j664301a393000l36277o30617J106969C9729J74540J696060
42317A910329d92140r05842n32747Q24810A580198m18627C22993J700889J567354
42308C591236j436411D77699P5394h68930O1683J16891E94357a72984M6241H98571
42297b62433L5520j70215j987650r04214o0999O23251j133517J680819C3109a114674
42286c281144J597259n1868j713297J566241c44141A018473J374719n64558n84682
42277A243952e78862j677233n58473M34318K29569g34422q4134q91902K87336
42268a423122j227001J320693F34428J967226M152736k30702k643376A358976
42259D72320m3510J6921M04896k06884a049985D17696K309318n92518E15890N11731
42249A027621E01690a0902j502143j276119e37233q12523j293587L15921k66647
42240b594069o73688p26158j7562Q80648Q8420J351363E47242Q95335R08618j134935
42230A216260b22466r21855j78557n84924P33321A648409j85383o69399A48483
42220c29419G58840J080749j91776D31853O98220J581710M0179o72376n74147
42211A505439P08793R629r30139J016651j63520F90249a879331k86447d54316
42201A947621J867503J517223J584009J863206j283883j731977k203893A672647
42192a61450A144841J216183q41814A79668d16505p92651H1999K31900R66019
42183A279918J99894f78303J22663C74478P62415L369947p59347D92001q7696
42174D04305J894865o03548a298891j685556M99657a091489B708262R40674A712423
42164I08826M07436F01628a226827l40243e37868L2048j597803d30824k24498
42155f55322j074300d94244n49763k021226O01691J155716N39912J15911k17062
42146h69065j306690P87040B552443O80323A513190g79918K94481H48943J20688
42137I69631d01544a70519F62066K275849J441837r24677k78798J000283O98582
42128D875142l06683n46715j166486j353018m56835J214477o93203B40198f75661
42118c48119n78508j344464k281615j35817a530356d46307J00689j707541q81337
42109b934496a378157A068606m93360a59481m44723n29130n79289k809204J521373
42100c000454Q38884G47999L35817D21034J420840j55866p61840l45886p8354
42091D99928g03721r75153N13176n57064A209173K698813r76533j307462J12137
42082A736128M85443J552270O00418q05254j344968k06111P7475J32174K037740
42073D265315K806282p66858j920628M49723Q1811o84952B093289A91906M66373
42064F58279J474390c58846j219318d86409j50821k738625R64589N19490f38274
42054e94345B91734b25351j289700m05917i51996A17374K126407p46950k30171
42045A266660L45379f41674q45919A19060d66318I6724J233772F14999M81294
42036A096293b91478D44721J246778K67796F69670a709529D29955j04458M06080
42027G31577L008069J761650j436086G04962L89459k51923A28512a18517A693108
42017C165532o76409a072382j317631J159399q26634c67032J27404r1498o20462
42008i51588j90324p57064A93939K200332J507317A752690o20357J109712m09642
41999A832403m99900l89341l35788J964677J026921L68910j306565A264052b752572
41989d257978J764334F8400g32858j524065h18519a64084L333j346095L74759
41980a132087B343798M6081j147996K20609c07615j199355l09252H73330J117192
41971A990522Q22812A324336D8324c24349j471339m02639j304809M49544J201814
41962a851778n16968j20002p69495K53861J060959C0268L82873d27577j46678
41953e74255J55540j429683o12817j271629l783078K246814R64315N15160m27980
41944d217613J431420b59346A561613g7653k555075O7932A50226g17710k687105
41935c404815p69178J316333d3969B276964N96477j147940B78951L59182J280130
41926A918263J434353l10412j54588H28689a218049A395021M199443o11153r30227
41917D053084J527038N17667J159818j845547A927263b5516k843002a245342N66556
41908f78786l12016B52018J18476b70266m60997a20108B056871Q80841q54273
41899B083439C91332e73230O4779A024508d12710j592905j172635j493688p54420
41890e426358K253929J119786P00966M77782l07651j912387K0820K90128j70090
41881b953075a251610c9853B604335o43210e06953A20017a598832k6632a10876
41871A497694Q29152b62124o94996d59611H93478l15082P65531K046072J866208
41862E256207r66917B125246C75440b747308q340k18091M12049R69247e67693
41852f00723H2628J914516r56185J493907n79999C1376c70976n93885A491616
41842A876889D3554a478488L95790o66106c48976A83009f7391G94172A40610J566320
41832A706930J54823a579178K00156L31132n57926g28493o30469K74252A474143
41822B764094m74752r66058n02776k2757c30449j86006B840167N51992A213327
41812C81761J679050K843993m59618j340646A066612c9978q02998j460673j51453
41803b455102a114587A016090G7852a723291p05487J93256N4537r1336E1707b12830
41792a137906A338433A15467g02556h0747H51412l88726J123891m35347i17146
41782b74421q69986e14708J24195o36170C80885d2387l11704E27783N32408a35022
41771B19910J600550N57268J587759O04160k083354A065466a070158D01808j47776
41762B54032M95604P54569c13580q1808B701309L624833m3186J246867q58432
41753F671391l161499G62860a543792j430773b94012D44027h94032E90557h08869
41743a597078j252042J000363F6796K451766M33459A442382P21210K610939N49797
41734E324328B003601F67061J563866A06544a902127h50295A356508O21888J22166
41725B100562D62061b28128k92504l297432M66703a614351n30866b54677C43945
41715f14886K87769A026206J364974l91748B58384b1628C31315J97229J815034
41706B343578j055693K74575M69338a60319n64410A03995J686385l64883i26672
41696b555617E10978J197761f91709k45816H79174D04092J253235J222831J64527
41687C044685K14581J30254j035085e44420k057816O79713J9916c11994j234340
41678a546334k387137K68681J007039f17652G64294h9642E44109J821418J800878
41669D166405r49469B25442e94251b16138j38994l19157A515855K196630n63352
41660C149133A460995F53171a61417D49454c85311A338633J73771F4245L96962
41651D61207h69729j002348j213802n34926O58367J476344j986239n37055a128415
41641a002498M58896j48479C026804K750447j550684P81991B151933a970020j540169
41632c510189a529941F71714R69957P70190k34696Q62772D99762b262161o63688
41623b925849i80545F15833L48653b70067j768788A030643K313442r17218d16142
41613d79470N6395j302979J32063J88748j79124p07397j636145J694931L91959
41604a841019r56376J339474a27230n28476p49189n70496k49613h01407f8185
41594g06616k23716a74509e2051k487041J034607A454938M38540I29489R81677
41585A911166E03228i35366j240553e51665B211633K444429k296718l917J444794
41576C800221j331093N09488M84172j618950m8977E83023g27300A65123J81921
41567C47044M354328J646923C051274b29354C13206e24963m9529B183189J76662
41558B359851q44176E89137a025600E26820R91075N78319M25264n22805J799912
41549C798585J919167k14654j55574j434513j715112R28903J081997q91189b4180
41539i53176K46891C5899b17994C97344K401303o91926O47644H61163J73252j99122
41529H35293F5464J95368a78202l72576a13440B509930O9922p30565D89723a337598
41518b354690O83061B79552J709358J729484j278029A061072J610230A191738
41509h60055A845895J869642Q70691j613921G38480i31753j550122j948839O16055
41500c814659A22008K070154P96759A52674a707491d06948B221740l42251b05636
41490H92624Q39035j94797E40874E9898k6979b143336j96489d3099G89053N86020
41480A375073J595565k66860p31067G95830J62818P64101c0547j995949l30393
41471b356889M7955p15589h27989a36220l51307C8885J513521L94631K61315i1404
41460c680825q2180a652454B401306m74601b127605f74167B569177j99325K18305
41451B588157J474266j505614E82223a19715j362054k356144n91720O77068J367531
41442b385034p84608c99147A243224b36184j474443j806022J476201k53233i74372
41432A387217K47602D58047b66252j23398n34034a57543A870991F22466b386727
41422c761960f40039A450889R76605M29321a024673j741250L93342K05770O41222
41413a525589O95597J75861m84799N27097C301853j080393f8148k055067p40024
41404b863239K57259p28690m52376P77821J135770P92565k33159A537723M289493
41395E827216J101874j826449j773254I12042a219390j986840p41357j567076
41387e514663j557917K058407a410129l32518r57412L03805c13024k3922k428862
41378b765808k483007b480060a26966l38868M5246l14152j180556m4126R48008
41369a011414j579203K79883e59836n26082A056876R74587G32292c68123A141438
41359c17162m56191j63709A141905N92052f68781k78631m98958B54198Q69195
41350A123393J105184F25788i73255B17802K31019h97918K12621D29604j86857
41341B42747a279944o68952f59550j009440e79221J26589j695144j914867J585547
41332b477096M44590j291764Q34459d292A632379E43788i158p62045b75355g0707
41321e11919K24596k856821P07608g23011B30276a23729p48961b45832A409570
41311H96587j53324J001927H2942b761682j981770P91867a542435a88070C43993
41301A13376a381496j690403J62723R29361a6380B664086L51827j445241b189727
41291b813516H40128N54330D8420b150452o74991i35511A282113J256117G83983
41281g26048r02100l42121d33781a01570k47590j541703Q21004p83488j648391
41272c501738P78983N00737o57442Q33455L27P53185I31286a50277j067524e85285
41261A482648n53668M96449b78317j676614D74834L69781O62817f37596l359879
41252c997475j642335J45134n62385K824162r1349k711275L45080b242848a021125
41242c353401k490657O83680J506490M42180j022877k16971a561315H55227a183401
41232b920048j664385j971321K66073K802956N86944M29445P81806k29271K4089
41223a893712g46858G28739P04981n47082f14768j137065j074731K86230a90095
41213B673980K93441j190245D64205i71131j116847r18504R34839M57628j81512
41204a795527R818p27422j591773o36375J004883J599307d10985H20030a75147
41194a643465j192664L14568e59913B347029G75015l86735K863322j13258F45410
41184i71245l76145K30127A223980L53050m60820J043514M0155C467b153008L60670
41174a792338N56180f15481A84385a268745M03621A77777f55115K14690o48399
41165a088824l712940J479784a010050o16388h3050C431530j31866J57066l71516
41156C085214A160343H114a355980j289113j125828k42328k13690b071692A406514
41146C499472l25692D13976a233023k29727j898217J241372L64288l69835q38851
41137b963993J142044e85103j145136M47604F49558I0526O22840J477042q98353
41128A292055M81978J178887J824741q02956j088910r94986H87713a341899p88970
41119b130869J35098j926370J883996A103987j75956c07320l184525N13865d58247
41109i53949j374823k01694k140822P57523J938066f74600p24421j002987L86154
41100b015854A47438J852386b01185n51474m95836A693775J054395D70965i18753
41090a436798P5277l117667j334688b138542B76025n7106a746695j264628j95983
41081c207306F74L144702N05604j491735L64617P38601D35775a726803n74217
41072b301020J29694M09146l236730k328959b053244F34239N07123b14906l26111
41063e41017l78353B16804f63658j345485j791007l23484J486434R43519P02942
41054i90739J09961F07432J617012J935277A945344a177500o06714j020244a097388
41044E96306f24425k52913j82262C70074h63092j568620A6995M587145Q22811
41035E426951k655410A303709D36160j06143a447212q83711J67497F4893K962494
41026C027387J78966r83538G28424J141555o68028n60543J307614l86410F87454
41016C83586J477038K54603E56215A21698a65160l54563b33176H39129D19164
41006I39466e66843E15138a54248j995248N6580m79077e11447j427546p10971
40997b649964m71427j61773i99721A751838j59573a105159j264024j68924i68094
40987B85810F4129f59801j224224Q95527b40302j50333J31777A168564D76618
40977C99209I646a165542o1388r38874j107257O5532J416179A316351K207431
40968C523782q0196k11053M9309A573020A19154a176630k542920n65630a172069
40958A353703J294553A127059f33065j851907M46177N11319J82828j27659J46169
40949a326138k63119k64151d74146j13180j382383l2952A910669K334439A428403
40939b19769j57132q53038n91346N67478p97511I87962K983577o08096A515925
40929B316131J442747l43891j696887F7560b431038o23698g64770I82780R7805
40920A080585l03292d07412J00029j81097l110827l47373a857314j11536p6367
40911b045217j932730J613070I43106P55449J6941R1238K573456J71522n56150
40902C995562K3497p00507P005r47581A169593J651595j9290j356772F02160J518089
40892B120249N30110o47675B44611e38305j101915j011955j923055P68968a859963
40882a875584g37174B035995J604894q38727A166907k60865L164381m20260m6207
40873C603956r67183n50760F19069b25396k557294j235290a112423D30076P25632
40864A155708a325482k394186m75531J154577J60983a152920J86882C23374J056717
40855A380091F18431r128R01640K02804a109856n05732p72618R60415d1285p3489
40845a14774J1626j416815M0201r64313p69110N28247J088774f8308m55352n86692
40835a110352l774693j027540J681503O32785M74039a456934J6774m97324B18120
40825C310048J000441j125052A236067B05394K411308J269292R05943B050521
40816D93623M65903J007584q32475K64450b86615k872189a498009d12431m30351
40807h42782C36593L104780P56542L02585N31798L34971j269859q49740O33930
40798C881600K115030L76271j722546B11408c277375Q75768o27601l08866N40242
40789b797832J197638D13230J157817K98760j49026J533434J461187j217846A467724
40779a279286q85358n83939J44233j888276R94310f90923B19562J263309n56550
40770I26321M28014Q87050E86262a597630M48477e9575B30008O47766A76921P07656
40760H84577j14499J41980L02446J564279O21521n15509I77919a873420P48653
40751a124767N05323j911417J86703R38693K71314p402r26064d35367A852251
40741A494479J355543L25639n78534A2380b04063G63281l28913R34620o48714
40732G20274J855460J987600j449366H39092c49842A26077M13829P64470E54172
40722A621487J062456h36510r91630j691170j610815K032757J332673N9718b12714
40712e70577E57483K106731J594190n38826j661841o74328L36266E94676N88623
40703A183299K246738R63523o9242r45862j195851n32649C40321j58991J111789
40694A293119O36256K23602j26214L05463K237159J865747q64282j079419j064934
40685C426497A525371k41661J119741C45358c876986j719639K508909a273310
40676a910505A132426M10116j63983J840554p03655F13540d44873j328533j421795
40667c195201Q52009N08634C1102a282578p84833h34180k40277b33676I00744
40657A930628K006053j381796a535547O50043j17098p14969q54346i94900b873
40647B74956M51543i55547j211044Q64106e67045j68839B63853a323615k186777
40638c510392a158918P7059m59012n37425q032o5147j32637i61979j736138J46675
40628b551442A083075a311050J80348n48694o08337c37716l83377K82793P1782
40619c66518E02840N3686d0096F41076J423478k11420J205545r12608G55458l44595
40609D10863a227901L20181l1744c17852H30654P88374F5149a246755m05163L94034
40599a257884j692351n53180J453474f29755k87614l85938b11534r9107m80205
40590g90846k185712j353585Q03807L93663o73809m91665o93297N14172J664860
40581b812412a302575B93840R30438K13211O50140K501979j13116k089302j14990
40572B272200A18680N83213J812003R25265K080279K74286r81259k83600q37872
40563C690995k6265K172259O32375j909372j940179a357217j936788j99932Q32922
40554b661015O99966L70646N89550j060556j193466O74857H69978K506468J440670
40545D817116r72498l86740l72169p16788F27356b58309j448763Q50739D40549
40535E25143a063789j79670k37818l35628K88585N83561o4584j581786k71091
40526b862220M16706q40846L70776J378106q8561n55316P64805M04771C29853
40516B883019p24738F92106h90906k100851l85075j176590O34960N65896a138538
40506b294327p5463p0517l52758p12987j531998J608820J232656J062308q19011
40497a953277j080872f75939l94661h9014D732c100191j275452g64459D29462
40487A33665P00803j27635M26050c263526k662053M18977J128347k32803J211950
40478c399108J245017h13141c4799A379736E1310a162558n55122p44241a108988
40468A69655J799264J488050L63264A140471a718147H2657L81736i49206j429654
40459b378860j031138J346966l33165k070358J302198f76132A698872J309838
40451C008710J85934q18902j79138C6998b207211i27910C815676J469193j628845
40442C656024j561399a614502m62397D05181N32095K332915O45119A393369c4924
40432A141715J220697G67443J940262J020819q78086j047075f5511l162532j385298
40423d613341K007728D02598O03375E8006b886433N12368J015171j685745j863399
40414d908038J160811a360399j307520j964107l28170j787946O58668c021385
40405a992084n52632j141104j52702c23967r80829k260679J153706O1968j451274
40396c801075N60294a204354A541877Q08748j57042N74340J255057o38062b74817
40386a775418n40652k392165N03195J979924H6928J97379K349410J320374j871518
40377B082573o50958Q07432R9685a297255k505710J321008h14403A22270P61953
40368H84223A28897b49913A434190m06668B76710a066568h2155H98514J080656
40359A979170n94856c62727k7795A647768o92788j07947J515767A043763C96049
40349g00030m83434a19165A956887N44236A014103M50222B06983P60642J288710
40340B256335J199365o39231G18795J69619l84819a525091g01474F68659a867481
40330c732438K08906a453540A153908B52247c147457l74345L48404a235744d30909
40320i46694k3973K72877B58842a78512p68288M5132k20745j300137c26977E81696
40309a26615l79063A035161J341194A51971c02209A482678l45316d29381C23683
40299a60276A78918J72787K925608K347941O19836r53621k204328A177109D99882
40289C40958b23985A463179r6463a373893q03370L02572O27782m31493M8187A742657
40278B878063A391398d94481j128968j501595J113653A869284o04160a025552
40269a610043A99215L0186b763446R139R29908Q81710c44876F55525N64149d967
40258C39845J153143L7146j86109J067267J673348K75989j332426E93340p3429
40249E19911j69573a92957j342158r16016j415729a922875I28761J86701a124200
40239a045784a35201E16037k05786O62282k36584J250362L055536K20961k402370
40230B860438n00670j81823A68637h55228m65357c61922G37849m1614a70971K3608
40220a47363k02934p88931k489369p17215j47563J333505J576603c15791j350472
40211a666263j054529b94408A588504G50304l6484K265170m67714a21791r12140
40202a033931A45003h9674j192080k34962r83938j652704M48610q24545J947791
40193b581502e54815j77359R5993A592370c99584k476377M77634h62361H31391
40183A527107a212766j307243h53005B357966j177663a343772b5831A783218k4708
40174A758510J094976H08439J3550J58686A37667J038237O55048p22752a459738
40164a110189A69298b248164j56492D8142J108324N35846F02057i89308A64190
40154D667434j385112G81432a686078j808765P29829c07704I20338g26299L18793
40145d07506D06244N38751k99740M45424b48932m90350A035308l35362f27299
40135f37359b70194A557488A61791J630672O27602F03608J250947J569563J439869
40126D863987n4693j526571q7324j496994n37248J43615J156761J099887J648515
40117E209935P22010L64918o48984k245214j588305a431921j953872r20316r10645
40108e216754Q26234j20915J070032O91779P77996M99386r8688n88653h70680
40098h44629B66366J372464E19122h75169j252456k490544r14007K042411a686548
40088b285543J10096j26997J15830k132739Q90024g85647j542794a156769d67386
40078a108874A213393J994028A108171B02250J222969P19592m41080c02491C8652
40068F40881J183689J640419B81571a633145k024595J39909a210587E55575A76843
40058G57612k56281L11799k87703B0089O3649i93463p44800h09074E54695c33796
40047E81184K479831R91246K21010B72219e82150A818898L159567K019018k356690
40038D640793j723506R77764B65228a654622B94247J861460L83660r43631J215501
40029B811237l53566j114205Q79708p79459p16550J177012K839492K138187j914677
40020D967179k171601A354853l21682L33084J352472E91131a928721K17456m25216
40011b136481l351158j213093J637743b237139f38553I57516c48312o69561K06006
40002h11867L70798A266686C9046b353004a099476A491439B92934L20210j4098
39993E99046k76500d84354B070112r82373f25585n98992n69509m68028q52464
39984c114578J03416M41007p2574Q56864d82628j42278O9706j400089J00566G76698
39973d02744q18669l79972C58583J621691m79383m40893d10300l54900n15593
39964a280793k424090a729642B493373l22371B41152J103478J409518a680256
39955c417491O44429m17902f09167E00791J50362a46546j734846N8458h40569
39945d93459j297767j42062d57038B82247Q47691J21321h16540a92101j48522
39936c40623j84069A331394N41113c41244j592242N46582n02572r15560l67322
39927c172358G0906J478018B40243d61038j179264p1242E73544Q64248a385984
39917b357893a87469F84201j58178i2511I91271B18906i20003I64445K259305
39908C223750r5932B44052f98542k03664A628151k57078n87300d12935j029713
39899a442648A285998J672633A079151O36924q55268a54736C40512Q70906J81601
39890A393019b36381j504678E09817O3403h21080j688723j017347a308625F32873
39880F85066e83437j336527j016309j521213j625890o37928b815464e89185r67794
39871a556979d80353m25562k57210D37344J636473p56661l29410c13580Q814A000994
39860C12426a104550k21741k078716K28826K7110j44840J241849n12505j322427
39851c886994o33504L3412j371550j70748J274625J053383K36160O21026a037046
39841A85897N35638M74623g37450b68632l81744o95015k595432J696786B856213
39831C096312M9324K450704M25031r62073j601334A504466C61432J443783J208649
39822C013864I93485b22858J02186C63225J896220c46475l399139M76486a254127
39812H96523J699278j3035M13634K192100Q11490B754108j18488J899558j19525
39803D415653j120294q3156j462894J221901j401589b00643j41173j365783L74671
39794a332928I71894K803627j135884I21057m34711e92032B9026h79334j909841
39785b789175k477257j48016a832526A582678L70482r20554J042112p40123B73547
39775A149047N60541F81038f56049j719846c07517A438289A62963b759242K70482
39766b488760h3395o71735j433107r31333j454g87354G70093a589685j838505
39757c428190j105603r8412a508163A452854J228770j031966f23762j202239d29406
39747d74916k352617m08684m12617J758460B527587j149337D32949L94930a314910
39737d134299l73806P39380J093929l0418J098548f44055P2964k055487k591323
39728e217901J214747J717557N6418L46922M7432M00461D25012B11509a671845
39718c000242P08315K44067d97506C145262K053463R62049j199207B202925b67765
39708a591714D82060N25137B61451M09395h97492c67517A683697C29621h94629
39698b467545L49823R59738F618a643132o55236m04256k95589f02032C42801k6517
39688C16284J188490K45395J235195l24741F77986l33895a664482j502539a560161
39678g38064J12174b19627E08447Q21770J62115B58200f26757k149138j196707
39669c972602J36319q24237Q46784J603707B92857c118991j515129J022585a125073
39659a407636j218394r67499K14410a196641J89763E3639K0783L94691a129793
39649b740758h8485A368661P08210J471743J653987k29095B350985E28479a82334
39639B846778J133428C66506J477817K459485j981528L44491o5591n03981E93823
39629g84013O3842G90595O89641J46735D21829e43678C183133J783427j618928
39620C347632A99804q5889J322753E69509k20854J547695J238604J848333j057617
39611C925670j938319r0651F34214c83869j650787Q47991B11488L23418a056766
39601a034625F65716J91751f46354j493831O35227e38725E288R02992a201703
39591e93953E99466a182586J50001H1952J49268N35184a515805j167915J57841
39582b525879j210406K90586J145439a130333C07790f65773I1644J073043P25972
39573A890659R497f49279j401590N10105J00291q169A640751M41504D4371L81577
39563D25948L02346b79218a27241I16977B52920h48473p85813P08906j829982
39554b755362l6182j291435j501931Q15066K168411J236454O72526A524305P77440
39545B301745A061835J785721q94050r13842e24838j569351J83155D798M45960
39536D50758Q5762K190868q09804G89252c503473k563383N32893P1396b218547
39526D69319J963900J747333l45816j866796L58900Q97297j021842b67009A130944
39516C225595A512466i76643l14052A671164Q23541p00389G53478e94723j038623
39507a633346j468604n87331a680932A394381J960554A419523j34553M11119R3279
39498A789368d97067r81200Q8699q00694C75752g68566k622229j021969j091113
39489e503877n83085J494027a904007A13524L293167N52289p31825K78464A566537
39479B010986B75234c385313p37122M90005J792358N32745l14340m47907k22391
39470b291965h62381F38183J238683K43514j87146N75773K0088l18477j090815
39461A119803J164726N77746j047286F27290O68898J293399p13794J390203J064094
39452D330090j356769K49214j430191A01776i55250d0182A845522P05281o7978
39443B482825n47733N01643l46968p51194m39737j8813c4545q07602o25387j7062
39433a484596b70451A456218J515989O01530A430677J079733J579674R50877B453716
39423C189235K134747j427962N6989j15349j064087r69425f93731m21121d03551
39413A705032J798893O7457j11923A470219a184470p14348a00168F79050R56087
39404A635137d51469k009098a188629G23712L014861l1606m65905j157106b54613
39394B26287f61245e6381B499895m81274r16346N86330L440265j523760A432441
39384I45008d72888l619066J77287k39139q00531k76290j44393K001684j658360
39375e031696j60216J538802Q26617q52401J29440d78232A029702K974845q65892
39366C138655j94084A080876m79691J067441G86577a009107L60464B54884e18551
39356b121349c37300A046945K205716L15823A294724B16693i99915C61998J396587
39347A758585B38590a023875l99981M42433J88132B83836F1457a420707j22954
39338a543661e85331A645596o74889l93903N28323c69979o5686I99236d91900
39328A93548K789798j253687B795O65742O87395e3398n56486A206150J735883
39319B942033J402366j557647g94664j255608d42117r0624J60325I71553i34430
39309c028589J022934R13573q50761j371542O17360k7302R39416J08707k766183
39300d442387J461461E85796A98678b699256l71548p06326J727382A161820L01056
39291A462876a389431j267250A56587L446452N83690A474840E79275f52645j153504
39282a806149r52603k36316M41969k640425K29774J695139J506401k65031O84579
39273a342662A66575f1880j677707k98371h63931A47664g440q4009k67644B349319
39262B578788a433112j912341a594136c82972d0425F76015a28473r66546p19715
39253a814734r2773K19686m10760q86728Q83764b33202E31520Q02103O68540E37685
39242G42131k0591B42528I5220h07915a1488D56554L71755a607266o1430A14523
39231C79830M22649c79141j315956o24331R58523A32692E959a519511r34351M77514
39221a976348i08283B63305J418138B65247a414004j361579o76196p24074K73625
39212c902228j30335P40632J503525G30849a825901l338093Q53035a643331H70444
39202B375536r90823J80244m02018a698665k331632j451879K92224K496508P89229
39193a904215j91478O9806L98252b14408i2986k58150j023867A358856K320175
39184C679031j000888A016913A17087b203703m17576a66348l98739C4506b758985
39174e475323J663732G411d4602D15920O65217A33366a021110d65967k016647
39165b482614j796468K041154c30353A380456J592902K29467r20578J11878j100799
39156A293326j94406B26883b150053k373850J214460N81114k706190J305775g39975
39146i33807m26351H83809Q62106k08887r0111J909790O90755A004284C26171
39136A077599a650429k161856l28057e72822k59220K65822A456786L80339n98206
39127A238919j46480J093267J04968p27219N14126G27926h81233M8113m81376
39118a314496l28678j074788J306743A064057M77930J476393A483900a58609j503777
39109a662386N17576K50638m43223F9022L654177R31452n70980L18731j604190
39100B798212e32711j721296Q03237A183945N42546M45518p26993E23119d13921
39090E18986J885229p01601K54873N76850n77037q11387h25822B71981N04484
39081G76465c2939C29190G2322g56065q2046A776073J69235C67236b237351K1984
39071b215367C7026K93926f93162k183163j296172J713711N46640k67581i36316
39061B64591K94750Q08206K34650H7670a04091j28024j100693q28325j127782
39052c288915K18307j136746a596322H13024m1123K16736c3282H74178J549259
39043B423437J3503r63397M24941q55576O5392J008344m97534B97557f0605j13199
39033a73804A383874J352746b3376A41622K256615J172416q80142j294329e34625
39023f61238j796454l1109L9683C95199K593428F74076a608749O55050A198598
39013a269866j941150n06725l28910R63981m54875L5276J507770g7068j884624
39004a961692O50290A240368K318448j107701j192581L92385a40861F3184M077936
38995D141120n10321A21616a199368c76437k157467k58724o29118q41718r68798
38986e232262J021934J796796m14614q75436l39322o84167q02084J738085L50132
38977c440938P125R41646R22172M40408k606338j946235K802073a357900a06155
38967G11013J780808q46802k55810i12666n84577J41185n50117L40696j755657
38958c321136K58935g88698B595136K401671B144115c269653j829004l16044J329616
38949d085085L57292J121311a066026d88546G28191J260168R67865k82278L46343
38940C020289j024442E20202a509996M22463e04081k06172b22414q35990j435661
38931b494065a60328o97269d26666q35045k836473J284588e43540A508614q5590
38922A423024j51714C49618g52065j392128k183493M83920j714903J370619P29144
38913c458906m49500a612294A430428J961062o27306j351102K13066K60052H11418
38903D46364d11480l48420A454232J350577k98393E01650A4847K116737M67327
38894B598911A092817R44189N72041p30965K18041o03073A03763P27509O90763
38885A522035D87814b127369m14389G27905k75729b95223B93984j0977a92917
38875A286414C04083J834700N65704Q86028O7847A608644p49792b5444A48538
38865A085798Q28999J083939A032690g10427k84709M29396a34669j403674f86499
38855E23043P0618A90218J106009J489505p44441i48714j26885J82547k182056
38846c075108K36244J14653k000965j789034J47081K472422a071660n86596D67587
38836A403605p7966h37119j215167c02179k908j12916m59391m70406j693967l66223
38826c407990K7789J019899k52546q56492J45614J333161Q08576j116665o53455
38817b952109a358309i3463m24591A251371F24495d14453I2379J069358a102370
38807i83282K85489k493538a291088H65937J066980J779058l2383E5426h93049
38797a19117j766085q56499J294912l23790h25704A59896N57671B97112F4740
38787a652589k789730J26244O19115J169035e48355H8046D1639K070037n14149
38778A597527E5866a251D38661J106044L84084n82318a250690j653100a045387
38768A563037K352318J65410r41821p89581K095173M04039j979853j420636E62514
38758B083754K612240K62393k212470j328032J804030O63949A851322n60662n56716
38749G33944l60185b60259j366743O4738F14103k08603c38292A130076P47271
38740A877347J081029r16015b6857H57511h18951k305888l87522N52944N89909
38731b369508J164638n36288e43638A877735O51674J311262H07985a281081j129407
38722b410488g43961C02118d15548j256415p33563K60195N05367k783541J378686
38713c044819b68276J03593E79559K340338R43090N21314j489374E08494a215156
38703c131685J462028n72656n78744P08841L72325c78333A11673n4078L467368
38694C524963j57207j410159F18212a297458M54388I20060L11563e7549A069734
38684A384826A3993L594610J46439a090820m567733m34730K191661d14023A251709
38674A210149f7490A023885e26109j495579B51N91249g12282j062924E40718J33567
38664F74285a822107o9640A440347K336831O06268j441079j424978J65468J698975
38655C381832O26499p45359j203108j72398f47481k202846P82070D32130Q61387
38646A293517J08119c08849m03859l07703G4358g42012K64598A576177M1196J43186
38636A760559J67702O88536r02753A5778b834745k065789J260429A010333L4956
38627A045289a787282l41396O21822A482750J425098A323292F51136b66147k456364
38618b722511j695862J174726H74155M93107a834B06297M3344M091J992377J654363
38608C900472K227420Q62520k073776j230611J493210q35242A555815Q31805M51459
38599B839079j406982o85722p6664I5794a305144k03539k996699j755931K762127
38590c499186J745704K10075j77611h50997k69842q01080e21932h1097q91115
38581i72212k85837B75064J248127p10076a972127j649919J241795R23972d27263
38571b859484j141633J169432a296043F53609J701007e5283l292581l53740Q75678
38562b825926l22327l09577Q78102e11557K31158j020796j320307N29250f99212
38552c49244j065713k952420p03635k52764m26819J077237J426852K04941l41677
38543c383242J318454A52831L430841A625684E0213J22909g06148C16814P82199
38534A099013f75862q37966r94617d68084D84674I0000K12652L63514r3384b463479
38523b063241B06991g65014o55731m75263k418765R34798N17151k824348j457575
38514g144747b784016R27291k075205J901993h00650J83660F48105J494349q1370
38505B061084j54495N66120K712881J448101j022875p14341j748243J524276k41695
38496D430813j477665H94391F8152i39542j613489o32170k06683Q71858r84366
38487c504392k690472c089860I86220A97283f27334k144669k854869J970703a694526
38477a240893c65516A053826j94657K71527J023247I45894h2555j646953l62377
38468b091885a54153p12580J87792j285544P87066A641976o57981j52089R3237
38459I25143R2260k65818d75820j45066o99715c08933H13439B0658O03161K955899
38449C579718J248422k269910q04000L74226F26161h10345C40512d64950j448678
38440a913628j06586M81993k89596l86798i00649j05778j279035n24549J143341
38431a666670k262571O94346b06515j068746r57594M35721c98378H35659J396013
38422B231672j009883a334530J65006r97075k030356j136987J211451j379133
38414e501624p7655J556977J231640J359842B2053L007883R89708q6588q70138
38405C062918G41849B71079j13392J477451J265061K639487q91661k246165E14719
38395A270897O46012E90100a91257A223633j34447n02902O53163K89502b75877
38385h62374A9754J10887g19946j432337k792280j021896a801019N58537k085894
38376c328376Q81146g72305g465A952486E00535a162685e199B039304J002611
38367C041915P18761P18438K81377j101598p351b38651k258319R67184r5825N69933
38357a055678q86767R33863A655196R79390D33084a834067q24726m04499k35416
38348c298708a281412O36914k064194k343836J288694a770319m92203j331035
38340c593557R56921O51498d67344A540699P19263l23659o71889D65846f29643
38330a320029j672415Q61847J11919j039791M1961L81345b68310B060258n82367
38321A477891l41648J549724p52992E06451a163033G09852O65201L37840Q07306
38312B520199j91671H56324c89210j412473a38861B545126K6778J557911J925560
38303F055375B205973B60872K30399h75918d5689A804331K977341p72298j672484
38294B336890r34474k4188l14108g93640k018775k556229j063123k17760K123357
38285d526170F92987j35665b233734j030665l71455J028914q038O31317L95430
38276a588231L93887c67674e7686H04557L176802p82255A053002c304668j481369
38267d786037K033778J01789K76451n90802b74060G42693A94875J89061c63883
38257f27434B558759o05543f19069r47073L66226k634o10127B62531J132926h92131
38246a864747j055279R08130b79352A377771a153915k810370L3587d75097I97507
38236F28256a021806j588639o06033o3571a639767j639838j795567J482951L29042
38227c263179l79512h55339m0632q27459L82411A615511J56696A75635f7529l20112
38217c87641j605012j763311j112127b084744F85715J152330J776849n20373n98774
38208B495747n53827J75402r16402i31417r03862q65700k17548a147541B20811
38198I58958A04898a678633n50834k022824o18138K064798c29716k43969B25171
38188I43161e30167j713023b49167A502145O75318J641626j554731H21126a439121
38178a260360k43491r92472j521422a725292E43791O30096K28812j78966a529801
38168c807880k500009K952080A556118J32164o57312b52794B014389p86876a159571
38158B61001J79942o8336J681715m15078J325860o95937k33595J236421H82603
38148A877042J848616j532659m31290L04334J8746K67626J270967K548318L731
38139F175431k267417n19092N85057j306407C83621c664248j968030K213245h91299
38129G16340J39228N60253F57852K27446J84746d62910C29062D2443Q60224a237802
38118c598944a760561F41377O44987m38802a4938l3376p93387n64138A21994J66390
38108B88384a680568a16787A691273a143749q03870P38556E20651J653980i91128
38098c271892J20798J410617j286263O14290l44256j17703K99338i25407m37481
38089a362888j394604R62996J65700M30612j996420M20386R97743E50145a5045
38079a944547M49889d79121m85326A20497e41199j024427G54302R5732p8809J69371
38069I40596Q31997a010775k922060Q68788J171136p22059m7369E10476J766124
38060B276600A039340J426951p8661f71016j015918J66289P03128A934528B51509
38050a354047j351562n37480J154329A519K439239p35476D89099M27848B42017
38040b459389k112143J305913R05431K53178m46634e66838C13935a739461K48675
38031a490786B21258J959062D39543a339407j291091K6m75175O71129a135084
38021c66274l54886m85165r82016Q32885B737648Q1810H67804A77420R27052g2979
38010b521510A173479M171178k454114a37583A879841P34206E84609b003273q56190
38001b859463J56982b31377j084348O56664a01358j310345K80124K29499K57045
37992f45035l827430k590522R11813a604017A735259o71432L60138o86135c23571
37982I4071b164298M95545e52324H87226J715258H39485j96199a118071E04889
37972A106565a071041j275044o0861m82090r57888J362745R96175K35516a03085
37962I55876o7639l6635b83552k373645J206095G9431Q05489k50527A52766g68295
37951c310176J87921j231717L2826M64955m19518Q55507a494776j621398P79927
37942b336247A986946J61503A012643K59845i0919D71788O53058A25933a815757
37932a460747l00453K75367A669006N1850A07311L306992J718450r69330A500134
37922b00490M3204j775499Q77381L43482E87387J823306H07530a931717o21139
37913b552856L32134J107040j477784o87120a553098A187491l25516h87472J4067
37904h73405l6524k774459j640965P17797N45038J490529i94873d33400j890919
37895b324319D19457K300772K88338J62802j550177b193386l64878g20915j386963
37886b107878j926231N64418J548380n39786M16030N49275N64477L58435G99699
37876A666891f40206A48750J829223J99725H09069A77014Q00360R2452J618027
37867B687853B48315g284A187834j02306R82113b63219j174829f4706p40583k622846
37857c428135j697357M73602c08042A382327b519450k315647N94513J729013C95575
37847A965792F74815O77678N53386C87721a927999k03255P34505N74704n86061
37838a408106O11970C24597e79071k626624h31636A748795E84936p9314b010072
37828b102735k209851M4860b060255A54684K218473E35598c400224j483841J334515
37819c549550q3605n03844M34279a738665B95185O36650L67079j69709A81575
37809e27880q85687q00265i34347L97371k961158n54929h86092A36177L33205
37800D69382J983042A173327g79668J40105C30737P59291K577127J596647k206099
37791C057703F32802a405175j778796R04824c14901o53955G8695J994147J287315
37782C360157m97440G27978d30864j689669R2237O66127L7464A506913k65291
37773A241622a05105j893858g10027A604841K527170O52597j911047A249679d06168
37763a687033O11492A820184m93320m36907m26064J78208c31482b0422A478850
37753I59241g62344r60945h43611b74112d5708l93573o8862p76616a36172B78453
37742D08810a58809P8015k48820D04680O02625J971360J451631k120873M27029
37733B736452A133022K624854J465399j045112l28047j222366j083867B53425
37724G62761J831545J674281A472390a129183m33100e44562C067703J26619I31550
37714B865333J379464B112570m17355a707037l67566L85669O17173d53382E6516
37704B75710M86263N55632Q64570F36955J051666K24862L309E28602b233026M46498
37694a786528B82590J815584R22804H08942d64058m58766j706227l26908a102390
37684a442791j479152M93010o50091R26796D3721d43546r85828j371614k02610
37675c003598k57584J228327O21588k63924j249264k063598K257981e28445o68705
37666a197150e11081j65897r46564j363004j62017N0559a171000H8417b51342
37656D44491M07243c33951F42685a403400C53845K95295b82151A47541N93752
37647G41293a205093j537687a132103A725450o72341a691849K30900A44414J692722
37638A837136J40122J685969k85906j605136J30472o23761k69473J725890O32217
37629C367530L276392k36771l188387l84253l67683G76159a569596j8535O59378
37620i28753B6798J456440M27335H81880l69586J096730o10677a421264j090402
37611b511666j107780j270537p80560J799064d89678A771670n67908d36577B48110
37601B656146J069182j687017d85612j458371p28583O15460O29832j60943j085548
37592b673765l73559E82966J853116I56618a2868j319615k44567L96483N18194
37583f62373A471773n64637i80620E26063b48914l926371k268604k57791Q98303
37574e803377P69388K47675K085434a051661j399327j316016J550501d66286J5001
37565d51285m79476A590920K593834n94858A109719C05451J845803o17365a153146
37555c35251B095892a1275j719082O9737j51963b79912B14405a388995j048606
37546b437601C13606J343057J868815O69297j116063C69700H7170J573155K59143
37537A919468g44695j580615R38273B118749P39778r77398K948377R17952B015898
37527b72012b6721j145830N15930j942214k609047K358334J032910j440502n70677
37518c827817M14795h60197F86124k1765L88167m64004H8045K035719K503023
37509D626787l49782M1157K161705R8558A231076a202974e89499j714012j307601
37500c611112P9213q94668l9638d35084A001315R06015E02777L51875L23623g3019
37489A334424J537558f4798j800998A554218G49733M33003a81804l03560J26537
37480c58827p28553c93838B52046K0516M85003K50143M90254P84615D63194b668928
37469d786991K007884A13419P97335h37563H42098J678905k73091q40592b90241
37459a532424r14418e41858o06627G3374g97125n6297b2708B702013Q87773j650491
37449A939295B06562q9073c90524j159712n35356j17498j94623n02793o78359
37440c578865J78833J298267a56179A937663K30745a241548k198752a461289N70312
37431h90977r27449N64021c51974A998761N3425A69973a457628K17189B66984
37421a649765J3528O85536l0071l275776p7370J215273J42655J16788Q95327e03900
37410h81101K91205A638278J777339q94087l7671H43120b003491A19914K81190
37401D01104h47760c21821d5084A36611g19164b93561A667238J039628A032691
37391b541592p63760a342140b11815C068907l81583A039311a942711q28567a057588
37381g06499G48002c82900q23150f4795j534996l209910K44457J052875h05388
37371B610827J324066A800881a703963R6001c47504p76954j372822H79779J297439
37362B177218a062016p72654Q08497A791727B09901b674257J136110A280356O16887
37353A897243a105786k754903r32319J464322O19263f30795K58545q18376J65578
37344a025048p18100K91291E73075A8418J413071J074876G13258J97577P01554
37335A612389B59854b05113N4691l51664j21265k729498J662845b18313m99883
37326g18196A114868a48326A919572J361457E55825R62635b74757k678251r19212
37317c872220J672229M5501P49200r6111a2835A439858l16039J658803l08236
37308B474386O92818j517364j98274N35785k65113H57420h19957j00237G63064
37298B116600k95669a210819k020096J277686i08478A96019Q2661R22964L850292
37289E051936J89405A446567a561120k298915O76113j00795m9073a207930L93323
37280h14607P2204j545026j93190N53601N70497F44898c06328j984538M87988
37271a802878a31586l10494j394200A42323f38930a06288M8875l96271I40549
37261B296567j092195a565919K1969r41283K43477P10904O9728m01521K24685
37252a637960c85075n9634l87019j458686j616946N69167J005696A226852J867917
37243C094769k37578N31236J700815r82642a043877j993249R73859h46824m43777
37234a290601p04593o44770o64606Q69448j31671N71645j87110P1905h57949A32479
37223A650456J245718j180584a855782e21825A468419M21195D84779a172203k08828
37214a381031N49008j38545A69572b80257l34987A477450E49285g04457H49919
37204A811736M95826p17720D61713f15066J45918A71756h73877n59533M65787
37195i67623J21806E73531J246018J163287q21591p79698B05796j0808N01220
37186F96208i33636o19415H26409F6917g56878R5111A87755J818347Q66040J326050
37176D198192J795885k30728k350531M38046j352787F03722Q01485K423894j451242
37167B377859r06614b59437F60831J714776j42028J518977A687853L45587J43711
37158B177151f76044j911443C7208J692553l65711L9550J775755J317697j925144
37149B571908P19183M075151j191180l075374j274670A3868J807150J092802e94819
37139e17240m62283o45745J17804r46842h72256J11873m048599Q73818a86436
37129a062957j491161j479955L69123O93151R16499N57389l414309j41707J385529
37120c668398K64204N29334J156433K84342I98825L096852J906091K025224j818145
37111F208847N5192j820564j926068J077204r59078I16578A03679a02750B414654
37101B656668r42805p23415C90839Q64011J986668O1154r48388r9688Q16731K209621
37091E280948J245707k97294m68238G59938c110807J393392C094276K494443r79426
37082D609293B126304m87022l81340o06361L87110A76836J874335N49189j225483
37073A374877P22566O5494Q57488q22315H29899D04966M97841J851992M39242
37064C194041J247379k97618m89174J195261j183907H02415b14645A93945J052958
37055A246903l63694i27272j910228L24984D06503J210815a053611p38078o96933
37046b488622L05857J98529o98271P78587f69989B717428J108961n68535A400569
37036A800002J99689r36845E12759A65918a459554M11783r47949n5840O95681
37027a355879j942796N62058J081120n11495i50453m46104N16337B728492p1165
37018B657327H86014K55401Q52768B35100J545753L738261j787560A653793K170756
37009C824549k0225m06618k41620o47487L24401N906G64065D866J975047O67704
36999B647617I70096b367761j660379a321326H18962O78548K195871m22011j392621
36990A878749R87720n64106O4239k94773m28690k62345g73943J90025A153745
36980I88015N00723g20504l344673J242379h05497D80723h60847m45320c61354
36970A021217c80838j164779C94248N77345g96222j31369A449307f50355n09870
36961a160225j067525j940146L63382J592582g54483G48115J183730p0494N7028
36952A918379b33581j513934e05128G64214J028581L42951P29027m55918Q02897
36943C211752A311448C34373e25614j003979n80619d01174B44518K2030a109496
36933c223599o07283J493741j23194K38142R9050k150347P76403f40608n18841
36924a159449N62847D97324d62761r56167q62985N40938a14656G80037J988044
36915B768081o12759l45444K442107j351256j185224F82918B87204K877108J407722
36906D572034A778024L06951J871926j352811p90828J62844F40278k66682a100036
36896a555899N0204o27811G2468J28364N25030K831499K453428J062191j437586
36887E635394j818236A287279B77700i40448H17904L110139K5831j563272n85802
36878A804800m57196c18135m76457i0797l76304G60921J730054p68998n27255
36869A194722J492424k82327j139913K575057o79701J97419J339318L51578j054669
36860C993908r42752P09955J375689m44773F71577J033878K658204j557621j083576
36851A722462J98719Q70450A272848e36907j139387J95148A260093J56704a087377
36841a925706g86058a03475H43710b02972k100563j01323g91139B469586k27896
36832B241690P50148A077758a346715M47772A174833J791679n4279f34794k766516
36823c401310a634058A339013K748234j88850B16617b682564j50692g99567A315594
36813B317383N92021L18589j261888D05501J344132G71608c110144k020887J174518
36804c956513J427476l53878P81038d40498A847119J501051k74720b66115k396555
36795b662670a038782A890474p26056D8283a346235H68826K692355J357401j131927
36786C786655h51207j767499p9464m54925p70940a568492J99731b83764q9768
36777c73532j63835j886373j047133a064769k15237k228215l74499J8756J18331
36768c745633a174835C50459N17175J04323R15305l00652a25404j282337p24591
36759b132332L61240N02769A234371K75201j86956K44039j76020N95573q7499
36750A898709F79255g04206m68940p1979j59795C86692J988646r78477o94043
36741G02818m4716b45660F77856L35517D87850P49483n49680a365192J82942F22157
36730a185638l23209A384223R04710Q9154q91344a457596r8779C28350h41059
36720h02716B008779H32512b06970k36668A04963P21469d84101G3764J460775
36711A534539J1223m67826R96592K20994P20981B6966a076353D8198b174072k418757
36701d592829J971539Q03590K5744d12661A139118L13960a45196p74309A594986
36691A001865j9614N35911a27870j775251Q8019K98853l45063j45094M31643D29135
36680B52236a138053m75857M99491A23912N32829b048745j497105O08034a21261
36670a007118p05923A68822a236219A561310J786247B22500d77473A276386K051320
36661C327706m10565J160554K10344j866874g21633C14991J391531N05671k57212
36652A954981m27818l33648D27838L18306Q36487M91595p00863a010829C4651
36642H50947C80688J629065m63108O04052J758680j477940r95996J176502P55669
36633C367612o93952q60119J088692j02174j57330Q39248L02396n50462j574006
36624A659905B28916a147965j953216L00516D99739J433299G9009J527129K767172
36615D373310A403014b558524B61158M3491a797906l39746d02048B526690N91960
36606C118650R663M64253A291270a630580K30673I16330M56827o25511B11895
36596e05245j478444J59395A067397J048521J038154j406344H20571h68200N5973
36587h12227K08335a13009k165936j458034J391084a024428K73953E5167K033008
36578B088175O7089F52192K48891Q17135M8864B80547J351743K835587k145618
36569B322259e54869K31675C00840j27441J591308n44204g20296j007822M50826
36560a277292A124469M05198n14365D45788g68G6523Q1597e03261b30326k18365
36550d48691n69947j037055N98931I30991L472111J70803j935081F78233g52521
36540A509186J899561A471397K98765Q19723G06830e65322a29874H87353J729206
36531B616559j049533o0781C54353a065960j138423n04818a291947o63507Q35894
36522a119560A23802J236890n13732a630286B31481J50725a856078q95778J210089
36513a541767B32396b409067M91501c79342D66278E9780K349735J273595A062759
36503A573094N34655b52529n45377n68068A91386K173307k58680g60283o60402
36494a420685F0764c09098k391259n69768a170389D87243e36681A721351L227157
36485D948508o41232A481948g79409k602421j956538m693m62536J689839a186362
36475B54777i27443j71028k61301a63276D23770a027764M98686B12676g58347
36465C41167o3852e99488j295213J80554l61956j417846K35104o3938J09554h66073
36454H66056K25776E40438b59996k36321j678289N30593f90151C60590K136825
36445B497415Q83164J31242A259052K91945J135113o15774M13913c8055m97983
36436e36038a63402G62447p2010R66806m72521B26551b061969k7820o03639k580723
36426e274151O80399A25872K120110K392159L607253o11631k524598A927369k35499
36417A691870F15991k02372c22657o89109A208328J068074p79366E46978d25712
36407h46848G04427R47909c111399k419252K717067C58505c39564k595897N50423
36398b385038e63027A310219J000702J087965p48647r05026m38971J371569Q38339
36389C516150O0116A546095Q54325j007273m93927J33507f37992q87860g33796
36379a078437j525865J083256d57197B5818e43503j75078D1098a19983D57049
36369A657910a66665j913037L28606j266966j796598J459162R14097h16626j99435
36360a016061b81589A431421c52964k428072l74072R14046r73436M68451h17792
36350G26092B39233H3568a025553C36649j09277b0723A756072J62760p04150K15211
36340A429893J101054J462983M21515j265332j235935d30523C20546b75995j464455
36331a740450K18182q00712o42473k415888b553567E89095A61747J022776m2155
36322A142368J19649J311716J241288j177039B74778a269839j800517L5822o79919
36313c714453P82771g78037A876877J81894g28066e2275p4475n4555r16043j879267
36303b976615i73634A47595b57606P5665A934958J579542J004216k132664f54361
36293e85997j466259n73464m16935J484402l1489j24519k032179N87531E2989
36283B25331q0827a76471p77643b99719A116638E19594h87484k59191A342636
36273C067705L07295j621871a075368j689506L51841K0992D08881K337840L1020
36264B777741N3289q56022p18615D39047A30826h67625B453468k22427c57926
36254A470574P67326D82956N00421O78815K12453m35140F42289J763018l46468
36245B058839j72261e89755l383935N21221J215187P30949e30351G64516K94372
36236A058888m36161A21288L96993J42900L49681O92370D24018f32526q55952
36227a488478n27544i78941G83416K58046N32469N71232m27353J44967k01333
36218A661444R42302K90654o28261N79463k61961J573248k074406j20813J919453
36209C881123o25467f31804j836128k058165m02933r82322o7740b391889i28927
36199b686111i63916j455243j149611L17272Q70812P07866l258349M49191K208959
36190b273019O18376k30107d43691I02981K33333A02369b58897C72364e76091
36180a634069K8166B28093h57032k253693j01670J152767r5093O17509p56482
36171b293694A78126L235246J62781j434493G70527K81064K91011J255148B29816
36161a331232p19833d15753j96764k52336a64371A453817o79908a678678M57063
36152a221615A376040M67991F42974O11913a006820j249769n70676r38191N20040
36143c245416M8781O62452J103937n39623p19439L96085j140691J89033J588565
36134a656316P20016k43556j072345M40487d33341N6185A127616Q45274I23917
36124I54535J122218b89445k635847O5643b07871C02653k4852K124852K336669
36115D739322j868310H49684P47912J406554j342332l04129C55711c97975H72358
36105A047798c201064l191403R32861b645263a185565N12072L26973A547343F64019
36095D2066J509626O64453n49156n66666L10813m80358J97373P26512k56656O06548
36085B204555p69322p04845B58082l556c61305j089106r89802Q18398B76756K254773
36075B531529R25660j454876N35650k79015A082630g8743l08263k3168m47523
36066h57697c53807j372315q16504j331778j121763J25689K071254O47983D12441
36056A745818J856791m46850j548625l9871R94719q54018c45049j904210N4310
36047b194949h52890o39262A85833K161433l70300m09455n44341L04660D72335
36037a150244k43024r03184O02122D88322Q35948m155J44563J043669M25759n67369
36027B366737A162417b036601Q17642e66639r32866N85105B55493J09549a846444
36017b758993J44812l79107J061450A77418L298376J251348L52767l11894A530230
36007E97090j42033a362930K62351J46652D64768J666120Q25036H37341a024647
35997E80282J194294N39071k99740n64402b15011r33427B15302i71822j261961
35988b233783o97806P28415A93423K09025b308483k415671j666148K456800J784154
35979b149348M76336e85102J28021J35749A542809Q29955D73002b94182A998821
35969C763630o95990m54150j65389N9125j204714A42432M05800J453255a35272
35959H39826J701255j142583c26808j623236e78256o53639k500939K48158a592614
35949c19676A526291J291761G56206e96671a85151j151291o44865E57388J281288
35940A838676J069785R16165L06130q82510i18888j558765a003595K10672C327783
35930D487935q73138j11595J55798r97650A83567N63376K346338J288773p50308
35921C631746j667501j98104C38885a16030r34048l60210M97746r96756A252377
35911B473645A89940b059155j864208p7479J681314L21664j164557i61457A390509
35901d32647J94233j762099N37618A157692k44374D07392J46090a55077A07628
35891A432619k69806m39631N51613D52804h68376m5651k454488J390573A99787
35881g3595o66192j573304j855128l06563m20415P48110J757939c84167a09350
35871a488794k42799P37043m49977c58147E704990K714717p31237j843794k855640
35862B989036n22403R58A015040D98325e31115j71937l59436A35087N84880R06436
35852A626403J770925M29039p55700K67363N94798j742741D78274K52032N35122
35843A265428J90844M34147I02309a125401J9241G54301L71278d597k62316D65716
35832b52680B5482K222632G28069e14129k89025C32068a518087k098099Q06794
35823b809392J349940A375709n18353b060829K45231J42365C20516M07132a489066
35813a134928I14963R76311k29427J414751J887486J06525j333850j409807j128958
35804A197994J085713P02292J52341J401221j095719n1411j346707J02832A021966
35794A580190K212487m28602F01937R10022p51563e59075j852397j00920O88254
35785a824138c11810j537422f62353B843986P5491A1643L9810O22772k99621J376958
35775A751562l23557c13492E3876R46443M16629J146404L06304a559474k490342
35766d049816R02100J253777A288925L721875J027911j634763A346861m21303
35758I25558K129748J945283J046774j122511J032472J366370q95423l115398
35750C312873j523523K524908K515669J460451J847261L438909J916241M285127
35742A9777916O759987J2993291K1058269M0869109R6942600J13418588p8109492
35735B33710268A08535616n1482872k5289317j2233946q924664l530455l263968
35728C810394N12497j358362J821569J1282l75249N4753j168173j270680K96725
35719B334756N66175N88351j242744I11227a5263j990537j089711a075400B392043
35709D870637j285043A485003R17950R57311j299958N22432K133524j540028A234059
35699C35711L97877J317465A007049c640084k225731K065241J134715n72544L38340
35690b900063h92401G3399b378844g97823I14053E3335i1115j34192A637331G17469
35679F24903J912140a406331k810661J157797O47932a151540F04318a035600k575479
35670c611079j462356l211J512485J472979j00561K6180k374933q00373K658136
35661b682733J46875j065246j055570k43603Q15897J848902j612087p08866J486116
35652c070315r13823q52559k5437J03466J099772L2727J704195A349586O76861
35643B026447L78018J053031l68116Q38995j114329d79185r7184A77161R61947
35634A139108a154271j240477h82888A17843m7622e2084I95052M25173J526365
35625B946590k61324q88161d58678j837989k23348d46011m97161K52281E44079
35615g45042F94152P50359G20924a607765n43936L41625c81504G65943N37458
35606A303401Q85823j15811N72044J44213k71503Q72953N17381j67524o80353
35597C060624i00390k195251Q9045j120348J298966a83011A810096D43830h624
35587I48246K57231k17297c26323l89900m61754N76276B16343L144846L85565
35578C746754a36058r64984K90463b26999b4391I70300B48103N13636a029294
35568c199856J28741i31129B924774j091640d78852q99593K31219D63795e46626
35558c00862k46280I83185J554350K656449J782643k440953A346455J054594J940910
35549D341959j356692F49219a469275k004040j185939l24437M06566b160544O98556
35540a461988o30k313258O54026h46861O3616l30272m89726j739330o41169J180690
35530b803052b45213I63537m77415M96555J076213n4266M8223q31796C65515j16110
35520B49405d44668k79438B09735J51714a274938r99016m79389j8712r46414N56323
35510c162146a095378L77195l198102K93274J50559a428768e11322m59260l71668
35501a342250M31296k11915N38665j86693K25503J0188l73678M8532C22165R66370
35491A288535j81153g71261h0095m19057N5195G7218d41658p73299J44451k201598
35481c272104R51937P87509j177819r44186k129825j618678j99761J623480K385935
35472c593512Q11675j445260J714699A523612J666030n99544B24859L08177O84569
35463A217605e9086D52874G0282h37914a17224A118472J474489j256870o44416
35454F91675B51305b662963j673311a936099O05757p263K13161a80954A200160
35444F47012d77334j453318q43526e73941J99243l125521j662482L34352J098044
35435c730305m34688J58358L76703p4454J48237j791883M72474J204900J32782
35426c537876r28430R12140J043270k304532J492566a422962j665494q22171J506786
35417b403841k79173j324453j70997J038182O14077k250926Q71268a611489f94279
35407A93578a879997r98198a303553B83013k0984b358441j455961m8672a235860
35397A074991P01733m77185J667555J815568j963676J35200J017501p31636j055516
35388B184535J532454q0882o79199A229797F12295N20237K256208m65448j418896
35379A504396a244760k375993O56267l46701j194449J336015e74621q30676D54110
35369A668270C68386J520257P56180b30560k108532K5759a68484A673910O61255
35360B335165l00393A07951J346261J515781j345269a574287p93589N3555b41105
35350B25736Q67312m91567a564273r32485c87400J68147I52209k51904A09902
35340f79018b37168E04458P48255J200157j116493g01593K37943G81654J446860
35331B228514J039501J020567K56356o12386j129931j30120M67812J216830P60150
35322E117293k200550j033148o90149C81779a17708m05028j524954R36454K20278
35313h90958n92214L20107c08594A35654J094944a581233l38207h8486m42777
35304e31263j190771j229945K35977J53568a008820D39244a111344K41139K87496
35295e82709p87464q6258O14631l34671M93052B52308J429191J698369J967692
35286E347560k18194j011691o9690j508958m45883r99256A68857J455141K114357
35277C738355L70065j956962D11992J083506J448484P81672n99937J838308j292886
35268C671139Q51667R84815j758198j065406E71216b262089j448259J216247N95626
35259a898475j209607n80384J659402O23747K92969d11826F99262b245213p03654
35250b948867M54888m82983g64892c43372j368958j18882j873374J312548n41487
35241b933525j662980J533077I09016J052130D65893J30037N33075k07247a350162
35231c206449K20129d79941A515200J957123q72141D40702d05266l953658j357001
35222e715925J633652a480037P28137r39351J07104G54620K324227p55147P49825
35213C073525K773197k088210I49959K21759M566166Q50883C276457j217038O22963
35204B682382n85126g77796j271927o90251i08431p25088M41712C44976b85381
35194i54539g6231A175535M90227o91694i05682j194019Q86371c78716j76071
35185e54787F47968J95649A2765e64993K33574C01642a40983m37278p65847K71752
35175a072356E4675f19925J60305H04097D3110b552021j034521a093776B90189
35165B817940K169786q69960J155651j315246b89712m677515p40654j32117N28056
35156e311942j82749J734612N01383j863217j02765J684038Q29013J180782P18022
35147h12823j257339j307275R44490J053290o14692j191145J56515O92511a089612
35137a790675k14150l44276r31355O99762a068737B49089b021013k583105K79430
35128d324688J278591o2309P19142G0711M508998M15238k332675M66595H71855
35118b659323k595556K311811a061419M90496H51434l23385d94145m29173r60641
35109a883959K81862D97570J648974k72596K843207J068320k335615j681024J161918
35100B930754L35942A585228o15213J566347l67990J46554r30462a236598j676381
35091b912979k595589j362891L26566L58713J095977J229783K18712j42197J612605
35082b171300D11288J969820k03146r88575l42161a353277J76710M88663H41844
35072A321613J29610n8754C03905g85142o57087j494496a217889C81746b11898
35062A161760B57551c22819l65432k153534N64837R51817f46760b28953o43639
35053h72592k590885M44586M89645M08605g85427b0910A012065k21100b256570
35043a043830C106063M95879j384750J9984D95595a457983b39070A25791J908449
35034B034240J795927r71094F84419a537436M85118k09967k20258j005376m39788
35025b927707J006978m24256a056830J68300R670c8020q58629j460964l62083
35016b719696P80179O87416j19584j109695M03655f6274p99841j737353h084B514016
35005A374445B12350i848A254084J601996J77185m19189D37945b026336n15719
34996b542055l61405o70326m34832J151879i45370A889534j9565H06415O05821
34987A412236J692400K913509L34095k336723r94783l19069L2402O41679J083194
34978D458940J42458O96624B333094G05155B44227a637308j435814N45664b56610
34968E92606f39734H80160K226367K486484j353527A701779k36563C47564a735987
34958a03073H749a120785j588117K06078j14171K28205c02327A039672m21276
34949F18396k70000q8673a911651k943116J565287g04392k92606o51877a06799
34939A489480K10300m21655J47851R3912Q13390d81451j317732k70708c10965
34929F44112d77786b02881m01445j946435k01121M58343M52563i3332A140106
34919A239229l28687O20688J478120p26829E97867a12685C65899g90659q43302
34910a633961l83873a06432E03085g93435A622608J538708k60683q25912B49463
34900A677931D62723f29890j696976j716167l30302j415172j028685J032662b799175
34890a092510L55773B57654L841549K388385j087735N67278p59425K572975K396095
34881A0176776L347044J0250181K0974741M9229096O9850150l5943145E8700205
34873C3180176j1811777p774674E579026o78652p69112r27141j011371J615203
34865C807953j789917L37301A133051C80554J725076J149308j328100K235743
34857D162581K513203J599560j427530j574072j839099p97707N7393r45873A21232
34847a633222q62018c51971I51054c94139F12093J892343p60953G83843a060372
34837b389816a26537a7160k269617f50506j128985p81050g28039j471061k46604
34828b445704F49814B03695i11291j090544A62910L432390N36897K07301o00754
34819C738744D72291c204415P59053j133907p21785k5800b003896A917789K130089
34810D047878J531530l74864A420010A70535j503M78214L37659R48962b21866
34800a808788g47083n9605j488036a091162A009669C41556d53356p73727d37065
34790C50371b21263l620439Q25455I76100R44930P4755j49910J208930O39642
34781C694447K27637A432609e92861q91320M91841n41651g29851p15116k37723
34772a682690k458061r25995b409740d04739F19000k78875i87643A653156Q87030
34763B540186j064470J624470j021101f28338m91374b61241A621718l99718C29138
34753a049286p12181O63604J39549r62284j139286p54822a171357j26447m42155
34744a739959g43351E68606J273284n75693l72641P37120a588185j029115a098617
34734A162589a66190k834037p49904l30856J657645A685544J473585J051725j866036
34725B344818n07833k48755b105830l520905o9600J769702J98524J342091O8177
34716b317841j438876j544540q79845K093183a337603B246031j73384p97859K23530
34707A498318j43146a76596A322789K083768j667488i2168I68474R14228p59463
34698A123239c66812j691904L15980a96891l79727k907203J207677e19622B96681
34688e5554A64542M39604B87781b54992m74481l069517o97472a737066C9589K04068
34678B43657a493393k374705J546567i48614M53290H7461K268377l87350p0246
34669A898242J810320J478541M87411j112780A110213a025014A089779K398344
34661C488123k71155P9535L28079A426308a061498l74017I1187J412915o43077
34652H61025J915251l14023b43721D74027R51003N80498m49760J253811J416572
34643D226151j655587q96997J41038E02836a76843G19921e41586k103895a148521
34633A979104J458202j478701H80348D6003J716981P76241F8012g55467H12641
34623B214372J193658R32815m96948m73780J510483N35271p09546M9390j218770
34614C536945A247891b978277j129936b004166i13224k24755D90716J940388q50993
34605A580111m84856l64024K73635K169193m05846L6693A110536n33790B75523
34595b59874H62308N57578P45263J156846D96261f62280C12785j5744J724714
34586B021755r19881e52970j145576b10638A38378f44669l6700E84831J186560
34577A771391k41207P20637J454377M33926m76283l92358J112028n63309j388152
34568B431050E93356J129145m4815m71781M98799J102502K43982A365604J805002
34559C170606p0457A541214l42776a37480A642006M24785K125160J802031j584431
34550D409551A944548g38238G39803J92551a252447j86404K62364b57416p97120
34541a054536j5781l18559n00814l58733D08546J002327J058146J789900A034289
34531a769590n56332o0991L32912A98957R65446L66190E16332K68515a250670
34521a196536A898584O19042J62538B86276b243256J43014J82593D61541J953148
34512B414689J439050r20506A011388M03711K365790N01886j868637a250013J37518
34503a112495D85527j54455K35960f0871j60958J7512H2311M41281a892868k039615
34493c932483a934935d75257F56837a502081m95336g97434b90478E72927J547995
34484B120922r23520Q4030j79236a199803N02157A40973a700115k644628b024231
34474B083946E0444O11993J574053P28814o59173j053617M17856b67028l691899
34465c958927k242513K611661B54714e95914j952919b03397B107030p34611D37147
34455I54547C93890H0134J312095P32726O80285q16588b05272k59269A225651
34445a160031l225878j561994Q54604b045297B008599a097856k215331N71643
34437b741544a256277C95531J4744A97945h36592j770225K65259G6541J149133
34428A225674A99240J219749M39247J818887k6923H22000A07527L53952e5877
34418g91089K39137B30583h34071C16617J033591K361799J380059r54758q29787
34409C307521l6231M3867m48115o95743J220213K627361j40425J088061J262453
34400H228962k491110o65440j545958A120842Q22308J372262j313512p71716J553614
34391B783798j238315h42447M17057C201364n65368n97513n67761l47212N72205
34382A695715n96799j35268c60046j459335g10330a49672D92801J41792a734228
34372a529492O63673n8525C9967J775074E32844b811953k50520J355976A970984
34362D229734j505434g42290j985717k7302j222548M09637J566067A421949K330565
34353C752514A281184a602012F62613a94894A40612J311198j23069g74639k110884
34344b885523j037834k30173j817821J169831R05261a315478J89207R9842N7566
34335i68863o15145d13912A739618O26390D48545g6195j557975n58364L95160
34326a797374L51553l59780O92401g1362j207950k161483j468336Q92149Q80486
34317c136496O53736J201716A524149B80044a521748f58247A73432e45102j614029
34308b159131c03269h4176j442828o8924l80939Q89387l567q37269n32994a174970
34297H22578J847752j001465i28232n38020c60825n29404f0162B300754l54669
34288A946085k43212L17043r87059m46835R19247E73473b24008B83165P16092
34279I99257d072j089787j36260M31863k05528l453147n76353J948239L11891
34270b773154m23689J207121c79941A512332l50399l43016e79312o77841c50043
34260B64721a516062j249587J354292K96977o11885j484432N09821G5300i21301
34250b292585Q85049C4655g72134a51892D03053l0064J272435N53974a111904
34240a678472l09684r01084j141863R24024k30612J427042F66299a181160k072971
34231c254131J385261A87334J774448P01029j85310J289399P37349j55336j426145
34222B922768j435335M14167J074770A299606a309483m59854B564073K043700
34214D607773j913871c0639j587132j396379M28993h39152A625648G70142b86727
34204a91456j332819M75507A090331J820751N08724L21785j555775C82943P4695
34195D57638i34466n86189m64819n73657L19818a58485A282667Q79963E74488
34185E50568g49567A35000J526884L53646F16135a076468l70908j03758P63204
34176g87930j804997N6897h35929G93523a3296j374984k119598j965582J408445
34167d065015J753400H8779J752365B15442a672481M4620A37032L093172j480758
34158A749446e11911N8528B900241j305493a556027o82653p1337Q22980P00535
34149g86502I43746K326861R22866L21728o81493e21779J69150A021381M48235
34140A469616n64247a708634m96384r27064k25783O46472L90099N94740C05377
34130C731349K057458K73687m28530n70199B330248n51920q48632A97544K80223
34121D77767c170974k020186J672007J323695k179801p46667m48562K250702D48753
34111e83470j89661j028435k094086k08126L19320n15439L8255O32011a210539
34101A012245J667105N18841F07066h31818B94291Q88112M68253k46100b16505
34091F16275k02570J432269N64501j56695o7376e99559j837796f46217a50687
34081a231754A153380J149004a45922p41631d33797m37880F360a439099r07931
34072b347030k218330O21645R43918j376932j009720n99035b925026a436457A632861
34062D019379K8522p39005A317824J345728J280622A289346j92546J018698o76552
34053A438946c35218P1917j43907j421534j913546p9430j367882j383690J546538
34044e026752J372502a414825H63085J345751E00717J218256K095334k90315r19082
34035B604910A094947a192704j140069f60147a76060q57399k60838j377579a079909
34025b25871C63206K561822j425522i31723j127347Q68329h8333C5817L28832
34016C64649R91621J549569e08602k779660a087120D42552c18953a27781B49523
34006a202298q72231m48223O61465f85577A744399c7197k084876j419981j045115
33997d587169J747496i68879D1162b650794p48936c99616j84631K85249F26663
33987a61776G15660N61604i25665k067297j546741J114415k48769m89889K20363
33978c943583P34999J599836k81431k44169L03292K29257d2590r36930k007256
33969b986776O28091K55391h64757C351460K48502I58h17719o90163k370255J669092
33959b209045e39486j417800c34387C77806b481633l583084R2608K654955a92905
33949A70159K690022M36112j481743B79320N28498e28355j710976D75889L207397
33940C683286M37173N22053j487650A292601J459625k33851J243613Q84782J24582
33931D771352K31468B010590e84506R382O5542j365798o80125N37318P49990a30865
33920D29983J662973L57562R92411J205690A939700c52863j272857N39901p3440
33911a159259o56972p23437R40485M14390A295874J607105E07369a114039n46861
33902a660900l72637i21956a47169B89840e60724J17492B187202R98211j538676
33893A646737f62386C22591J685291R37751j411741K168415J132900A624805H00294
33883A425464g11189l319428a894536B927331l65287O71358m2485J242961R91123
33874E425001B515838A146276K97945e77563o90166d45609j2544g5322A699155
33864G13895e7959B75000N12587h77518p02016q69408K62598D503a98037k287053
33854b485090q31902K47802J010266C66201J641250j46429L95522l39564P74311
33845B691291D40034e67024A343330J448201J146231M43157K254409k95963j264360
33836E075005J76550j687407l74013p03557c89386j136425d27804b11692n37726
33827g49418j354861q01297j41226J437387q9689j091581i45157b03831I38388
33817D62320J109519N57380I55040A95471h064A931801J186615n57574M26573
33808B987415M71147J49762j546147J150084J79433j551759G70754J118620J085405
33799B974779L99513L20873K75922R33456j78977N17496A764912m82923l59458
33790I22531m17454A51507f0831I54857i90845L90420j411679h56741K68982J99431
33780c88328G91087R94292J578765A563672e69630r36776r54539P97317P75746
33771h87882A613573J596828l79331q75835k49825g07537o66138j667663m53485
33762c494823J698298B18929b22748k098202m66798H69025K417493j142138F50801
33752A720381R70399Q16960P62137j093154M99259j153102e80562j633132A269060
33742D982226L76751A343797a854564O0840o38763M06109M18375A22911Q99065
33733A021976a38929j095097p5787o58113J11510j750564J002715C75201e30281
33723a176928A07296J779821b56017l02763j39966o41897j25865l23191g06483
33713a183635j429268l34271e88671B336070Q63530j558877a48410k49879B8647
33703G68207j63053N1890Q63658M44500r43520J279758O80140j71377j147611
33694A662592a363663r5983O10969k13947o79157o3468j163330M22916N82734
33685a962929R5761j933146L58769O61482h49024L06992A191290J0637O90182
33676A892109b58883k07191B331193o92128n60095l54838a935016p21354k90341
33667b946711o21982J502318i88958D24092g66101o44298K60535M41473b3078
33657b081523k064336a842811B78878L96565J670931o57597R14905m57930D92139
33647c68898l8772b8631A174436K76302K195595o07894j290041k43282b84379
33637a041848L64778j625619j726926J621417B49846a609375k870229O40997J290132
33628b548475a112328A107232J217593L53163n22872G38197J743896K079942j227107
33619C334928j118636l8352M74251p9517K350089p19200A891642G38321J142701
33610A881022H1205h95367n14763L57595e01208j360376Q73807M14288B532236
33600B726848j113992d80075j20169G64519h10695q30153f33722F76224C20981
33590g08612A482846c18964H5406J76738J187680K334902O66513B041112f27382
33580a523474G77901L134257l6505j001138Q24536J794705j095938j369041M07116
33571C435893n89947J17161l20692j92427B6741b830590l47832M6933a220626
33561E05889h06811c6840o91407r4108L39369H23303O48925A61418O36484R96366
33551A794268J133931K85587j379474j43000R70250A218916f53356K03263A834335
33541A173508P37300g51160k133902a109564A737583R85488j074514n8456M74434
33532B064535r08277c87223j023080J0899d40577N7840A34397K009863B24501
33522a431887D54031J295250a58758k513273K7829j810117J481534R90837p09756
33513b691704O42371h78501H80275J77146D37412R32158o46324a480991j244293
33504b725284k47670J099729b9307B739233M02294A072537a465889q92269J2978
33495b345180J062547A867582J85495o36766L12723K18495d69490k2633J65036
33486c27087F45910O90641o50874N60714N84412d00387m71285A469967J481629
33477B951596K65435m98216R29212j102279j92938N24557n30154H73466k10397
33468F63069l8077h12995r63890q23150h67091G494K4087b91356J33896D10327
33457A262097k3809L83374b52576j284399f86022L38239E0615a512280j540414
33448c052694K55683P44501i98661L9578k07905n05732j314873j889278N13675
33439d363196j053072m63524J419133J804603i25506j211195g72634A58644c265410
33429e920585l14982M7421J604480m67427J645530R23233j187295k372803m71261
33420f513689j910014J503205c253658A24110Q44069M60878L80466J589264K165024
33411E563811B155489C33169o0540c37970j3272j008522A563707L854976r24696
33402D493987j151565N72800j539968H69036K56600K057873L45497j66467M64206
33393C826745A811234o2900o93640C7193J490499O88929D67000a119251L13279
33384h05972k63914m31546j256797b97553B858619J432930J023300q78584F05020
33374D0088J918949i05605k737327a810446I84036g26140k326195m13522p32523
33365d198380J273935p24285n79003J128612g41021b10355b4580l79199l662335
33356d066114q43137j06495b448612M10700A270955J428101J214013K043072B678620
33346A577135K255253J501110q26925j981175C38471a471108k087801q93378J822940
33337b629347O40039b41204B002830j02176O01201O79655j32114r68523N34409
33328B615282m31135K88323A164483i76479f4057o62629j800153k056954J310500
33319c273293J626892N34831B074261J889504j102479G74630a157295a48759o02989
33310g51748k172264M83655I16940J440076D59222a622303j644324J236909j006542
33301c036260a008225A378460E35338k906K26474k89474b021911k341325o90306
33292e053542J929128h32058B77824L76660B83714b699535j579014J981221D45812
33282A652842K213745J979103j053131q55679C83841f73035A787711m63090a492101
33272b623302r04795o05249J295817c14722r18248j199366J051464b72536j958145
33263b230681P80197C52370p9974J366086j05443o28088L0445J202229l3247A44225
33252i39106K05735q48962o99449q99715j226145o56078J097455Q66998O50206
33243b449061J072816L85127G04644J384975j16278E73156i87087j481390j541948
33234d010425R49268m83725J313878i80808o62115o40400a088297b94086j813139
33225b107225P34162j583499m511149j67704L081082m60599k345797J045098Q60154
33216e455477J240821e56410I96353a064827o46109K53270B3235K863467L029773
33207E916475N26556j335998B470214P71299J000534A623345F1066J75816a987002
33197c433966J629764C53289J788104O21595J382261j245010b023816j593511
33189c617327J443643h14463B10661L69799L00684J114992n00532b086092i54240
33179a199343P6224A059097N54670f75384j067498j199154l60312a275122m3537
33170a318659k081567a497469A795408n79837a168752e22207j033971M57731j78556
33161a277003j060381k40095i06674p89591r83202O42808q10889J283043A180342
33151F74347o9349R86950a169277k275994J112329f13925a54874j441552j338307
33142b934733j64092R0809K97204N39457o00846a363930F34857e40469j314721
33133a855190P33031H86491e89450o35451A598284N22055N23988n5275a567279
33123a500770j914906k362428b648954e83159A908538J695586m08500A288299
33114C36648a66530j580322p65052o21064j322536a040964D001138M21301j997497
33105B424942O50149j178480J122939K74824L42032j063042r38517P0576O71435
33096B376858I14964l32568K484563k03210J77607L9208J97713j121238d04473
33086A362066K433944O40687n70173j249737M93651P81936o29327R0783C82625
33076a077497A7733N91613K21642K54099q8268R66699J351076m01707q51991J598432
33066C659328k56829A036212Q31383J178768k09531r79572a337611J09478B155219
33056C357700n69531J84387N03464O43953K68714j647631D85970A27516J85588
33047C13104P95330C88285c495585n05006P20711m18277m47099K064491A52924
33037b33750j610719L32093B90053K086983r21716o44987Q6298f10710A70991
33027b82392h4409A564816a167420l739132m69382O49116j76100k090131n10882
33018g503931K829511J091755r35754J291459a570651I47081Q84079I4932b604835
33008b815350h57244B06719a86712H36454a46059P537o90715a9861C293077L16758
32998C609835l58429A554693O62743D70706p8125b95378k94133a45262j115369
32989a260631O4561j623910j714919R1367J308569P9836J8130a488414f16297
32979b081060Q74984G51318b46410D42741K406079J64160B59436e89679r74118
32970a563797j275130J335730B186239L03885r27378P93869M6H4615a706566L19422
32960a387144N27568Q9k93326q29412G01506J041100M48178J489312n98396n61934
32950B519766j1909J501627K149404j915070j241170J60532q67505p10019F73384
32940b853239n9355R18924M22259M40333j364606k23579N53351P03898E77549
32930F75111a541685N85007b08543j533240J66662e65363I74522Q02748O89035
32921B466305J02978A108129C94178J481572J974801q20902q77534N62828J509792
32912D224735q88757A243615O02703J181164M76017j78987K12008o21127L90693
32903C306086A337853b88667k85760F28766N2164J932273J023254l30296p32672
32894B573489H50568c2208j72982E3952K900036J667651j197379e76600n62475
32885a139075E38192J264374L357929Q99036J159986j107483o40890J841339k556202
32876D756281A438396Q99278o62083k17045r7837B56543c220785q37266R75590
32867c082461j285180b143722O67133j084686a134998j452332k207770k46566
32859e041666J457754P54505J88119q67373j92733a454131H0778c35385j150422
32850a485807K04478o98971g43619A203612L28215J99815j38157j30844E97495
32840i22828m66902n1275M97993A146412j27512a039148j143997P47038C70904
32830B775177N8298o7730G04354a38299A936300K811381j79509j499890n1318
32821C016964A459361a38809H62190O87199P91471K33975j202839k55949J446837
32812B562884k36355r03462j84186m39963b029378i80960b98426j13475j185754
32803a597655b04752C36571L29052b59374p32523I17737J785086K63135A341092
32793A81314a260843k31428l85330J21547j414513J091756c08741G62547J481677
32784B244224J397721j2754A662512G07542j86028a038300r84417e30248q62670
32775a392918j04869B53910J776134q33048E75722d24100j989560M43858A042525
32765a154929j359598a198297I9001a35448G75460a275783j542413P4241a065477
32755B793166j53405M44940R15678q35373p97753m23386L79754J55769J502071
32746C981461J986160O05695j526249j124143n56455A682665b48691l84855A356175
32736D255169L69043K50266j727241j174510C72694g63616j273552P29563J44552
32727a163053q33922P07068c32355A907166k53907a609048P26670C55069J063824
32718A418893J069883B42529i19521j688028j001214o8156J012354j66401l55628
32709c186594e25759m0074n74456d65344o75081j904788Q59317i56112M77147
32700d78965A142838b26975j431602j53544j214105J037775M07692J04787j05
32691a476077M26572A027788J244742p48872a167095j20700j249489m95571J312557
32682a720298o64414f93294b13801A278053J399117G60850O52570J766398r78568
32673B201250e1056n4668G73420J780904J638515J905440j590370k176200J297892
32664C629601J750091j513545C83500j41334K279179F39092L02707J55831B60496
32654b955660k098024a779939b21761A366511K821066J220921q77923j783643
32646B746932r48401q90680L43584K73347l47488l73861R97570j47853n38967
32637A114183d26748n58505H1669a332706j066131i92542k5142k48912L57456
32628i09140j710994p11140J236473Q58349d28126p50684o4331K75541k87326
32619a254926l273883o83813J191912J690240a63034k24532l53885j330595q67232
32610b939278J217h68256K59397r94726E66649K001109M04599J259271M69886
32601D701514B204353H15722g18161n98929l137092j164314a931946B75941J708923
32592A984864j1612I84916K64430m94336J188624N16786a22090j130486j145800
32583b398376p45438J150359O23335L08178H81293M06288k92060l49026i70697
32573i70976C77063J232080K875275L60089o56868O1505q4130j980815H32497
32563D8579a296101A089500J566631j023307a022393o28385J63269d94399l59235
32554h53634k514946J619832N06862A536250D30071a036555d08334l08234j347332
32545b063900j686410a303524b0055m14831A06023b76053r7335n72797B21122
32535d81659k000576j353253K9724a018708B558556j9973p31364L31736K378029
32526D516984K48685j958627J080267J956414l37889q65852A316876a735370A058642
32516B990673j041812r27653P0575a409923j285722h69070r92372O0398d19163
32506B354239p08951B1906a49072D6162J275625D86879a207154q5527J32470j229426
32496b389637k555359J462502i61492a80010A94660a5430q19338q06231k72085
32487a913084L7374h03171C20587J1406g8761B843819M16488E67174K515731N31938
32477C614843n18455R4736j446170R10368K253928j571291A186603d03362n81751
32468i85113H93362k40556a633395e23415G86676J280096R37803r87534p46976
32459A270065B64226c76914R7048O6944j019411e70894D58583K48858J508301
32450B215742J74756p01928A45250i07231j147039R2567j275954K87212b19785
32440B770509M51884N97473j481261K7216j69100a71377A903018O1442f87218
32430A54759h73240j076602M3845C78870J557241n03947a6209j024413A677575
32420A909553p61302J201418p00360b87893p65114M47676q52980k621547J470227
32411b609631A294704J168838I62835P32009K439732O03406j734936H80191b12050
32401f83424J36860l129147j744512J247500J859887a025609j036601k444710
32393d506920j079531J324538B57061K896090j122752H45513B61571K06018J1381
32384D78970c65250O2794G04922b06990C26669b200850N45195K68699N14236j23938
32374i96658n92414q45468j096317O79980J252242M96162f3799B091586R78079
32365C069665r7720I13984a024910e0460A031680L24567a356568N1283l64648
32356a669933g70114a11664k124629A08401J62378a944846o62278j926614J431036
32347c102702I34545J206172q48615J811482Q95980G81305a245196L79218k020878
32338b886856o02562k20443J136448i01860L67100H20071D1155Q57301C08575
32328A053227M41192K43390J098632A105947a803052r79283j510007l83022l30972
32319e006336K346673a109281d66044m15441j489637M85581B42320L082494J001506
32310D326320A104267a445284j542099j008491J429918h80195B76645g12240k68411
32301i80651j130738K40228I22904J358324o56886f82070m58746M3707k86591
32292a383700b25361D07238K621899J068747A888471B4982d3265A330232n55652
32283G74580m2044o1413b53698m0673n77279k327118l96445m79134J547006H32564
32272a111482k354869J449332L70653j194072j713885a159302B370835J59999
32264B530834j059638J441461N29963q43527i99476p48380O33207j304005Q10224
32255a608430a39010G97022K978801j70854j163486m33497O87502R23327j036912
32246B581903E87376a402168r39054Q51616P37469Q9100j079796k99846N67680
32237a474999f65880a23200G59919J304713D30043a324484j68659M89605k14359
32228a217897m62861e16094A100971B13143J035102J333957J089189n00736j175576
32219A995079I22351J490398J645440l10231A844446q54101L938281J358930n48858
32210E738698n98171j687062B79784b548714o78146o55512J239413J160413b82121
32200h79896J27987j548912O15867h09199J87693j959078n88446a437074H82397
32190C179610J280693R11945o7660k326995j433879j47408g01060b04718C009501
32180E794504j746998I77158i27158B9030M17587b099449O49726C27868J13277
32171D41145a86846j228817A18559J514472F18295d15345k370856p84993L64050
32162c207144a366268a99874j673345q45371k319021k791657K439543J604619
32154c785106N47665R70305o89697a222855A107749F9863f91522m92091r95534
32145b179147K22914b86026r72481p82428N67792a34593H33811J67455b72662
32135a017620B31412Q46861L96961N9089N22861L04569C12910p1641a907567k202798
32125d110365M41007J565871p2794k008673m09340J701517a404852f50565b92766
32115a498959m424077n53079K627339J135030P43599C02022K330569k89306g44086
32105a773920c92555L475j110977J15181c58581j807994g69952A51032a393557
32095d25331C167236j59423F85965b028798j7513e73194B425774M17510j399088
32086A444196m45145g34883A034204L602645q15448D01385b074777i35822k086054
32077c021876j354593J330139a357482c09328h6470A347031D76327f94858I49838
32067D25217J31580k0784J337386O04727j76130I8962g31904B15234Q8872j46118
32057A57988a160633n25415M82643j383104P54842M71311O79027G97488k05810
32048E91678H4046e21056A103979O72649E57538e24340O1980A89198J214335K291236
32038C694769p36421A380395F07522a239452Q9237j513372l32506L41637l0829
32029b685285R26921N45421o17476B95753J215323D16192R15074P19215j07276
32020A943205K90072d75515m38476A030433J546464J158479j812326c74835k203813
32011b578648J223307D03856h95862k064218n53221J702310A082882L206723j187537
32002C102068E89377c8421F6774N97932A13621K268098k31848k42064J281909
31993C189716p28018j105385e34336b46526E92719Q52260N01608k50744O56705
31984B352548P864q67566E46877O10316J915897p70078G82879J457618D02571
31974d358691k592017L114305a627732A166767K121943n97946o42765J917566
31966C965565k37582q28946q1697j037727q3025R52034j42206c19648r46688k972007
31956d238343J778176B611074J135748M10161J60888a813004l272400L67793P94997
31947c922614J622617F78005J416072B58974a342506d76940B792278J827583j081768
31938C538093K40494K778946J77982j861914k348811m37976Q3826J459405j359988
31929B270057g10982k602133a591595O74085j02061r61934j872067J604530A135160
31919A951050o0856o55236J751751Q24069P70436q63706j231773o23384K32087
31910B094438M71879A093213P62643J84573a118371p90580P80972N16236B01750
31900D045030K615798l292253j654162D53957a862010h67080B04238N95658A16470
31890d09060B2266J72219a681496p82464f17084B254248k84922i9500p67620b6259
31879f33967j219046r98665J345786H39596J376950P50459n9397m62812j154912
31870A289884J82417N37019D98282b253739J43274r64396k304638J170184a607394
31860A315782K402828H50417a860294J04578A73674b5634q45079k098151o98394
31851c667258Q44691E80513k34301a674217M02563M64105q96666j066701a378346
31841E78169J966271K72133q14473K71843i43681L68412A134364l26253h69358
31831b006316J62771K90312g14881G17598a11184c417A594153J689864j504666
31822A779351K47727k39201C49502Q06420a084823l074952j901873r47890J314324
31813e695214J834162M96070a269893C092474j410333b38701F09657d1543F24884
31803D31116a305261l237472J552327e98016j356989J69970k45539d77564C23883
31793B104859a72034k27735j0335A406194m43943L91736l03718f39671F42807
31783B303488B11788a159046C93603J216196J542806N84954b05216A48534K537101
31774B685635r83441B66865K363044J651795q35348A669546i27313k202510n63418
31765c693241J509948N57702f77837A988572J616964N08351j708937r06404L22757
31756A821303A35410i11555I66292M08416M55903q36056K732740j755350P18249
31747B690194J562593A928965f50163k13052F91603a35777l23508A670099l45555
31738A324544b05963n34481B23589K924712K60187A015476l15526J004782J964519
31729C669251J874336m41461j667516A131869e62133l26744L82908A94271a950002
31719d865310p48597j86390R30532r6273m12454K008244a380689I04966A43514
31709b174922J17284f53471p28012j380773J208237o7632Q00218a43578F11506
31699A716777J007746k38096H54651a94064j748832A572634J335790A145890a522553
31689a954364B65389K068227J110866j650992m30850L360988K96933q96709j873220
31680B250632k22744J163285M00401j08445A331831n89240f35646j415936f80946
31670H34825J053949p39749j64929J336239J625566R28793k5342B361106f36775
31660b823650J285352D92642b592893l62989b36929A203949O15558P12748o60815
31651A871440m32470D17127a67827D77281J862454Q65616j54778N87901K003835
31642E642309J813286k297406B528582D36859a36884I89058J70294j37085M56229
31633A478496F41550l9555L029703K164711B095982e70440F38626Q32368m87870
31624I83124K770038j1703A517780B12932J611645J273556p74020A103294O19511
31615A722805B49035b080296M63555p02627J111998b34806j123256l63203d73646
31605a97365B77777K97940J700834k28622r23274J365303C01679a457085m34512
31596a891597J68997j239327k443891M46249M63510R89425J523706D42800J769821
31587B212621J937351j570340G92735a557941j744980L86844K60975c73995k78336
31578f52331C18379J2123c72463l15052C198364P00519m11890A243627a119694
31568b426503Q52176f44747A212435L012583R32433A562115A92796M66190J71972
31559H30958d28457A286433J202346A026025a436149j34367a96504B88354J399059
31550A687413p12172B37529d70053j439013Q13097n5609c9647j15555G0068J147786
31540A217854N13195q50534a27021r24705n58423j365957k324545K67542b133876
31530a322479l356250J014712I7569J63338K45463L259048K138851J57750j820486
31521D241533A204674l46684l17890e73172B39737J892106k23231n15421A2296
31511d27293j259433F87584R6555b485060b46643j737500j850998a756066E22227
31501A251474M92021m83119N31923P09528I52301a46668l31222j207887d23350
31491a51601M8925q41002j283873k48873g40035C64615h59360j568663P25423
31482a702600B145042J135082r65140R4969N81446j053161P85703p75787E6583
31472B36295J186062O2440B12173Q38457L07257a4735j964151o69915n28922P79522
31462b398201M58090M48663k27509O60114d43935A165799J878102R00277Q91594
31453D835772P7324j474333A261358J803825L89352j39970A647629a399585M98242
31444i01343E5489J524786J856078j96862A484389a900785j517015p76815j143431
31435e338046K008272f59085A424977K085970j373148P11699A304404E2788J540447
31426A593235k70333F04854j70696f5706F3854a63052I90967M9835b11553A47232
31415A151566n67628g22083k65400M76669A70259J459420n5145j26094m36917
31406A011523Q42301J443022c44852o39589c85507F46039a299848j009303c74262
31396e07509H8649a472132j781214J053612n60794m33518J129515Q78586J52848
31387a033097J78514G54864J832601p51138a797304k12035a11259A079711c78445
31377b405506n59515j335779J85596P91734l21630J689754I25465a005638r28374
31368a934012A284868J999274J718722j73484j422125k48805o99719A067554J217409
31359B284963p79605b105531k113763a904237A564223R47833p46049a91865j178293
31350a370158o41711g76169A306667N82280H34274f98862R7364A344231m00254
31341I43977a572898q09841i65938j77577j399618q87624m25017J50972p65461
31332d470263R35233J115690B08047J212058K3670O87550M26055N48511Q32757
31323C938648L53196P8058j027815o30545r79743a008660j940784r99892n26516
31314d475852b048702F30686J667485I90453Q66751P11300A283886R69295k26781
31305B026400H04016k50786L09439a670589k572423R6748J839441D42386a408281
31295c663484j666626L04783P08869a945807A054248K038813J930086j834093
31287C189054c89044A108768K918201N24977k237103d72292o23846B14165J260102
31278A474267H9743M50597a35203H28267J498237h28957k365374n2648N18166
31269b728813f08571j269895O86694n33642h46982b28220j884790Q9446K28017
31260a795547Q74831l32171j707192o79491a104786A562698j36095M28812J72059
31251B027474b76275j058157k10823O45319j15780j142968l5245R62465n52969
31242a784433M08872A240121L08379K84842J089594O64509J006282j446424n47467
31233B599836a33646o58628F237a197895k098446o02133a739124g31293h2371
31223a631302q2780f39603m70535B90863R63681f12955r55819G88234J295984
31214B084218a018564H525K379533I89373P72137J890421L00397P84194J438217
31205F174739j634467I32806j57581f36190r90461A2165a128455p72048k81349
31196b181852f16828b62674k60105l27447K91561E37025q9180K0952d89875p83111
31186a272986N72927A427831J619758j319424E98370I6422K47217a009170j483343
31177b492513k39086p91971k308265q16341K09114K365054J065674p18320J815021
31168a911633R349j912642j205375K335121g15248D41621O26326K58536J4869
31159A341352d94797j660936O4867O57473M41284B36245J191884D88181g11634
31149a355944b38102A289749R24131a56530k125078d07021O1434n01045G63735
31139A950888r12748b346313n71204h98062K57548B18236J608480J488395J277860
31130D592971n58035A656855j46517O87687K268209O47425A001576b430397j070810
31121c501207J685352c34671H6532a671919M20907A9799a967191j220118N64414
31112b622895N84521k76299K37153M82534O12304c791B28933e45370j232910N70677
31102a207603m58018j43229c43209J23604o71606C42100J507970c9k199388J009937
31092a189490m15573a41995B582008J166773K114868p56235A789372G41616O40374
31083A381990m90192M79682J594059j14067j165474a681631j206539a045518J55022
31074h90496c57732A179801e27239F00258J271785p22332a101497o03755C39817
31064H12153J107169O99614g05717j183731q79612a084144J16265k042877j040950
31055d051706j830510J224209a608079A290502b48024j144542K34139r71615j244117
31046c374159l36042a088232A309367b90444j19883A411090L29949B75169g87016
31036c95547A221415J244330M40914C37888a541827K6144C70686K650701J508064
31027D529451J091137M88214k24851r46531j334257m78686r34618C58878J705381
31018B064259N48803B49165A14191M81539c43492j01934j224525k342060k429465
31009f441476K417035f8968A335089E10682g54997k66755n2078M98349k222017
31000b797498K06420e9712o73917p49658o45899M86525E06273J202006j39901
30991A568378D97531P97037K051888O05239q8419a019398r25412P32945g0000
30981F74258O04142p882O46380J504027n90704n80124Q65329J03662j369416p30211
30971A119461h99413j902741j421816L96610g96581A700148K218535R05828o20216
30962D204295c32020J43689q82237k584885k021903J499971a774304c06865C17848
30952F01112K88406l41072f82053r66542j163178O41171j80997J099895D62257
30942a114398n2001G14782d1646F08864P63074L76632o63005c68628j812788O44071
30932a537345N0932m03037A01192K362462P81494A014860L7996K050695o75086
30923B428465K191336o44048a332230j868639k55294J201122j78480d3505B920648
30913C262995J87770o34308p33448R88371J855783H81733c92054A620658J280050
30904B900708K140089k127762j105881H38380O3913C41507O86443K75798a292583
30894a451795K94653k069056k256895K69394R89579J340433K60783a51647l1562
30885a83209k860780o09050a038101B795026j251452c75918j290804L16472M81430
30876h68820M9554k99262p67457L80934N21521D43909J116623a036271l441188
30867d477459k432004J090854b210279C24390n0335A12361K384338O18218P11127
30858C826044j850641r26811J053669j039807g46384Q5747a1173D69430j161b108195
30847e620714Q8122J375798J416104L72060h7887A840844p03420a150122L45471
30838h04651l98042j874624a263676C54629M07308A04768Q04284L298052M95929
30829D703033j755870b29858k007796O85729j308921k32639a533576j5377K54019
30820a294934L29371K01093D54207M27886P89481E15153C9021J418439J56367
30811A613827c107190k524625J760435J768507h45462a91249A788963P73381I28410
30801A282068J610314r2080L4734r03277r201L933966J29731B926988p97404r0942
30791B038642P96933j211003g66852H17159L251377j867289A71296Q42759D98176
30781a630891g99710p13382j641989q11050a209641B60856a37161A203538b31898
30771c181020l24971L16560n18514r64966k488881J180295b983681a114168A5093
30761B12417a524148q88641M43937h57015A488620l17662a942008L43764M98056
30752a100188j297267R66491A70783J250120L635317K987626J58038k45307j304791
30743F651786k252847q63914j710745Q37616J795531L25148B076206C98798N73185
30734I71983J238553q45697K064947Q15103j550246j277627L77394g10060j722179
30725b432239i63034I94197J71620c93409k449818j149352q130N52510d90605
30715C103238J028545o78255A404106B63443c91207q40424q8895j808281k51373
30706c380180N23481R82585A806141J241654j084614p37596c77937n7600n15664
30697i51201j207467P45731j5115j60705O04683o22966r31043P72491o19804J126389
30687a259007e37223I29484B96866b506023o0907i91550d6498B43312J401709
30678A645021n80677L85193K776587J184353n5991B014744H40591J765547l52467
30669B253671l96288d01438o97204F09213P34523O39506J801083O76760j543057
30660B918028r03880j31902l96619d73035a98368j275591p62954Q78959A237696
30650B401728J458714j87684K23400J126537Q04904K854807j094720C193595j044381
30641B149214N76453J689557N96966j654585H13883a89558k82517L1923C55231
30631h08498j580896N99303J07640j214024Q4162J15846j648031L99223J449607
30622b495668A868478l6569i06594H44620J430114J63697N84112r29042J18813
30613B212314D46397i19143q21370P04278j13639A311907n74910k82946J367418
30604A821469J773307q65581E80653a552389J52285l51598f62093H35231J687859
30595B523090J502350j900028l19078J910844K30845j279893m90131A030840M38578
30586A469418d28593E02303J843227B26802b044541p77682f09766A671456J883967
30577C555423n64875j005870D05090M84482b993666j099787d01618G55632Q75094
30568A630726l93666D24133A96617J107715J226529J610115P83543k50883j401765
30559C271871j304934p7099F63624a053479J00007E81771K805423J228056j516023
30550C099227A259879B33675K020785Q02689B15411a81423l36278f4020q95814
30541i59834j291747c14525A668789K007439M31181p54404j008757D25077a18338
30531B021884l09804b19561E92785O29088e96784e4791j363482k824925l84608
30522d627806J320175A55522J132060l38350g63480l098396j785892J311371o11085
30513d947482J155403c63080C40690a021912B3274J315449D48307d48808j998453
30504b447261K56347K48786j163302L87050j12404r86634a578295G53240J140240
30495A893480p23779B96911a906584e16243F21994B37690m1476g51813F74508
30485I56104k28502K48803m00753J893994J641736j138508j67672I65488l37628
30476F27860J046328j80950R03260r52576H6012b03251A609099d10682m06289
30467h16971a46179m83846P5929A481512K215160l76953H52977b960327L09818
30458b650509f15610B945768K641954k699791A272825Q14017k42753q85976a038905
30448a906594A53832M2330a628972r88332L53400e41534A572219L646670K110262
30439G329151j041638j734332I66076J60633K224512k51594D52271a448119j60502
30430a608621G54998j14624M01034J03026h44178L80489B54629N75636K532E7865
30419C87405L48673M2051J060146k94224b71507D97796J087144J187703Q81099
30410C653742j089977A94497l5457M834646j57232m11974n88367r39606M95684
30401C392191q54428o25751p13139C19008b081632j4655H25215e20325j769687
30392b290012j126766j88003k253541P98915a631132H05572J566817e69154k180700
30383b749854n00373a479795I17294Q08677c291741j307559K110116h13826R6827
30374g16999K11138f9289I54818K243220j063101E22725a904699P4638A347329
30364A295237m01299a390309n58431Q06393a9566A255088g11114k404632k012045
30355e127791l96018k92644n94234K026554a940134B85497K689384J641803k161097
30346B455587q74145L02843q36902D03249b77063G34581B16430a500798J00227
30337a400571j321508j061013i99057A806004O88872l16781A28626R4944J861907
30328B085477J462287l7040J86469j478580h11300j723878l48070k77004j142808
30319d303060P54651a517637D63702J901041J270269j726165b866685k500851
30311e367536K284501h21439n90996k17083C09580J38579A91712O92622l8116
30302H46218g68892b12508H96459j92821P52025O97144J227739r06508F86129
30292A413451L82399Q03438J091658P41806J328105J7446m76916m60651m66753
30283D373983A508997i44273n29910j8355J50671J24464F63319h51678l055163
30274c906841L96084A510671K260406n46005n18751F53253N36765J721835q5055
30265B826798j141558o2985j01423M78575P72998J017020m37423J495721J27369
30256D975092j153900p92982K07787J140921j387082j239240p77305i45182o85026
30247a630208O50536j426975p52225J435309j563475p52306J983730P15527j36418
30238a476505A47440K681323j161234i41637n19363d03920j76539k05117l501698
30229d287274M89011A447032K926790l61579A330415b13154C73354K184556B76070
30219f76092G58245b48437k17943I87627i39545k433250k51516a499435d54221
30209E06569Q55716J727764n50484c99288j836356h21705I89766J678914k7222
30200B641458O98511J134500k26953G40507Q52601K90000a089383G28812K732213
30191C461025o1487n56579J140523P66924J04734j415876A432027a73153k188280
30182b361433j607435p55359Q98935j32432o30127P61096J237185E9510L80271
30173D39781c26235A625476H04435M27780K238612K39118j178439b2256n48696
30164e70952D98492e57096q35361K92108J51347A007629L277408L764j321063
30155B967738K95987O9372L090473K93862C326711A323312B94776b2197A820173
30145I72471J042951J835377H98225a569072f04808A027114l52652B36250K9624
30136B65874e18525l32306A428395L114047j329282A514824M16623l05570L17358
30127A943235N52584G25543B08609K188578I68579R89716K094351R58968k93484
30118D718130q0430A987257o2259J246702A257284a800263f09886C76123h91695
30108b96926B123578N73321A173053A87750Q12578P16664G52405a191753j95654
30099a387407A261041D00437a006525j042861Q52605I47239A79504a316559k109981
30090c426540k03498a434690m363j56755c26495k83678o91974n72527j90082h40794
30079a137229j092320r38994g75321F22426f92545o22506j971045k93935P84326
30070b795705J336596C37664L28844a293778j790911l93815N86311R95048m00958
30061b298103r70121K54284a352422j2709j798051K31155J311073A648670K061008
30052C709678I11234b373794l74704R910J227764l05857m52927F66886b05110
30042h87787D39579B08592J500338J874729j130257q93588G61357a47099G37446
30032D525482R6347A779421n99858J114748D34587a694778j38068k8854r84288
30023b845988p2101e23630B51438a930806k94597q49606J418650b92190l01184
30014e93374l24787a97885B000309k53268n40379F8354e52036r79148R5961I60527
30003H61735J818758P38095H55309a087833e31297A311653K6040Q14204r58977
29994A192920g10984j526185p71243a477816i4208B6835N43017b24053j259787
29985a483840m09455b73084p07157b29304A608207G43891e6951q22461A97639
29975B809082j287273C04643i98924k04391j211528K81012j650456p3509J32395
29966c725401k3182Q82246B99321K634449A348577l2972J361713J158281j504498
29957B331101C79032c44136A40967J397619E12460b076852F1027M032934J41505
29948D235466r33895P47689P94027R35859J73n75955j024182P61929J342708J790870
29938H074689j296409B140272o64481b30411k034439P05572K54581c04300B029830
29928E007377m20769B085810e24468p06817j527565N30720i78572M5589A670597
29918D121757k79293A575368A1693R46295R13919m97976a988115l381703P45522
29909d624296h79229D57138Q92619M154136P11753j475298k291790q11948O92252
29900B328862N32292Q1631b48172k91406L2759j357185h94241B502810J185796
29891C688606j245800A208255a436151r33273j070247p80543J256918A211408
29882B311951l24851J04011c72396n73999E68928J282780c1617j339702c97659
29872H9408r721a850283k573911k678508J705590a544617K77729J10488j139783
29863b296183i14057d03819m28563H7271J060934G4163b56562p51240j421119
29854b428921J161066o41665d03009B950227O36013J419345j070450m6252j071095
29845B817788G26479J358235q56139c31995N9232q1029j644517A612265L141824
29836D754089J150421j962005A224147o4291R85957J081500J835762m71970A165783
29826d08372J80838A523284J37158g02758l360199K59704b57405A355926J729336
29817C085262K93993k94433A149870f5936A800431K230079P52116F21099b91877
29807i58598k131430P29264R44709F80921K391977B31175a920549g25336K64013
29798d61323G20159N72616a272752j438610O33798N03348j63136Q9693n03560
29789b151219R45418O02617n62424C72672K95930N25157b04936j153559L82211
29780i76284A68544f03497j024174d93790o11691O2421A119361K395030j249046
29771B265345I360b14871A052007B53803a304886k131241k130118b282625I27833
29761C526530j69164G35613B8297N49622K035004J68206m6490m30297L95687F56571
29750b34960l46851D3346J848700J54397i50126C86391R85658m41974K560911
29741C490986J413975O63010k112770o86453j361914C48929a209254j15251j200994
29732b525499O01166c6108r82259B19452M36098J339538p1175Q12644q97326M42284
29722B281515H10105b068428j193493j318343R11816d41079B388001J212277l39884
29713C260394J500883k27595j26303k75109j567578j269759K071525J51140j237033
29704B280565a503520p24039K48051q43069P16451k38466C50874J962830o05058
29695A708646n94380J05359l54354h02782A413062K719197A393354a176904o02054
29686a778958M80671d38728A040917L23497j04598j31059J94919i32185E75442
29676B644183a319395j250110I45979K429257A618085B29372a822804j792793
29668c615597N31654O29170j750550M79252r14175k29924M52754p25222o50707
29659e793345b379556h90784a78180H89340e70794j743649l54962g83114m3719
29650h26833p1219j00726B1505J012120J390225N14359r46148B02002b345730
29640C65698K328026O16373A515285b76996b2942E36724N36346K927352j228955
29631B771467F75303M87359L18809A76725O7816J690047l76300a376420m95667
29622a872087J53619h16479E3532J165344K443742L08461j527658p78678L9963
29613A704706J48219k9863H40076d87713j8395A110108K882148J148121q32652
29604D307725j750944j242682g4860j473867D56750j5440a107386e34790C181913
29594C295795H50351J048066q89641a37219A82913a32965H86368a45732j942513
29585b088245k67183P54645b09466j93419q26708k63595j28827j615178n80063
29576c817256p4340J804701g57360A486098K58491E89914M88988K20731c91378
29566a401349l21404j532974j32019i15171B796151L557381J101255l117250A705693
29556B47043M31407M55328f28626a51034n9693E24121Q20375P36796J253403O38322
29546C973017R9974j221390o74299M10057Q89870j045109B12107J61249K223992
29537B597348n7639r0183m23935I75043C23064O93383m1942D13485J603299L30580
29527B347364r94089D65Q09432O89866F20955P48108a915486j823920P23551R74684
29517b041171a11C98852p6736d05051a97993A826089K458342j614082A043416
29507f6903H65838k55572J390791J674916A787703a265798j062942j516782r50652
29498d796174J94350J516197a357845A35199M19683j25305A59826b068482n57080
29489b625562q90506O111a697080I98949O35921p56399N13358d3952j670035j337687
29479c051674k67289L64382i82303e8068D71403a417267q79407M93942j037718
29470b840450K89106d81372H23541J321028R85405A268181A36498J001352l03250
29461H34600J255240K28689K54208H50363h24123j49549A36459a301302j715701
29452c017003q88802J724798A29080L950121n11673D50514b77511k2970l04985
29443f05466k50554b47762p7403r13575e86362r68487k531271J05708J77156Q22048
29433b981208f68113E73960J415757J512063p75378A295924K300160j42523a809631
29423c358807a222064E28310K065542R04860A722412q26733B33544D4282K711927
29414B756209p91054J035906G8011b450859g44511B36139b37440A555875J924769
29405C480644K078832n78251A771516k35033K043603o53303C92763a067447D96207
29395A572810K882355R53819n05311k027333A362602j70113P47657d65866k537701
29386c003567R84094b89033j436560o19082d73025l728j517094N06233O08277
29377h79337k157841j144418L21714a450107f49368j13589D02600K49889a290640
29367a43299B053605J079474k84251A158423b36075j115080E18637K874888m46989
29358B946536D20155h57644P8575q80780q4127a56574E01830m1144b45814j173047
29348a418861j698172q94000P12924a298915A805365K071107j215084B35192a889934
29338a069417B068545n58413d13479j403373g75481A467152O00356P18755j076811
29329A709452m81722k69804c00874E19633a8478k46123p85580j551455N75376
29320b026260k897826j111474J718536a998769R31010I59530N07917M10051p3572
29311A803926L32614n91409o51587B15212i02462k78203k70621K06055E11026
29301A294038B42180R24890J221392l52481C55524a225740A595166J594844j87686
29292C002324k86635f44707j785493d25740B259215C83585g70727E1952c02205
29282a502807K65319e8222B635643n22813b53349a6894k96532a16211A897880
29272D028521J270728j761362G5445N7416N96052c47544j846161r40251J387716
29263a746240c6955C17025J744147J000594J559986J261473N55298r69600k549530
29254B919393A237227e7624j667014l277085J882096a191104j318008k340133
29246d849245r55975O07368a937587H5889b836282k87133l23279o08860h82522
29236G97511c38604j912485q1970J87156G49659J760013b03884m09524a54579
29226f60886e1515D54996c208532k440751P07365M95367J025966a174390B57672
29216b966133j658229Q50962J541897I48102j44793L11643e84676b18920A178044
29206c36090R5170A453542J031738k01068F7752f97720a87791F82742M10434d26408
29195f74827A218506n29224j98136j47521b190650l89011m69610k130602j14491
29186e294364J056912p27065j21941N52530P80506K33050q3922N2727N9157J068359
29176b424051i35376m83495j505237d67577A338934e23112a06265n59458j396810
29167b062533j37672i21218B168735E60305b503438B14542R91131j54843L030846
29158D081676p80006E59665b55203l09456L0954J52312j005514n81714A432701
29148B542881J751722J232268k56821k116331A243690N58025J647167A699306
29139B542918Q36647J815530m15375B027548L40448b73836k552922J052283a60962
29129A253790k2421J522965j373865F50833J198394n86559j15011J910127k1548
29120C036236c511j863406l93003d51292A520101P06984j16353K362041N24953
29111D997726r84878A331518c103604l32538a096364E65456b21743j078972a31443
29101C113719J19312r55018r48695E64960b382458l733864j40369J382645Q63112
29092d010934q58821j020374l83219J160782J837902R96198o7646R73886L34197
29083a038029L48887o78099j24013H704J934221k07503e22914A183898O80116
29074A864014A88569a084243j188001M95456m56023R97548A022061J200649H02153
29064c528007j504269J797880a125568F84462M25554g1566A192435g32137j32250
29055h64387a81319j918596j084882k199600r40026J476018R41561a620320o00997
29046b221317i02897K19478K213A039318d22292k706825a489250c21164j647385
29037a968549j899553j503768m67185P65639J91657K179727a035356o18306j808753
29028c462415J453914O38231p53342j072156e69344K25724j312512M64195A21274
29018c23592j441806f57491A403344m09286m70109g19972r07083N87705m97683
29009a537033n61070Q7111O37614O01868b4828k773629k602355Q32674O50117
29000c918021J779520L16364g931B326276o79652m00987l23838K144953R76780
28991D043532j567826A002864J520775p42696a81201k625499a216407D51185M04563
28982H55748g37276k311023k297994K96624b478321e24681A262211J745559n60146
28973B447624D12963d6919G82409M81787J324436J684413j985223a089226d03370
28963A614933J006847D64196b701498a81075B21131J826325n07132b90871H67500
28953B513934b14582k579747L842c12059G61524H9257a063237J37539A32344J353116
28943A485460I7240a028524a87066n72961r26736j122601a286212D81686d8423
28933b6502j446669L25795A62982J306702J932006N86210p05894A257237b49627
28923c92595C3620J753776f2447k718720J003088C67858K40773a069079j584499
28914b653578L18576f98933A398284L50134p84786a507038j170062P52699f59752
28904E47695O66845D84435e7634m54480q61949l94365j328370M52985g01338A62593
28893a916041J8524k469725j97310J993710f82518L35232r54952d62091B514468
28883E732451N2861j854719p19962o43475I04845a747589j430500a147553g1279
28873b725403N57793q75816J093018i5322A121029d6306A332311M01987q22486
28864I11812N59846J707602m58613n683J075052J120398B324978d91291q99743
28855a391034q65404f03323F3313a594574j591819K92705J1153i97266I18565
28845A449911q5990c51437O9306A22819a872978D85223P33138J399631J828134
28836D446126j278649A574084h79213j376685j530805J680216h54492j114125
28828a968617n07977A16012L200854q15282j069508m28714N18520O8197B72462
28818b44611r28055k5497e39701q33400a52435C60121G3984d1980o20240m71849
28808a134069c62875A612668n47088O11079K697622l22860m11335P3969j171093
28799B542962H65560a634628L17820C173877j159923o40707O1025o64944J215774
28790A985102Q35533a04969j726577g98818I77574d78729r75169d13020k227110
28781b640130k25224n56446J032681e46232B9315J195016N86723a236866r14889
28772b151755K43494j242013n69191R97549Q09082A708519L506051N93254B137309
28762A409417J2139l61129Q42287h77336j816912i86145E62818J905798j80806
28753B287810E07767J070334M26596M85595J132446O37561J341440J267126k2444
28744F846421k169686A254996E75975b02950N0297C66734c59306E95652K30970
28735H26622A86099J113335L3052b128660c11426A214168I0333b861461k646258
28726e507719N24098J676813a629353M98563j771221J8953f17472A33640L47168
28717D80808N7089b277419j326232O84217l51055k77778c25210A129687b210037
28707c139088l67175a092161A386932Q08966p14669J372106O64796o58127J039431
28698C899435A642248a09665r35612j061430e00817D4258K33417a60223l90672
28689e50895J96174A008338N89164a23108F4519h26680j425550r50146J192627
28680b009749A79965K380359J342588q78317r71138n46060N75055d7863k181187
28671b229050k477383l33227J566699a42794E78236F4087f47894b58184j876675
28662b134859o09984d33928A042839J22229f94106j620610K56240j368547j91412
28653c618435F10415K186453r80170N80975k45205K89498r72682a043769K42312
28644h01457C03224n7064J391666N81506H03905b30846j333504K76308e69195
28634A332481B59451a168540q26535q30757j27091a155609N08061o19014k020878
28625c287440j950917K15585b450093A449136c60352p59230A673592j39128K056971
28616C591435J24639m99997A490184g0212j374141j874364N81265b42756o28020
28607h70776k62620b29194F8018J641192C39016b130069A62720L314429J247488
28598D724637k255534n34380o59147D16031a13236p57891K68867A498032J889689
28589C387721p66734j067464e67015j14120j557028k886855O84174J681283n76552
28580c336113r39355a203539D69663e40042k598856O57414j323850j845598J479296
28571d171636L77705h84407A385117D82244c86973E18089O41689c41249j468896
28562a810145A817671J113906A334820N33981L058497K86938n06332j717140A473349
28552A076984K65608J284355l27779k52757r71236R21235F07840b678798O39204
28543b039594N09301j524155j99621a429048A588Q44768j38670G4070c90957n67146
28533i58103A747724J695140j643307c67900p22297o83100J21932L41127A228319
28523A946086r51069L10418J377917j215426K26211k21970c80228n40427G87270
28513A434b21112B135604N09605A144370c18608k629897j81456e70176O9243k148727
28503b649660M83476R47399j78997D47644J084243J185399E93531d98885A036911
28493A734419A75147D8879L58668A78347K004415J197629A656177n47602C33190
28483B310889J714143r2666K3026j568681j121274n60069a274316A41900J120729
28474A262629a676662k484729J666638a150453j73885L08297r04366n05638O61453
28465a764592g30623p99925k442035J921490C11051b34238j156265b16039D45548
28455a4198r04153D55037J938050N39216C19819f79231A193549B83040g94382
28445a742838L28023n22038m16497l77945l28863j402087m97002J012952O91415
28436c254880j36914j53353J649078N12680e4514B019515K406369O06940j844882
28427C187942a268805l483520J371905E73959K730943j550112B37478a314561
28418i35537a27260k74048A12854f50684k864551J690299E56084a262252o49936
28409a912188m27184M1493k415993M76439a773812c94161j48021E55547J269273
28400A824820p30476N72665j12159J392237L61785p96359o78601J102798j117349
28391A819361j99078K64601B43288Q80060J827379J253724q51400K058994j62891
28382E249154k602175A48089J323645R95595m54808I4630d924189n7032K341148
28373b640073a130473k929396l035051J532558J440883M49167a389800A4546M22979
28364D37525K72003B15051a167347c63970q64175k395029a321250F2278a492545
28354a732122b50404k263160M56655A73148J30424J551888M58577m3867N67380
28345B837550o10602c76350A664002j34389a917151j054239m15878k85786a527154
28335A233972M06259A65192h30460L84753n71634J84951j532608j68745j24024
28326b657767R51275m3259o40987L20629o78472J62926R76073G16707K43521A68887
28315B194232K335185L42816j173294k95908j593654l80615J394756K3201G76470
28305E29484h27118k153924M69767N98124O44733l3950J27179c47406l96801G71334
28294A342524a30313o14058A376063h0805j128164a42624j761253J03961B189515
28284B526209A239194a14627l9173H31445C38038a402709n87470O10437h7375
28274A9623h52717k837705j056592K296824J140507k9945j353867j132597J825100
28265b000992Q65978a88101I22681J460965J695287K02403k121156J1082K074836
28256D246098J168664L77505k834823c26444G45944K732521N55959j83888J143266
28247D993802P13070n85774j413062l75039m7302j607746D19410Q20690K669968
28238C910068k64694q60746J92601k85632j013936G27878b080796a76174B287150
28228A250074C11913e09877K30689A493235N73280O23317d3553k530171Q55282
28219a718442P80672c97560J31916A46088b01885n60389j160574d89767B052415
28209C661436n7400j573392h6820j882212P44128j935154k7192J539198F82944
28199A355850E57813A02919M629263k50892k001856F97222b570436m25039I51850
28189C260800k49817c19635r70308M15554C2214P91209K030386m90299o33884
28180A729626c98992q42868J50462j408667n48036l32072J294560G78439K63567
28171A042006K68833J303970P59373J53644j448358b484457l361917j019517L408301
28162c457590P17246k610212l08242N87666N01005r74929N90464J730677P84713
28153b439202j379553l92677R5810R63025m65178a768933L31121q85612o85247
28144c008671p34121g35068B129005R45004F10358b304474B98348i67262K67442
28135f99820A859242p9613J88684J831683N42240j99346J49439j9909q7114l82552
28125C802754A805113k36896N75625q6975B84784d64986K15800k69390n37671
28116a056247n74272M71937L91278j836970f61600j4486G37043k13729P38300
28107A261614Q3638F28642R68415d00885J15063B115011R54722j378266c19485
28097b653942j281497J067965L00411j019646R95676k15688l54071J176186j168942
28088c153548M42799f92982b44822q10556F70218K875653j36399q57087p29587
28079A822798e7719j704208c03719r44857a62188C53170a437935j874366j29100
28070c441401j3982j939977J199038a473253P26556r65371g09289I8098a791010
28060a817030d94006B70072F8459K345065K783850n56365j585419m80885A040827
28050b145510p47851J187544H96263J909118H26853b597374j145670P31540J4049
28041b997455J243428B70327J676613K70264G6961K64613O73154a172469q49631
28032b022100N99190n0811e83165j424485k154778P27144j07624r24352J578400
28023b888860d80167E96672R73226J078621r02661q131f26069j190955o34400
28014b451424J170866A031142N95017C57400a067547o90455j092364J45427r56606
28005c661545Q66337j378682R07049d22197B422837K049802J224180k313370e00676
27995a845045B40359L629413m15654A341253a037019l146452a731835d46254j217741
27986a663995g03107G39666n4239Q74861L60855q50307d37162m69044A128113
27976C54877g27194k877769a702409h8870j218191l79795c40928A188673J057048
27967B245721j22559D17897J270650P7754o52211f05170g0454j488581j713122
27958c272157R00219J051468l77455j269243a105715B388325J80718I84660d00948
27948a713867n94131a069321H16606c82207j562033e66672D00387A78785a154350
27938e05654A129384B48461b76382j530964j872928M96859J028824c62005q46034
27929a208039k612181l79155b060641N64058e67469a49077E62595K697009A033966
27919b193048q69245H27747J974987M70822A248539a091426q74321C85622K166801
27910B552423L89707l72571e45907A08995M35381a64138n7576j173305O60351
27901g34668A28763K116692m28658G04250P3819m3540K624859K015186j047421
27892D327153E12606g85825c14819i6525A793333Q88514A011500A07150Q48235
27883I55385i62196k554818m00476a938658A188812J679561q05914k22783q62215
27874I77461A90027G0939J425532J683630j128214D23589J014998b90176k012491
27865b302667O32606a43775m04847k46880l42004M91554p99298m14533j45889
27856b005672A163420J372654A216166R06025J213814L79008j626736a930769
27847c748216O58666L43904N68735j272619O17188i43789K76578l4112j260563
27838a961886n27648J91879p44440J30792q26545J719186A077623a36455l455727
27829c592182N55043H8234J485079O17064K32643b71539j730741L96461M55031
27820a150788H32028k53077M94294N92022o08968d18289j676436L39691j94117
27811a949151J56302q89367M45054R25671L45689G51484J227389N01942J535807
27802D016622J744306Q80788Q61855k520828k217243j370200A87078F8855a58147
27792b84958B978002J667146j240687j027345J255825k62100k28149j90281G526
27782a4252k09397p18871B0759J219948p9081a24969k255112m68051J319831j744219
27772c272520J102954I64238K136880j103484g32462l59707j079379h31863C241127
27762D767910p22826j773753I56096b476104j003036Q08722e94975C433198O99571
27753D132769A084087g59707j838229P55530M37058j272536j026980j684896P9748
27744e310012a919732H8565a139147k122868O43075J137817j796455k041472J31532
27735e187518J612294a151445B396958K141616j696708c0046E26835P00964a973392
27725b993910f33860E10220a549056o16097l69341j055270p14185J423115e77593
27715A036112k49088a036137k492298k393025R67777A31915J874339o13325n40331
27706H52598M70961J671437j243896a463533k530884J556877D05848F6605a3272
27696f84156J5675a35866B34766J412665p93653a83425H16698J78223h26398G13714
27685B527058J865556l42178A104849g92466n7172j803965j458515Q97089J299558
27676a915471d22245n56730A043687l62385K120723R77090j009324J070224M74542
27667D314557j958869j095699D16316H7923J539006J212111A189744a2243j399377
27658a411620L54244D58293R29823J715674L515210l17548k85172k504753i47259
27648a036671j74345k469638j384305K199546c10763B329289J600374K45773o53490
27639C521946n92607L09140l65805J207497n32070A036765H4863B2168b6735o31577
27629f58312p09598D90038J350843C14217P42968A75914a425681A083772J090480
27620B174252B31226L20981J014404d8577j477002j680633J239370D31098a35302
27610A33545b05855H27813K223317R29429L81745I54062b746862j339239b026064
27600a440939C01907J379258j13310k54459a308298j702653j359029k78512b045484
27590a579269p54756J24467j86904b78942A397552R68800K090437Q75789j140448
27581D192130k085244o97083N21387m70817P67074N77897A398057a269076j42732
27572a411808a63112j10610l69491j13114a80864O0688k91125A513783K91811
27563A805594C53252a171419k126781K04405a259345H72798J868742J141581O28444
27554D511565p52031j47501J86370A718507c000067l217801q61927K378806a354689
27544a150882L95310A716333j45897b701133L11612f02523E60030K342100R34051
27535C836181j774497h64421r18785j052682k225182M40265J393931a360886B81430
27525C253302o68701F34127h25121A593777N16070f0325k67382q59807j809389
27516b996903n01989P10810N77058c17645A179110K30268Q79394b42054j491407
27507a733461J58745G93843L070059K64302r83441J71330q97391k67134J635095
27498C786663k01269A479334a491968j757831l07824M62801k426655R70696J177041
27489c373740d15392m97672o09486D69715L0440d39103j088924C90028p9474a316528
27478a089131B375510P26244L14399q6578j186522k46552G8125c39771A600890
27468B573692P55229p52692B79080a012294A46273J654591H59757b07489j319612
27459a527101q82124i22954F2475e98627k238945j403975o6279O66526J077595
27450b563705j58090r24450L33214Q24090J177770B034081O14271j287991m61313
27441H99048a091771l24375q2517J31102K72421C33663L176419L32060A863198
27431A077188e53957j947043q8421O35980e36366J04948j881780P23242O23150
27422i66806k63334j242019k61603A867830K422464k003706g47577f0524n7396
27413a17920j02207A801290K245064j45499M1365A761191P17789j214518l57076
27404I07386R13632L48052C33457b052644b46008A043360b5375k671274j834688
27395d531337j084251L6058P55871b404811m67566O46673K64880k33426k068627
27386d262877r40521b127240E85379R16138D25978f51280l935290J470766I57995
27376B758441k68512F46132a152639l209257J552978A065237J332277J235791
27368C633305p54936A015476o3679J216495I96101A82119a112255k88379k90337
27359a690971O42570d61460A364526P50251G09860c63372J51347H00648G0371
27349A92079a673576j310469O94789f61422A160845L7123C25182a651114J5102
27340a636012f5028G84935a363168k06647q08059N94810B187744J997663A147378
27330b353150k3860M1732g13707B057195J777954m8770r68748J848613A632764
27320b140553o29045J066917a66071H87355a241735D0574L065108k75374a350146
27310c443711l94578Q49061a67938A721508J787189q12436b45738o42473D167195
27300F899147n17645B569974A132607C89332c03228n85648o82349C03628L924353
27291D227981J40446j854276j084674J051035J366911A506387g31021c1930F11623
27281a607157r38193b31746A738172B9475a599158D74031J773896q14058P74996
27272B208865K25842G91333f76524J43844j833110K55173C32950L80977k54216
27263D59711a107253L99820f7809q02666k7034E44337M79662J586972k90996P93234
27253C113209j479053J248698K005095k222729j122302J864303j550622a508787
27244b536755a55548A948351P96717J451547p79667j216955J14259n9581d23699
27234a240802N75491c27607A206208j58222a64590A28116Q04345J732459N62680
27225C227600j464939E54215a132720k3726n46853m78936j74038p2539j199099
27216c627911o05703b073530e57759A646694K173349M3521A666612G16679M63732
27207A180411D67673J140000Q41333O2707M63258M53458q45857k00705K41445
27198B623312A255745i01287c73795g8463A25716g9370C25024i60179j673779
27189b633958p04221p00976p64277J187631i15558G56886L40831J597404j193530
27180A501591e76231A074093J947862A365376l29781o1308k94421M57344k39435
27171H97775d07672a11074j58080q97375o2926j769998o16754k94767p88577R71724
27161c727827j20987J65762a538248a98968l43475D25585J599436J473875j025055
27152B473841n96610q54740o653J458073R80558n58585j370974a311187O12669
27143f98518A946487R14414O41199o63417p36645o32502F38953h0674j315283
27134a395957j85146r00862j179272g71347B008761a362714k658515k081030L91772
27125e710487b828193d27545E25689c54319j300514p95844H92184J054307c90883
27115f97726p21166d89356H66419a11849B148894N33544F89286d73147G25238
27105B825988N78115A627227b753699a261297B480533o60806J303802L108190
27097F231719K083623j791608l156534A35514b089498K71471O13709L8121j814509
27088b980706J047260e7309q75058j739866e90377A866508P03235q7125B191a713172
27077a975553i49062j02753b87833C49975Q18559C73518g19041J47215j934323
27068b506149k880536K10902K133151J275554B24192d66669j251719K81489j623593
27059c060492l459670J025887a158125A545183C01291a402239J99450c40899k856025
27050c196924L95237J154271k572084K21988A41366R24070g8973A360124o1261
27041A298863a859647r31296p62748l91913l52986K24322J855925i82779A34425
27031B18064c55670B526682M72924E32355J46633k04596c074145k209462j81746
27022e465353O72442a784845j70638j295904l25767J207586o41260j085110p49093
27013d845031K16925N70214h48925A926876o34134a175441j7396e03630K45736
27004b57894e7552B944536j012149J170763L57269A101448M41986M68325N28460
26995B540219J80995r93187a60353l95882P2665k28393j040059k507464r80693
26986e240179K61210L60059b091061P40530d33697E57070C1989K29395J42922
26977D04306a201000j8688k29484f82800b67947m27839H0275O87254O47241A78250
26966a8321j034454j209698m41445J97125A31123J617528q65940l61476M44610
26957I65845e24617j675644O1424l70763L85694b58452B64018R59570k20487a211269
26946i26232d09751A21796O11152K80217a83439k909177O96145A420646K82300
26937A702946D65324d11088A92425P76332k15648i65721j314043g33537H27244
26927A442842J241482M80283A500590C38310j68866J591422K62015I68219b15071
26917A817289o77740h29591q23414F56152K621511K982253o4589q48310j326779
26908D020238A886383B73566L13489e17241A217718K665028Q24198k013614C0862
26898d16818l527288m64955q87789j563371J067480K172023k01131N0303K56049
26889c515497j578304J035025J966972L4318h79587A240909d65531k209503r91929
26880c666963k061951q80900K429484a429013H15161n6473j70347a606906q82909
26871b489815j845657k373617K613837n19477j379550b817194K30034m22360a074123
26861i35796k936824j584857J153969J044859a42087C760483N16192A766287J01268
26852A867555P58107n23585D31123j59939f3619j402467m28808R19820j238958
26843b214032I815O03502K085548J871984p71876j449920q73879J377247K933912
26834E786333L70191j974536F77545e78610a01368C00430a042096p58399a41507
26824A887123o38983M11229R32813I02961F9420a750746j275679j331497K09999
26815d147923a100956p6978k362110j273492b344958i11063j444717Q8667a067498
26805c88664j198402j50558l135073j349072O01626K042540a247907b36865B12752
26795G91182a085149n03047C14363J625358N09316I38254a71945E3181P30368
26786G83549e98378a90244C020026o58032l41134J993333j920566a57142q96660
26777a053802j046225p25182M77529j189003m82335a150363A746728K20231L39600
26768B306559J641078n71040l42987A514720i44839j689573k108529L47085a391835
26758I77322j84687C62151K02660i56315c32708k550268a389340B52042a317193
26748c623373k66876J009803j1382j856466M15936g45770b71691j861030J040722
26739a091999r39047m59237O07876f79189k63707j609872k021797l08943J154698
26730c728810a710677K12237j03832d69406j58888o23839A88770K19785d22702
26720e04113B34505c65307r34046m69938A357767J466683j294858l21464P00737
26711A908865Q8974C09435h93009L73562F25830f17869k5386E98270L63928L58179
26701A320377o07510e19824j056915C20014j54448J471570K455424A888187q30503
26692A057684M92647m39759h88594m39812d69432n96547m14622k655927J140820
26683b995708a31845j292016r60539o70528j159851J186391j91190K31621J182352
26674a805605d17604o00645l396957Q76073J414435q9920K06606j414128r69975
26665d392115J654580J168609p74810L47476h72607l79593b79779E90930j96749
26656C94181J827312j006732c0329H24647l15211b84829q03084d73087A647497
26646A380198a29333o71617J86917p54637F35924g09288m32161n96524j00133
26637a838106F79710L034120l21566B44881h41518L33787o86978p64463Q86066
26628a073106F35199L79557l74902a87299D48603J08964J157352B77495b718109
26618b999944K41756J075602O45553J62658L92493a4085F47527h2953B329109
26608C217139A204968b87022j244249c14907j20135l36912r28012n63952K4384
26599b239534Q07271J0911I14642J043148r65146J954737L37485A308309g08827
26589a962506n55641a024633H08831J710948K664706j128191j213624k09773k67958
26580B364939J602812p6685n54603A336952b361412g51734B733813J043767A586127
26570a660921j517355j022603M47482J541278A800984J229084j121865M1406b32273
26560e97055A63116O99220C70961M87196J091037J13330J26671P57668H93753
26550c68547F95559L546699n18433j700614I42798J154249J702553o13132A40644
26540h96304a90766j175684q33117l09059R29153f68314F63513J405497M01611
26531B470621A024750J74930l74374j34725P02899F53516c75000C80537J793607
26522B174144R89184l14772j337235a555076k181030j091934J086075J066632
26514b675333P3596J065945b46415c8115r67665D70821M36473N02065J194940
26505B604299R15328N32653A032330a159241k000917j121981a907809H3419h15028
26495b299740a145851H30937N5314a62161m20251j143992m89343j707345J740012
26486b183080k80414i15430L64517k033969J97623a155002e36357q0855a7359
26476B443096p48004m58952J341974L11686o97698r12283O0011b39582I87322
26466B877572A351120b065484l003305M38972b294319a057543p27307j397799
26458c182649o57441C17721J757053r32606f37018b04957j564686n15321h0415
26448a33299k801363L19175e73570A570629J042541l37041i5205l156071q68003
26439d119279J609942A76213f52396j483145k677641j016503O06602j190797p1675
26430f485555J229040b270957q49843h40766B424490J371712m28475b72508l782729
26421d055237a548615d82544n75413o16014j598790R54271b69311B667944C82259
26411a681666O06337L53680k052982j855902J798445f84834B69272P00132j6001
26402I53403B53236g5763B05060L04838a70205C26317N51617K5755J06251d98643
26391G04558K883477j121103A96912g2637A973586J489495J450993n96875j437150
26382B880049j234873n32134d2754j724044j0425k04817b03025C595330m89559
26373C105771j90793G27733a662871j169415n59886j151151N66405P01186J499761
26364a775971D47797L14607C75900e88069j088772n89898k153926k051186P07164
26355e764687J364948J837787e81108j539658q01031j17383l81196a470742P24948
26346g45794A94577N92331A87394K732272R18234B44300h94055D84291f32455
26336b692604h67216A435845K54598C58035b90576G2116b010799m28851p7002
26327b516652i19128I8296c45817l5752r52393j28298N89897d10386F94479J277899
26317A972378B59520a303570j704335j446881J629663J250882d71021j67933B04156
26307E45170r6037L59956M4395H1387J0941b090189n79496K63918p13106a316007
26296A514387M30808r7025a06646A632694n27621a542934N36295K55134I66639
26286A538753B05761l6932K82437J02232j03635K146112k19589M26494J487540
26277D290420j269987j408816l95820f35302p01774J36870k068799M2798f46177
26267f60004k19361q35879e94441j095948m20022g38747j162100n0213K04481
26258a746579j485871l57575d97600B133553A06646b078703m80055a66324A799813
26248A943417p59960C46934a57733j26326D84995J980494L12248J989054k180298
26239B586493j018962R79440B8628a334733b44225A061693L605286Q1690k314512
26230B434157k04811n41391J004884P48673K31060G59207B84342Q38263P69808
26221A892413N7882o10639b23313H61612k29875e43042J51535A198797K25966
26212A424763a44575C11300L439773P26502A890500o03740A5059b162727j596219
26203c758946Q80222i10682j94164d96276D27872O56325M64106O95289P56686
26194C000278o66342K03758K16591p70959h88486k497061m28095J802974D04637
26184A586793O78875p46778O27149J613634p45198A320473L1111B58236K035240
26175B293476J962050J63947j80422J202380m57449q61453j657334F01061O7662
26166F68723e9491j895292l68632b62065j875886L3607e98787G91315J619803
26157B411118n26177K59492j016942K88738J512604l81939g74622j566957q53994
26148c195573n58207J558882R61718d41763A142532M81204A14207a111159p67274
26139a878433R23618A194571J616887l43360L6077Q35417j350465A41636P47499
26130H89135P42639o05325n00610c3297j551731g54224H70912K83739O00652L01463
26120B056766Q58646r55460I38980K191109l5780n72001m92168j99140k75491
26111A555509G23309J015167G70498f78692E36255P83722k68610c27540C16769
26101H72862L85716m03724O19015a14478k440787a019233B73235g58066c24689
26091b311519L74164A231585J601729q73090P41719K34711j9028J065585o31145
26082C352066l32941J860763J45661P4229j571726r34323j179006o61996c090928
26072e248747J570047A075392L592684N33093k519605J79928O40628L6303D95058
26062g98492b14212j041262j127318a56707A621332K70638B93497b117041j972864
26053d089905k96154j572980J476518J782404R21023Q44187l45813n31470j25861
26044a938051G35258K71138f57810g0039G41609i84457c00075r7160H51866N04055
26034A355921G1002a357651K65583b050A609461k92843A28926e33871r72118o59958
26024b165947d87780A296484J037160J14946e19931l180870P9357J352223h13791
26014e61289o6153j47990J73564k62775j898551m1473a338814J93433F64566a48433
26003c41959D53475L38319a112144m91271C9317M53883c28751j688694M65555
25994a551890D23000J032622B36945O25356k94637l9552Q5830c41156A296234
25984C181974j343698J342959P42306r21887K427329J099795J35839K38542j497342
25975E405817r78813K162421K47273j496817j117617j914634C65531C8387K487922
25966B526309N89777A127109l3512R94550N82207J82206A122094D49641g47640
25956g00598j19227j295536g91579k51856n23654d8338D74534a567749o97016
25947b264765j73896k607836K209771c19680j526896g28432H42484d18801A080585
25937A177947l67121J194328A05539D7186a157466r89733q41082J421518A980272
25927C605870l64138F17984e72045b63223G63035a212425j139058M12700H36598
25917E86965A41234O47301J250615k10108k2591O7249J101468L559553q97637
25908E637084A583997j02204K49684o68315J255043o55279o31731J149586M88876
25899B669657l0608j142063l435J46173P71374K25705A184698D37837f51282j977549
25889b628831Q65412B23935N08664K1370K13265J080684J351427A288890o17124
25880F71766P42500O27107o89623O83316J907418J702088k176655C22419a18548
25870A744254q35245M88305D7859b437767j129129a337585M72677k996972j705601
25861e567481n04942K362065c90276d9516k504388o01030a482884B80008J79899
25852D59907O87679J102245K345413M70286j60847j016636B68639h67687A549568
25842D171147J364065j464293j953227i36286j532031P05735g88264B45911b25367
25832a489282L5796P26501D437J420785J762371A379435c29601A971826j9895
25823A951931m94156a336587C25745J130762i12762L04426D80599J475300m85430
25814A470469J394L88229l19101o67361a65441n55470o91910K05753j125103O21489
25804a710682A418781B0598b653720K58116q56242N02331d74196A381640J310654
25795B692294C80209b368447j547921a618383o28041j453026a827074A069404
25786B677080D47184j60411A12762b058707f28008A32010c278755p12621J864023
25777b127353L03952d32794F45626P23112K88322F5232e85943B883451Q56818
25768C740269K45782j090338b07376j067185j381550O09003B39938b79250n44482
25759h23732G37925B47424O29792M81381Q47805J998501j889218e13688l47390
25750h61078A3421N69695N87369J22404k54849A56835i19016o71460A137561P46332
25740A883893f70466j425722j348901N2384R61518h58373B130025k84559c95428
25730F92888J813334j177871Q97397R94478A594078p64608M29313N14992Q36716
25721B610491M07573P54582A536019B54420a290476M9797p68565o52462l72081
25712c033787K89044e34742I1886Q70562J5761c72781k728231K52979f28325G92502
25701G13710G718b71518a05607C80694j54624a37529k47945k4086D68474M121382
25691D589856j374802I94596K190724J075511j403118A293314J33954b28521G7211
25681B205245n22764b50464k541375j486163g69496A518063g76321j858858k688953
25672e324132j563744K56506K64011b766390a124988d50379A00291J57913Q58855
25663A117059j02076g68634L75451k754801J51278A71368R0418J43193J610553
25654B015532I99154i43941n6629C298067K350468j479772o02788A453885b64787
25644a299908A50532E8873O13370d86004j892862L20593Q7734J83495m32575j461192
25634c680811o64258L82172J671633K96167J81001m15548c37217A66761h6385
25624g48977k198159e43128g9873j179039o54666P65847B7235L46289Q58308J454286
25614B686118M54037m09625G37447K000849J071740j054922P6300A407700a83926
25604A579303J311561A344695A88473J568a181038d38325m92059A68148b336639
25594c645168J810265f70534C8274a37041j658872q54299J268883c8267j947254
25585a985521f79555B813954I70453a284450o22038b71454D37935J815358M037921
25576F291214n36858A153180a359218j931337n01122M55931R70918F27867k93455
25567C34412b821547J097632a33575C84335O58659l87556c28969E18511J972623
25558B491134J089814j259048e31443I17270O88186m80130L41757K58217Q98676
25549B623976L76525P58931K38547j345557I53830l56553o6641a3747l73083j581689
25539a968519M42658H55142k07313B82403f44173j199508A438207K882000j787801
25530B532406a583528M506c21192A882343J713767n3895K46926l7053j673058
25521B079030q85783O47401M90590A005096a170975k017666j331830J669462e60011
25511C283496l90789B90189a147568p64523h8498k3486m24062l3178i1640A105943
25500A47852c77229o87543j180200p17340k840439j251453J282967J384028h64507
25490d866G91249J136571J46811k46943E71295g38270n6788h6562j92700E74425
25479D493219m14717C88203b074868R51143A109402N0795M29454J259806J55706
25470C005163P64250j236644j6173N49716M93735L53777m43555D39302a637001
25460i22958A85874O33279O29172c53453o50488H83030J948280j089986h22331
25450b373385j535487m71580a291385H05339Q45845J687914m44342A309874d45953
25440b428891J60666g94809A086954a033290l3973A074380J705391E28879e25306
25430b30676n43388D01186c34652a28491B95026P45064J51585b56740o64558B06004
25419b307947p40204J486346f76831j079755P83833A739346D66623a564935k166554
25410c731489a175755A548809M4673M59786l42588B01186b450311O08617F21998
25400A543858M13381j76266b130739P93894A430662C98967b916549j389692J596253
25391b709988J200911D17987a046969k074416r0161P70816b24184k41465H19738
25381B802758K084703k146369j129522J573147p28514j107118c82592j839905
25373b222497b43642A621116Q89378p94690a330051k447095O85134g51759k552404
25364c304163J02625a289080L93528G36790C29000a781412q24635o47632b62334
25354A516226P31584Q91739n90674q35972N97082j070848a725491k069955j264195
25345e059641a335929D75708L25571K33727m78480P9668K27485a472342c32790
25335h43634j49174a17788n13089J81723A384291J483015D53444a08430B000987
25325B394411J676449n66035A187919k22373d78426k058539i57657N5147J23125
25316g79385J50000A307534K79327F84884a618591q55905n97302J368379j253023
25307b956442p54162L47733k245298J520882a880112C90272J865734j7511Q71066
25298C109561K123501n31377J67471O4950k446937G62725j00044l8320k91188
25289C33173c01696H41106C29082I5238L56754J330120o78089J880330K145155
25280E129508j243856J385240j692904F75219f39407A332783n97231J69373k03649
25271G01276k48304M50424J69157K718482L614841N8113l181857j113199A365613
25261a733956N87033J28698r68043l09274R04783A643159R98400I40261A53580
25251g56064q31746b75295A84205a99847A922081k9517N14850K373033K197075
25242F977522j070179j273259j660466r10495Q50920J014143m78980j284601a00987
25232a268365p92384Q50259M54423L51695j367055j233438L9030J397235A079470
25222D924436M08368k176449G21240a722861q32381Q94016J44191a38004k7470
25213a65474k757161j032598J192323E17702P87944r3783J179830k30324p75772
25204A385597h94480l246113n11451J698058g63258C0307c53722E55565j1868
25195E43697k3045J465859q08401L044116Q12521j170952j850675a22518l11532
25186d34050j432141L05261D56448N55290c28529j680439P16765a0112B3481g42361
25175a24778G98341o8526M77189J458728j214532b345619P51663m55686k213411
25166d263053R01039b76237K913A07877a952090M28895g16547H05795O78564k94190
25156A190169a221226j268794A35P89622b24081q78316r39955m90849q43574M11686
25146b965089j786313J691319a334576k8314j65416m97329J49491a69648j2061
25137a81709k56235J34514j025232K65777d93429A281511J319308a038442q34088
25128a872530M87874C33644J710557J68074a00657j316059M0784c82041k86107
25119f68148m09643m58227C80845L744526J262035k067315A242166B48122f04516
25109d05295F75207L417264L99110j72853J213693j118713j669090h09537O0402
25100g49135A943387J04589R1695M65115j061019K91731H11420R23464J144910
25091B879794a890132m19041Q01959M94095c27495l47319o43304K08850L25407
25082g83861A769675K502093K748286p31956o67480j361589A853851A68190b41026
25072a171478m47999A880657J179830l26213p99664r53318a129713l56161N74527
25063i11347g6810C89446A44810c70595E62478b81166k231843l89069J076934
25054a825144C42952k7211a055319l0646r19336q78913j963270K270452B72183
25044a398683j399483p46618Q51318a239987j010662l79064B276808R16234D05228
25034c78592m9870D68191R8378P54199K71002a667684j751051N15817J022332
25025a880586J52313j366505P66276H604d29711k434136R29264R55708J80694
25016g98181B08561J061049K02396n91710b014055l09788J02051J67591h92068
25006b220632k06600Q61203B62369a36105j83420C113120J261978j045429k05469
24997C124200J770171J44007k171688n28348o64761a043612k827833l65191b040831
24987b463000j468428J47157L03419O12646i04054p93447l28732C99853R22415
24978A322268c06709p35621j253467k044361b133662A125313K053899J851060
24970E030272L06483j415351I98423K97284J285045l21099B10232b342457O43681
24961a698776a14004B927517k62981G44945J060448O08011K30677N5163A70201
24951b059733g91512D00191K303860l2521A227733k58738C46795e22474A282482
24941C037942P15365J038543J68318q22177R37649O22518j313171j799954m1465
24932B543568J505431L53993j419950L34260p36199L79241l88439A091073J283626
24923B374699J285248R96594K675284j597963A182982f29935G59200O27094O48054
24914B034348J967311q35454n68766C60337d96091b03670A23546R37469m15786
24905F45229N52658M77882J232895G10001g8875A68952c83520o20138A608140
24895B047315G46051l0583J197250j44033B60550J97230E6686a938937p50338
24886b689275j960793p367c11598A189170n71366J270537r35474f4067o01030
24877f65097k467791N781g63172H79493c80489q94425a46111r78440L22822i2421
24866A012282m24846a20434l84500l40834p85279k634039P50454P16406i83374
24856A44575j3905J556286n77173a187720q15333M2808i10436a05334C403964
24846F582086j183811k001319J310412J384221J279171j666791A781099g01658
24837i1788B576000J753714m69027j589219j032719B88434a088108m19188L48810
24828a158486j449360J003750M56591A070990J425859r56350Q41297J7033B44251
24818d64103q48194e53924I65990N04399B38337k003K162791p0089i58177j780492
24808b738669Q92568B77242a098713k209541J462430f65830j668119q84986k033556
24799e252491j069330J988772O71095J029987j306316Q49345d62394B457788K86153
24790B743941r30755b27585j158120e18776m28605K94844B504861P38593A367715
24780G31062J96418j45004j00022J564591M01536m84119P27738o18318k30797
24771B043085I21213C03739K562717n95903K18867J5719Q3091A189577a627830
24761d816926N63864J069530J016071c69901p4969a00216A085557J322366J115125
24752C523048j666655B0228P68613J066221A60447b609138f71941H85697f12379
24742d53877q91146j713309a111638c97674i026j263140j424511j88465a278214
24732g900A629207p76534l20347M28826K01500R98408m57862Q24013L278680L80355
24722F186246J328858k7422j779009o66829k361823c20121j191065b27459D36908
24712b66910o0618l40263B52334K132610J415588j417751F77558a871052l780842
24703e651894j007380J280786Q10973N26194j14048R68555J518340r97434j772349
24694d438257J673884N91683M96951O24681N09797C69781R56633J202720p86834
24685A742300R24172K130543j012691A842516j97820O34822p20h80763J64675
24676g16088H27727B21369a83131A040607J619468O89846j470884g9944A57570
24666D400226P46543A531834a375210P8702O22861O0643p64464j22821o45465
24657b145754A10584J491021N31898P71024j107179o91179e19096j109753B74051
24647A710186o63098q5940m14971b06477j276606N38339F25920J258840p51151
24638A133609c05259l58296r74674k408181k226233L37359J200097K322118A171986
24628B594030l61594j060319e31834o69783d59260A042824m68544g22111K35660
24619d86451B592244O71116p30969P39731m57444n89580J563167j557965a479956
24609d067124K7856a621958i5326j01911B888995K419746O58355n70162J366907
24600F763841P9523j672687j130691K63234N00697L12359j407322H92061j9423
24591H72638J36283M63269a629220j790334n0503J099882o17958n73332M51226
24582c110239a404417j029032J25404A90877J732582Q53569G23716k68093i56546
24572A057551J461983H59438J002321J396181J87319j412770l44916F46411L6633
24563F83044r0041a081966N0814b42595A725238A77861b114109r50289a524412
24553D82306b7784I22997K648329J560967k501682A99290E6129b50685A282998
24543B094780r20131a309388d73997B682691J044585K57955L432987K096422J97728
24534I712368k235059j394245r37097J201168k39849j77532j124783j762667h745
24524a638079p20956j501892m045774m24616K272713R15523J430343J376638J166929
24515a169171b29764C45799q7006a774504e87656j01839q30400M84164r73867
24506b009598M02189B90627K5254a714622K56490m37161j898296R76315N14500
24497b302774i12402A736750K26330R18129A58580a114925E90363L52320O63170
24488A605853N21581j06443J75764D83736M54715J085297J283205A402627l05089
24479A097538f5605E58591b051738k94156d95688A536961a139760e33112A114248
24469A614290P35470K318991J068075k756498o53074J990953l79137G8699N02547
24460E81246g60950j676572q89579J170710P37165l16916j616251L73128i6793
24450d59898l874026j638121J680801a238331j459808a044582H66773B66334l1688
24441B34646O74995b55906j283809j179993i39351A645645A46483a858720l19137
24432b177857K26470J81529n83365o94172J94601j42152j362107J80996J246448
24423b929609J226343A117113P72728q1834o25311J39797d96776j320350j628115
24414c445241q84565a774911M86520j10081j440140M04910k63804L92319R6717
24405b208470M92808A926320K541104J724224o43512k670958G15806b471249r182
24396b480431E24965J221544a97926j205308k71251l95543Q77084C84252J457844
24387A842096J253118m10704o17861P7470N77505G16100a052764a64803l22259
24378d87062k235710n87621J210187j827559P07816R43493L62266M62330N52091
24369h99769C98104J508462L92438P39054o72534j66066l75836O29898K946112
24360E399632R20066j288403q95926K69801k76016A929229d06499j225704m74581
24351b106784E31031K883127m71583F51274P48790l32517g4059n92722E78528
24341b08248j533611p35045j002823p9456J663554k71305N8431b30360q32412
24332a062772j314649k629719K415477A481070J451701G58379f27471N7779j63461
24323g33153j19331A952808L74737l95890J540523j8774j374986J414735Q29339
24314D322492j428325g8181j023550F58346h2528k184338N30751A034401P23574
24305A757975e10485k744045P51902L89237O15288c90690H78475m3959b55609
24295b620698j261328q1795J437325b3166j879780O71748A617537K436559Q13745
24286D867841o75896E95814g81133E87598O14405c55438k373769M05200A138084
24276C035857o99772d01538A11435O41109j33572j68853n4109a754307j107835
24267b862142R11648j389354l36076J421268C2510a592927g67500A177324p7161
24258A100163J352351Q60218n03159r66879K1204K62670L66903O53570R29221
24249D076262m54024j409482B44268a228164J76853n02112K53503A164351J524713
24240B689064K484640m91697A452458p20134c21235j139692n71507K53092k01823
24231a981165P52605N10425L47647r7337K0350A462602N74854O29807o92035a494419
24220c128721r11622J543219o7766K50380J114527L73062j257963K2169A576430
24210D952064M90990k363941A498987J025192m03617p17533B55511A09169J414367
24201A523536D10840J060935N19980R1379J134008r72430n51512J612241Q30029
24192D135470j885883E49820e73215k063305j771677J762515K2929k284487j349936
24183f257176J467399p32402j203646J707334J417571J412776j56094R74946b26792
24173A22940M57390b30189d6706B95922a48845m627H77337j27011O54311J434228
24163B838865O7608j74943j035489B59944E7234J018475j52532m36207J757261
24154B244231K44804F45792k62851K34771A01126h22155o9701j170344k048222
24145d110422J730761h0696j14818j027571K5683L52600D64244P4431h53221p01442
24135a554663j555045k28745a370619H30716K935084O58873j725734G93095h18718
24125a057985C34279K002435K408376P43351j353841J674145J313648k552223
24117D570170A794657A83724J33706f08947m04386j483193N65759p17669j707485
24108d355921Q70780a148339l72843j952153j406349J173223a830632r94024O97943
24099b126713j005281O48451o79493K91384d74469j278438P01023N14941m68438
24090a005381j831191l21920f88924j506117k62125p49761k783072Q41229J646175
24081c502595P41869O53679n34262j84555a408434E83183k01023a792730o60996
24072b453726r55047k10813J336993d02894D324444k05641A950223B98913i78006
24062f54792l66750C99016K601451A268395d59962n42929B50411L37409e81494
24052a352272c85361I6896M18426L44657O92232B50225a543970r38098k334621
24043d816689b197404f20856A40709M2983a027651d36598D86792J566263J5173
24034B068228c76883J44011A085927Q17802C08766a15489D88605f09458q88106
24025a497564m83445K8572K7523r74028O06641J5996a122912j119501n05629G43645
24014C72516K80101J39727f74434K48433J50532H92404M17410i3344j776336b87497
24003A735569G33271J451773o52848E21761A35378P04813j73461P78580a78321
23993b399846Q72545H10309J143503O18207p50458g46A023312l97038a721901
23983b542984c45101C73739a445935L16642B757450L05366N3459r58876e62106
23973a574250l84757g76706G98463b21043E27176B20248R66346K57516i76436
23963g52837A722438k30077E3658a558616j490377Q63681G26095J466860R96378
23954C189333K188191O53103k972992c07979l63723A053373J371811D36192a096508
23944B11077j5959h05513k882376J145856L00548n45169O61287N54202f49215
23934c77890F60274i38155n94200O57324J11359j866008j713582j05691J649535
23925b799418a162448E63782Q73098d57184H02692P80498R9087L99305q69885
23916A211697k87486c22229l52965m16200L25944A296199J41974E39997k1630
23907E18367l4997R41247l18964a611799j709902d63798H312i48284l37179b61849
23896i77795n81641K18206o05218n39297J039092g6929l71030k7861E74550a820470
23885c007771P21930D42803K079506j065164r8328D77421g86740q7101m34022
23876a307863K65720A595078J157414J520981j5651p69577r35278A204379C72430
23866D84407J25069c45946A42103J437584m80110a135698j315787R91803A076332
23856A453505E01595A02572J108893K308158m1256j171174A125012d11061j294611
23847a705672f16775A475453l5398l77496J26606L057199K145031p98882j59954
23838E432559k37359N97837j623468j926733a140106j011224O29776A89111J042886
23829A231997C80140J792280R15375j327380o36858E07318f72563C74624a073464
23819C66023K048133K37919q98716P19325j019167J279174j149360m85798e03841
23809H22242l3855B80705o588P65360K58208J944361L265037l105847d32855F14300
23798G85295k02233J421B72711e29417k59937K3318E64358A52754K49328J01735
23788E03817A85309Q90549K360771l34891j483128C61447c93585D205488L251556
23779G457044k533698a316931l990452K76434K329174b3103k28125j583124j536852
23770c371204j065789j02477M21086m12739J724526a323579d15322G09217B06219
23760b70656k672882q6270a493188j1976n4467b88350A597638b58199p67069I18336
23749C208442A143194a691609j649039j77300b09006A108635f65678J80283l46668
23740h32063L68433j925230l013612J107301a768444k606787j444316j003446
23732f822993j085472R71299K145260g33015I36594b029608N45861B81904a0774
23722a970417D59775J988771a603985k309110k44050J549605a140200j157920
23714b298120f69320A128600l25822a872228R29937K33918a34140G0944J342329
23705A413273P22351L09522j33937O47233G18933N018a143705r41009N53837F88507
23694H32621R96849d71724j783819d58984k82098A45810b89859O1851j005064
23685a233072j882134o76394j014903Q9842b351538f44636k093613J216848e47391
23675E06402J439044L51529C30077a292124j253568k07523i95373A816873J429855
23666C246728Q70412A443516a233126j233778j287875j638433j81271J916321
23658c658162J824670C31584M161648J082678p91716B009272b83144E67153R58623
23649A525776a80357k110259k400401J092976J788270e79420o21455j716273o54675
23640c571823g08255A412607J372440J320185j826951j111217l38921R03338K70475
23631B001956r8694c1208l658601m46860a719692D287c94836B00303O9893a79263
23620B572617R46242J577220j374026C80994c376826j21774a164841H31391J325877
23611B157268J825534O73263B034704H49637d91163d4515B625J251098J222239
23602B475962A073008b982660o51135i86991d34010q728A099600b94710G39221
23592B468291j060084i15812b01648j93381J01629n26295j054040d53887E06409
23582f18815A000860J241509j038399m44512A22832c038142l025901J038250K266997
23573b758796j654706K11869K095437e91849D9976Q47048N50070D5611a849522
23563a709798I39921J685859A089193g49756j047534h61549B409965o90749a834833
23553c151211J61069J192026L12320a87986A318983l5126a276044j590470j769422
23544d635936k669730n70678J906273K269959J277922F62299A69166M00418L901300
23535D470884L581104j395688k816794M20113K44299j724973k7870n6709M26274
23526C120640N80235q12056m8356R79397G41131b260544O54103H88530N23751
23517A412281R93585R86042j299100H32719L10446M83259B92982a219216J63344
23508a055872E14537b02180j482170A505316L99141m81684d21869p29835J19208
23499a032496k24701j777549i63211G28427d36637q87907K34271b93084A909513
23489A037832D63061e63390o83640k69934C60573K475149p8143G54536d43660
23479a109277e35643n1637j262569j071487Q70060I53747N90718C45876a378846
23469g95687A521261N27153p89594l83147N3510j48502k80495A04237J828824
23460A933061Q87485j179377O31424j57143l79812j7316m37306E81286j11296
23451D69990J683833A93525c272058M63275a073994o48590Q14361f5957j170315
23442a236272o34799j318228j462855r34425m37903M42434J451270J712861d29703
23432A754454K00138J254614K72745A234194P59081n405l01786r9446c9078j220323
23422a259401k112452J186107g38534o89215A377169K335307j341264I44964d98078
23412b878597l96920p38338J507411Q46426k05803Q94064d02049l49905m44658
23403a196612C69767d27784j555550o28283k824780P13792N40963J11522J692417
23394b377703J165203L91691A990774L4254O74107j080180a641300e77106m0095
23385f17201j213838O51488C70006c26000A160755M09377m36039j51428J21117
23376A103782J031341O98015j398472l75891O1770g0320l99509q22625c03852
23366F08462b17336m36635A785392K950985o26004A925783N61639j040614R23622
23357B370430J180460L09118q56145A480642K13825j87437M14477J899614j37184
23348C683937J67148j582315q4644O45998q15313b261117k036542b126119e29787
23338C85090a035632j267725J50990N56988l74787j81136c33459E77823J519966
23329B097789q42274C83065J086831F56096j4578P87932K115582o20307F57384
23319a564839a61384k445823j257446J135435J180619A74820L02525J105676J407429
23310B990450Q40688O62512A792470E26849f06676q27659O21859n4819g7192m57074
23300e34266i167A653102B97767c01449H45437e86119k464431r15630J450465
23291b515715N20448Q35090n0188r38433P24401D24115J103033K262743q72804
23282B917087A114997a67308n12651j912678r01080P74386c47265F75709a229414
23272a436411A246276O69299b286020k35973a169529j125541h48600I47820M6492
23263I94312Q07984K17659c59716k359389J138157L09485A18283b37147q48869
23254a086016j10224J03600K48450C4687P06886J705356J458715K084635K134557
23245H124836j411082j853723k78948n73617q79820o61073F96400b343943k83285
23236b627228J50900M65321j052421a453548G41585M45358m01784M24129J658221
23227B867509A352077b115624j383049N73754P06583o27348j910118k38643J609839
23218c384606e51391A028899f21524Q761j237096h57323F2776a530842l49170
23209a880012H03112k4917c49777j571527B91463R82700J454881J24485C96772
23199c77551A649810J944299A155238b72726p92448m95307n26817N74788b94585
23189F29506K442114J067662N59919j742151f08620m34745m56036c06818D11522
23179b162242l98159j450178q44367k40064J823446C00352J370926K77955J926633
23170C875866j314491A000230L53699E96620p2292J4727a775325j518700a539210
23160g57516j689231j942712M08588c15922A737298B88054K56376i04759k12598
23151a117357p92591j616643j452420b344444R20764j354756l36412J04632L62129
23142b648087j537047l249156K036950K050585a215759G97926J394828K02915
23134B395669q84136m87589f28787k364289J97352K42486O89060C84993J394610
23125A779603o44056B04419d27898N8626J56278c2563j176443k788932J912447
23116b085491i26496k851492r43881a071328A779938l74030J865193K876132k116143
23107D031090A029309K599648l40113H9543a927300j465723a476053O65096a51318
23097i50911A667750Q99782r66328m13462r1407J484055N35397M06636q79730
23088B642693j245663O07135m22206o24808J462227L3109c31406j540384j639302
23079c511092Q05119p39288k504362q08916o48839J380336b968117B60339J088485
23070A348824n53302d54266A010693a6237j328896J38636J70920A398886O70521
23061B069407q22541c52635k414037O4201a338128n09754H40626N31227O92433
23052B064286q27291a4141k61583h809j33292j457802j708527j35637a292612
23042a20659l3146j401283j417224k14800O06749h19348B422641J459783j96778
23033C685646A637881p54286J557445N30093r32259G36597a97495j863806m54060
23024b515361o71062a101256A756093J922289A804385N73430K188735O66451M72034
23015E705035B299111A81989L446269K275903k502424j135781G48948d4034G12097
23005A145885B48633g99965H5378a939224j567534J035483P96286l721462j756248
22996g152699p05800L351063h98300A203168J216204m10005f43808m025566j736778
22987f406152J741707a032646F22406L642152p43222A203845l84134k85280A19295
22977A812570m21745E1947a511816l54193j021053j14751j425394k19759K275182
22968b371784a038269b60053L9623A408510N48856b99912R8054A782206o21705
22959A160501m76188R82996K349407N92871R26172k035682j522089b06118j025013
22950a231131l70136n50220J69203J45290C5838K900577J256337j452386j291512
22941A448854K81188J400985J56025P73872j480315H76760h76337j543613J019437
22932a400513l45666j748303r90541J115036R84700K75454o00348L09421r52127
22923c352887a634641A241647L92380Q36797J312021j06730A428984a992897j139683
22914c132580j04252J100021B13579K55089p8523P69659B67922J676505J711248
22905C655675A822064Q0128J01610I20321N14532a532911N23386K51966j362531
22896b120090r09043N15557R36696L87115d31325k38191l915774k776394J829929
22887e531755J831045J208399L21873l38423g28495G88695K33773a661445l744293
22878e405738r08062K110981P92736a461946B93394J433799M47966F84372e31392
22868b480087n57775J009916E17299K910035J112145r28297o40042O53844N1812
22859C676796j378637J26704p15578L66840J090145N33450j64485A222163a305197
22849a350654n50B00979b4981A507J636973G49495C54951A55057K56311d8786
22838i84551r0188g6984A018561P67638J414519p9517j257609P98158O5957p3951
22828B653756K04336J298915F52995d238843j55229J132660Q78324q65422l3414
22819c281924J02142J59661J33877R93375P11932a91895C76507M97477M73112
22810A347096K0109K07745j40712J269745o86035K52484J41045H08675g64863
22800f33392a98593j361204o85457J06553C43926a189884k0153A472407J146255
22791B618662K08557q05572b63412k93944q22064I51636P74527n10513O44361
22782A860011R7115l9860A28581a805933k065221J87013j450093n52301K4053
22773e662482R70418P95772J597608h04452L90335A078626N64802D29249l9405
22764C89844A27571c342681j177715J707214o9918k18598J009702j46930l91470
22755b630396J200171a57380l66577j467591Q01708f5410G05817a89219n33102
22746g22321C1132J024819q8067B01935b010642k077719j409964a874324A36416
22736d32981k473501J296512A5966a184952M89908N6496B22787N76038l3706b08247
22725a132564A262695C50266a048568k21010L79033j83617j9772k131153P36150
22716b488937c30391G79894A59670K109300Q7343j169650J051562F36757c01439
22706A039341Q40147j73272J67017L76917l98638J134602P13324M94799l72703
22697C821534N49220j185651q8362m52966r71066m62733J05104n6140b266466
22687f242718p54549J403302J00127K638539J355317M61171g7315j398196l82077
22678a857588g63114A281835n50569j76523J165097L29779f83439l700696K01295
22669d182840P32964j163577m69064l76278j30555k99202J314084J010117o98990
22660d263341J499153d72202G31951L69372l38065a71278r78728p67371q63511
22651b780888M33464D31582J947097l80504Q90496J668469B136277c68031j543610
22642a911641n01873p38390j161019a899197B71234P05487k85562a684207o4510
22633a748717A625426L089622p18528j943791j23948J000182J847907M4480A311544
22623a208465j869816a162772d72000j12546b23950j95908B13259a597313m73931
22614b071244g14231I72228J311444E57571M23295C85429b77421l39229A116926
22604A321024F3246O97363J054112D22183g55911A959386J992474j963132a39275
22594b350045q25766a102613j75882A339586K30556D60436a941778j557832j94922
22585c694532J046981B82274K050918j067842L01683G77048f59457b33627A131638
22575B652126K188125K90233k394795A224240L030460o26846H35295B67976J408750
22566A676726a10385j919763J51596J63568f30479c3807A690495P39013r05892
22557A523616J62844Q65951K00114l14301Q15364J284324k41346j422968J760954
22548D634552j384522f89182j318416K91816J54076G7286K513452J066090A409063
22538E40399h03173j468941j102850Q72545n71890j022972Q16675a286148A673217
22528B941552Q00959j443284j017614m91791h99328J30836I88030J080718c38738
22518a396821K70343F95442j05386f94352j079053b54274C10482h97547j846735
22509b744282q24519i15455A988587r82906a253579j463006j057517j297657J897828
22500c173931a267782e55478A673288N8407k32884r8082a064165q80989L04344
22491a640810e41250A222909J332036n81983J540666O16371H30237c042290l024891
22482f067181M08334K588472h0862A073925g83630J39071H63595L080016L36113
22473D279724r44033A479287f92307j567639Q94550p87847j39640o19371j8231
22464b930485P47303m90746j622218n89892O36877a766448A479941P08666L03622
22455B492229k8665m31379g21049p10453g06710A008121P36473K44201K333692
22446D322487J985166r65034A439848h34568o0150A515724n11724k38170K37881
22437A003711d30148k869081o99050r75133K381217B34954L014562J38097A234151
22427A114380O23541l2427Q45662j258376o41464k09491a69821l45681m84043
22418i99545n7080F23702k94589J333622k37419f48750j352922g44230g8460k275952
22408b354412j9344C88717g41617n6985k005706m28045a447055a85521C89200
22398A170793b78861a02341j63641j008949p59617B65375b28920o39697H37001
22388C507336o76454j195932m04513b18186N7637j47533m72382p61766A460123
22378b99045j434245A392242J730154r16691j10175I48614j24645J43651M69672
22369A437292K223332N53343o41922A573676b9396C21458J453718n90489n51558
22360F33129L61996L79155L96225q81449e04667j124523k41073l89739h93847
22350A26085b105039A00917K591393p78030J25207N94017O2442r00795A19770
22340a975462j653511a683203N19250O7654b38252l93107B44640R51792J859310
22331C055742J248821j486389A385191D11976a4519A128416K971091J377450j810553
22322C666404I18986c6858j25658k87270A053745L169833j73461j427911O75613
22313C297819N88854B1043c785872P67145J333783j151671j251609J712532a035735
22303a245335C48940K074856J843370K326414j650871A149155B69561b095374
22294b659180L58590J118644K5803k086641O63715J18099R58281L41904k66998
22285a427783L6236L46949e12962A550581J847889j271745j037785h32566r6734
22276i29300b99456k88355F1764K384125J611576p91913A065352K39689R65619
22267B270660K93783A143273C74800M16799d49520r47332j213142l87911L58050
22258b639855o66248g37531B768179o11390B83755h40735m86730j922283a374490
22248B540624J614928j175891I13335a59155p25250r68251r75119p63299J449798
22239b141276Q49097q59066R86277A01713C8175J52962J004727q3882J326072
22230B438054j180516n25197c27874n25912A67029J87164K197727D16645c80935
22220A816184o52966b90332D85990O50790G4328b029599m226421j114588K636725
22211d733883a313477J61801p11066R9921l02404r14723r33274J498023L98946
22202b016253R76588L5993C43916O25657J07519M55280O22445a030613o72305
22193a702918e47218m14489P726j45544b01988j769j139108j582224j365775l094864
22183g385728o74322P60236K336584b150644r77481J539893f04447l195047j723522
22174e523016k94204k07249Q24614Q58239a098338E1731i59500m85201A405941
22164D569842J93003j889846L10861n26426A103643E14414j3124J405861J341694
22155C248845K128764J20738r31281q75171A799952h93239A80191g16639A649816
22145B416050j028550l26655N64941n73658b22839j254481k156014a414593e98210
22135b293523r91489J184254k89235j159682a555614d13009A93818c53112p3047
22126d26159p70241q23467O62772k39272f2474A664585g56770q0487b30902E73043
22115I1155L4488D8095d44577j57843C109263k11056I17627M01837n47502a899782
22104b344596m04322g96161A828911m76650j54678D7753b83251B013920J137748
22095C151668j026224g28245E85802J746726E08115f74424j767541j219014k76851
22086c937830K75084J528437j011728J096491C93701J587601G18117a21679o33345
22077g55024k023135Q0982n56154j05491i85461c34175k78682k905953L52599
22068c166211J303423k655998j343226J653625J575375R9114A033226J237266
22060B270492r93046F20598e45117m61002J22959K89696I97228K830521r2230
22051C735519j725245c145171q96038M64691J558285N90608F46673J50691g71030
22041a628441c17521H4906c06045B947223M46909q44065l47378A036117J176664
22032B212781j42375K6012J691157j106512q28866H47474O73328J986358j590958
22023A916202a012542l33666c34390E8911J149995a298813k084238L60956q17489
22014c839584l38263a636290e2526B16475b017068j68842J006372m29733e30876
22004e02715o56945e13246A122483P09551J193636m24447N81087K088956M78411
21995E749677j280519B162087a410552M12856c27281k19771J72921m13538l500065
21986d287734k594610L01890J095372a903660g42273B78180J153867J416424j370974
21977A477497G01699J357441P28882P91403J225674j784465i95392l959008K8196
21968d926204J457531M83993k05745j483199J476982a093148F6231K433324N75276
21959C074831M04158j135298H65742l82213L59756b58227A0846J794225J085688
21950B890759A12561b128913l6184f86658c385C22002c53101M526o75567b31291
21939A373512O95822J798314k21775B52151b741476P85723f31503q04297D25823
21929A725608o79918Q08003O11834E39178a011755l39235b75311j327728J19336
21920a483703H98929p8203M94178C94211E5787J011417m04167K358946M14223
21911C436206R5200C26272a086242j548929k773035l09440a941646h63770p89429
21902a653199N83854A209946J237674K956483J378860k29520j641817j039000
21894C872626p3349K101055n37442j208189k020864i04292k69562d62309j094543
21885a556852j390251j99981j636368J195746a96691B422362I25352C75873b10314
21875c79988n00477j973535l0639d42786C08989Q51281J692379Q67133j143942
21866B575840j81331L43587B8790b414815j825465j43217Q95366A37153a252283
21856a597981E06488l5010c08883q70799j354499j82274a193517o83155j271949
21847c148621a432559A644158R15746K69447j058417E19385g71774n86084H59589
21837D280345J319809r75955j659146a67046j464955j129249R74498J76958P97396
21828h12398l4295d21313H48823l35421J203399k64757g8068F09992f86281r13362
21818a599643B531399L857658j83938q12857H83135a281080r47634N78591B327587
21808C458422K72500o82113L98212A534518e02648q22317k05075J71554C12960
21798F26333M0996J066660N98268q79296r3989k32269D74722a65331r28257B82058
21787A141461k35936k01935j10197K052446J746551j09464j565952F19687c019254
21777c395435J529801F31694d60552r38127G48681J839381L639532L338873k5535
21768I540932m70863m356093A997257P54585M773h17285L5431A641677l74021
21759A267656P7814E98432B84009h47169B87702A2037b603910k353883K038682
21750b919111H90032Q21194b5893j732330j287404j522862o22968J764344n54862
21741c981975L48185J664108c53499r0188I45580K140041J334803r04064A562341
21731B802412j41612j325455l02638J796511G39499b903574N8557O28160g82250
21721h25424p80100l31986j44174P71935b49144a0586j292617G71072K605171
21712C376243M69024j264375b97540n53796A9015j453a875746i29690A010657
21702A643886k91447k24275J371692J760458A060546a810564N48669A16892K926555
21693C043447n86119i56133j20960I69821Q61939J36776G49377a114286e09432
21683F25408M693J569365Q57388C57065b238357A53514b81448j908982P51830
21674a438600L91376n81527A010676A81414c485544q5261B08744J465810L85129
21665B059683M50081p35630N3653p60943P2478c52923k997985J1981J666140j40885
21655a813672k257811K70913a848361r0594n6783m11707o67499J67894m10575
21646c317625j334623J631321a214298A196835J336027r04120C12911b613289
21637h48595D09768f99189r10888j01833l91606P22755k1278M16083j543108O00147
21627a928917o89089o10474b55394A65734H0984Q49821J054490k64456a83617
21617d61994A112149Q63008o30729l012o51262a750612j947871l93084J334123
21608b757444J184977J13421J352k204735j495268K515077O41933r12910L16165
21599b597432j80126a370938B782853K368639j329338j550496L73827J89619J32146
21590B967250N80505j119867p93796P74890R98309j650256k32317k47461J441417
21581B718674O28036I67420B59310J829600J67922E75026K11614a2435B15828
21571B868653k39143A212075f96795a75691B302469J150723p83464E92606N9796
21562F52402N6295k49006e3830H85668b28351k251750J52575C50035K126924a67608
21551a625968P79790j073061Q66570A59557a180048k439593l39885J482236l81774
21542b859064O97017A22458N07688P0349A58346e67826m16068F50627K152261
21533B802888N66322K343902P42564l061228I71743c20322l88378A934182N33514
21524B467696p23565E08474e56284B61882a136151k225595k0413a260006B57760
21514F32501J599650j008137l66009K291796j78754Q20107p34525A145710b137709
21504c396114K84998L06290a380795J98045K51257j51148M52462C83106M23878
21495H06984O16294j1233J212157H52821B93577R56581J426809Q78728L44627
21486C900322A834941H65368N70914e55248A61602K030557G67499a308217N8894
21477a249323L44272a64754A082502a742433j508408R07596e52202A125885j02717
21468A023168a102530q35745e59629o91451k64306F97327A34882f78394q50497
21459a528891K40313J22440J42130A019851O54253p72820e34256K49262j88006
21450d73000F90211J117785L05343r8559p90106c81529A723195O76751n46654
21441A853292p51196i44557m78606o86476J044872D07085a043381j712746r35104
21432c691231M56064a039038A73306O06916a330166j177522n51705J286125E04843
21422D64533f02907b14461A75977M73779k65503Q16767D76119g49506r11390l591109
21412e252005j346577J508418O88621J481773a350039I20000f98084k949166J762508
21403a884742m16241k65462B87776J855712L48258l20935C56154k6389a85750
21393i76629j91157c73089r05027n37771n448a85975k50174q37356j170272r22523
21383c366300K52339j283125a012070I82406g62900q98047A87986e95993l239706
21374c835699l162302J074280J710441P91198b78468A899414p90304d01666A032600
21364C159342O53126j20903j637353c76469j804062M26811E35487J027995a206729
21354d339816P44091J274787J083080d59021r3209o23339K16205n85351n93363
21345b138078J33528g51339C593296l99802F34012i64968l060382l70757J745708
21336b650399n86126j631321j448744J605885J338125a531699D32840j72116p8344
21327A82380b49087k768682r46813M56328J00672L88001j235743p15051J054960
21318c915415J167728E72776Q70532A62781J68340J57130f32190j624647J49888
21309b106949a15593A89972E6604R14168j43782a312093l56249f14228B07081
21299f2927j524920A114018J822339j314013B88391J347960Q63008j224865n85309
21290F89185C44152L076821q64815d77760j559063i88719j79005k51721c91480
21280a267759j476119j208129L2737m02118a208812I79894Q94441L145239J549865
21271F569439j026047k563240A009063J590613J375103m97593r67885O37949l90988
21262B756262f56590j194042b74757A832484K191813o74674k47525K232603p6564
21253E258137l97847N23231n9427j705858A424740D47661d32174o33421d02897
21243a394073q97360n54347Q63219P54391c90819A013526J503069k79739B97596
21233D3004a16508q00901o03249n99688F69953J237993e6073q92056i3320k357523
21223b450843j417455a755831r23397m35658h39332I55659p3136B70293R59642
21214A229935k57565l16593J552182J841977n93075I71884a123195M01011A777605
21204B278981j020873e83632A014188K182990K49174A039806L4309c05026l062313
21195c367339j71828J92540J335025Q63637j288492m4381N09678m94720O16950
21186a848930h47258k43403b65267A30751b749339q31177l96895K32108a343855
21176b895258k18356J056448j897485K73980J069492R59368A425640P15571n047
21167B136164I76929f84864j313882j533329n55883r25733J19162j77480K430987
21158b641022A539101L92266M32871k06057d36075n42551m94180j859266n24702
21149c856774J027556j62275R1809M26190R91229L77846A00420a113052o11468
21140a724520j794086p79251j530383J947217J611947o64978L20899f29738A605370
21130A716276J587186Q40045n57273J121241j213167A97175e12998A813398o07903
21121A205495A67113a531392j885603r99167J682446B47870M95447K181728J402822
21112D327867j560972l11136G30335h52583A904845J152774j499980a206569j043693
21103b250262j71984m6174N24203L07587E8784K186088J352715j81637k6127j079758
21093B310065C72960O00052R4147L4269J447536K377083k213652A103404h70867
21083a642811A81774a45841j039742j609516j112368M93431m65130J46236N52178
21074c180752K84390N06362k75801r65310J798572N71668o01093N97233j747132
21065c011863K50527O06887M40183b03008I99327P308n7746k73928B07471M07407
21055F14878L9135a538639q63064J154163J84798K81505j270199f47755Q2631
21046e65124A88957J841897N04538q02696b484829n96306h88707k24797b16547
21036b35499G68294D4672d64057a65718j035362j961933J424946N1841j337613
21027c023839M71513j10260f28033A417205L47234J053054n27531b708l482389
21018c485097p76861J326523j00372b67359B70080A01955f37647A447715L264983
21009D712698j488591j496767C01036M4670O88239K10636K840209j42161F76077
20999B138341L699746k295237H17095B26679J71723m6624K360345Q10937q57257
20990B665803p22562n43527K332264J844331j763361A538319M66639J493371N05380
20981D003709I38550a753090E63649E1789b555847r10245a154821A654476J630027
20972C284503R4938j266219n79087J640034A535989B82813e05765A886587K229576
20963D116163J067670j47259l21252k46015j268244b46001j994270A56385J682866
20954A839251P00825m85682H54350J016706R60398l86455n86628n55809a134937
20944d60144r88042j359070i41397k98016b24752G9476e3462n35026l013084P17141
20934b884431q843l29854c66291A314570f9853j019320m051B21192f20185j174549
20924a794734k85887Q49813G24242K734257K007439j043667A455182N77752Q57903
20915B890837I34477a921873o10940a210461P3769B98096J981200J396558O60442
20906D336296J603444l92673j591031j012636r00447q56057g76895q15213A941862
20896B889012K8533p5736l87015q53925e85230q3707A387751n71764M50392K043534
20886C309913O8992A050213h84638A61295i05187l80681j154464j803527J093227
20877c150632g065A057619m9049R24017k38318D30870J341841n74695a96504I10193
20866A690701a728620K23499j39475m48325f94473m11305L8640j288006j573258
20857c928402j242431o75216p1145J916630O33206J591047H21684J217764q08506
20848A230942a88383q72557A589008M272156j964875A059218J513402o2265A112069
20838a305320l29269b36012F78949j42976h48292j880669J078452A581852M72732
20829B054584a469403k251570a173599L64244A893539J49028o67553F86392a38566
20819c74976k864889l18961J261967j165140r9404J106889J049020K01918j175847
20810b379423G0377K715261O28656j309557A54621a858293e02217j764154j770169
20801d036540Q603p50373K108519k63168k314898J248227a064390G25735l20028
20792D05707L15055J458973I22697l55031K53455j20665H5350P02680N46513k23678
20782A110865c82549o46602l68026M30939L87625F5925a260312j512499r730J371579
20772a410962A224869K166140P38057J917051k066874F51310k86024J959780Q28162
20763C153228j092463n77773J679106k3800H82942a444984k14561l2445J62358
20754a529632B86628R34952K778874r5422A619500F33297g47030j358590l08358
20745b413978m8266f00276E69113O63513K635876J08049H78873j93669Q96438
20736A581642J709621q494j149534I08363B33301J576006o940m44418J34964a588145
20725c943884R94312a169518E40479N82800c2364I19856N45444J000554p01563
20716A764291j53332P35832L33493J229570o03892p66296o36722p14365M93733
20707A682312P08999F85302j82962J824518C54121a214593q38680g69451C0682
20697b078841m06412a099846E19681L825635K269378k023734j567745j69885J511620
20688D364950O48544k76156j437542P674r78351H37412a255013k185901a301571
20678B110474J23061D1249N5375K296957F10046a363374A57971h98042q28736
20669a726778h55618B16786J5852i81586k63290P886N00524B749950K950408B802378
20658A794335O33512A081140K382451L927162j804394B225749l51930K83864P72110
20649B929793K071200B178572a92910I54515K466790r48809M86960m78146E46813
20639b54603A41848J413819K30302k19502B27628b667726m73017a033645F15696
20629A132020B46594b55266F69453J25405K537208A598886p17057J57130C86178
20619F76275J988056Q48978A081801D45513J433092J48819r22113O2719P84346
20610A952376f14740j683427N50642O94881b306n40230j413693j967704J44758
20601c779175Q48143J343265f62776j020798m8680A265487J76558C07554i52530
20591b897153a337614A729457J51836c74188J4233D57393Q33721g13596o45061
20582a358657B3913N90712J329612d20405m222416O09968J399929q89312k225110
20573e747346r62315K750043a413753m86838r43724k30870a107029G6589f97971
20563a401337r68677o759B919i46604E87783J551407J214521E70899i64433l62786
20553a327219A228618Q15260n11029E38164J387597m23037a427066o42651p35029
20544b804746l3880j174284j019375J790050H37689l68111L82469J38961A62768
20534F85277J00908e48340G15325K149266q87985B84701a113625e53107n1097
20525f04204K55775C18329A9724a951367o04798j276196j553097k609256J185562
20516f809152c117328A91936O15749a037295r51951k665773j263954b869942a396737
20506e4479o26527m176967O00025J591495a200350B51234a000675r749G78051
20496B036922O32322P65009Q0935A622226m81269b71499k819387j87594f40963
20486a053164K91507A031869C98319a818589K03608P26629A48581a018961k491314
20477c510275k06018d97071A822021J340453n84960j44667K428451j295823q85157
20468B680318H50383L48647A83567b12102A126022J545702p40611l80689o70985
20459H79439d02506k198633q51735J306873j141673k42196K99307a314567E32410
20449A724842J739665q37497M13664H04298L58276J536057j212003o36Q43705
20440B329697o90672N58169M90401K120597j786361G9120O45712K192987n08971
20431B408848I93151K199118K513484n73279M66279r50152j412095p77605I05025
20421i27187n36449D51992K190077Q66831J319908q02088A544763f86112k63575
20412i49687j252996N09558A987067K842908q34421j754743B46413j21228c8656
20402C60273P36668d89993B72908a79467j946375q84368O75353O86041p18081
20393b366897j437068a761263F35397f45516j333836d42n05638j711721g33319
20383E14480f01607J81837p19139m86174n70874L03789H52027K305947j470107
20374A687867a746516m06204C78202L75386J86301A96769b001526M75789e9140
20364b453049r51816K55305P91790R08898A156850J933411I88241a684847q50309
20355b535156b72095A036670J44802R09157K731475j326074j57615J023996F86917
20345d80361r94808K61238F34261d63677J39299H59972A0857a039529c55482H51818
20334A700099J264435j21411A635c539491j053294J492483a464077G91238K627453
20325C418691n5804l53306b02840H28422K830815J596427j431113A078282P912
20316A086194L339566r85917H81446L154238K076140o14772O5497M49844N59738
20307F572131J11007k009538A706031A3365a321785l008140a334841B171088I70439
20297D75939J441586R73898j290297p89929a143453e70662K68282B183592K251715
20288D435307p56483I35865e65340k063745J054427P07917j263920J040838c3252
20278A55020J326992a48487n14090A296991J82804j34513P14690Q91064C08965
20268b414273i03916A526894d9989o39548L10901A193877e76319j524767m7311
20259b148397j312158L72290j222254j992759j873674J093106c146564c67443
20250C09573a509970d14075F6281f38345q47986O71879k50633A990685J505702
20241C496387A074723D61104K78257a252675j442148N17922j116713J598239A375392
20231A962526F42683O82744J713561J02803r6027A225108b03797j424698f71830
20221c70177A170578J101270m89847J013083m02140Q92314F49613b490774j164109
20212c654883J36951J330457q38183j55036a188856A262645J983056q09711q96882
20203A539108b5295n0189k20318l66180D18698j7948K8319R90227Q97831d74970
20192F07157a03159j230944p61003R28988m62325H67069K691111j278109A02554
20182a934288j67830Q34906j21441l75939l75008O5694k0843i89480G65878k67558
20172D98320K49489O33365a769224m48481h75538k625135j638981J157920C37535
20162F74275c87994K0517j339252l19782Q54216J67310j44878k02001j810397
20153c162261N59787g93691l75250j49295j148636J147401E62792J118172J048202
20144B729166j196531F66258a445970l24058b40039A815227H23637a960333g70242
20134d85184J35224j68370H56351L74426D06311J64164i7454j675825j892244
20125c665523J682036o83929k135850J018440a678872p30467N12205L04425d91166
20115G50782K4566a593034m7847P78797A79713J237910M61252D0136a698050g77059
20104b80421C22393J042589o26216a883975p71312j335215j229809j448830j311416
20095g980557K076907a339876B51236J517406K415260q61411m46169J4055P17496
20086C607873j354886j08093J214330p93124q83677A98544a18043n80286k204313
20077b902642m52208J37340N49159h41855j47411j987857M0283L1111J201895
20068a703834g99786m13316N95125C2332b4008F35389B3867c584411j322815j276918
20058f184144J852431a49426L6398j596646B24755J374251O78208K122450J94569
20049D594233A804345E42748A89373a233459M94090D01350K230092j13769q4241
20040B433432j039434C27657Q5246J402899c81931l066534J27802a035205M69176
20031e66029p40408L62541K53403j013076h32114H58150C92492b61462j755248
20022b016710N17381j44786k18834k65596K66329j36954L09755G21076J372875
20013B093951m73929L68339G20097f40691A281738J642753m15501r70466R9992
20004A638516a50948B336199K799372j165251A347594a692168k937155m9538b209371
19994A107020J242943j034086k90844J032786I96722a997716k34589J73231h33537
19984f05012p26276e1484A691064k56883m44715a345754L07051L85260B312551
19974C900375A663869C94236K942995Q64854q94847L50675q83200l08430n66751
19965A899532k0116D82903a773514E55150J066321a78790j459557g59774j830926
19956b590700l99640j50829j551343R16472J366155J033813m91279m92642J116115
19947a243878A136667a073688j479994h90725j324571j040129a360888M46128
19939i14760l81708c86894l19432o62352j501935n9709L08056L51317N61775O83506
19929a025668D50802J458305n19046k97182A26305a522560p9426j352332M41272
19920b513046A058940J329246A111312k99291Q89443J359149j02313j188832O75881
19911B445349J8685F9961K257914L35193j278714A91553b072382e54371G00296
19901A514690Q24029o9921R86790q32100a658486q09769k350280j411729Q13889
19892e416375J478905L72630h87659B860691J893996K082840J216141k282072
19884E771596m40748J288270O67219k391827k077253A100929f01027A384249J031316
19875B415565G64627f84793m0049J64529F38350j47885a566392j640504q31027
19866d037923M70137J417395p21927k02523f64583l46183k343044j434605j457589
19857f246004Q20496b072797B22740K43213b49464j88140D25911J975944O24643
19848C026498o41943K23728L18284j386958a34543j2857k84533n86132G78J474746
19838A475524a52495j093778n96667k55687l83967K49362j833053a472201B057026
19828B998119n03647F15464J223278K270994A918092i63273j296846N87661l5632
19819a708090p24634I9720c72094j432158O17270M88791A212158j97852B33469
19809A232769c21268j328449C50062J035231M69537H78672J1453j43317a115461
19799F46219K401617J199070O80603j061244j845756e40224j407058K32830L43420
19790a371032l79103c89170B060560O02868a29618l60606I02706M78870J197177
19781B578753K186007j48693k243939I76516j16576J210804q15013D75796A66484
19771b848015r67533N19869k20436l28258J069236D60200K404525j86268F46105
19761g71401K25874j526618K9071O17745l68642d76724l33371A36487A8958b511828
19750e269643b246121D09375e48979k072721a137234c04518L3768q21442N38319
19741e53873A001887M88066m85604j1898J267892L21603I45387a356116j053031
19732b409147a190086G30438K738493J902021r6000j293212l51502M99633j010737
19723C119134D26969J641155j9802n39895Q83999a532943J70155d43679j651133
19714b094812r54793K33681J71490e59803C51911e61962n09682L18906k00638
19705i53376B88841a013735k026409J119618j914819j152323J674792p1466J085172
19696b299170A854755J937569r71019n43254p62623D66881e7614A165995K108667
19687C274662J139734A870778b547583j729754k13339f67879a75091q17198j013815
19678b006104j66796J27383R11381e25095J42123J62138j943862k31343f92427
19668H73197C181Q74934L06007J94387P69088n80060N6346C48730a915797e20760
19657B437077a965530q25546h69723j048211J74769b04438A604123E40568J502010
19648B042578J026129o73340m79620C84941a524047j940064h27233A400140P50572
19639B150712H94614A53467K79784J510370d96799j898546h21318A273818M21318
19630A695136b26038j611383j406654m54389k9281a416294G88026J366225B04796
19620b83889F11309d15001j357522p22057N81954N99089D81412J354242A46951
19610a426741m13195P67698A64919J277420J001545K81160K632942k99879k346358
19601B711749d54880a45101H87069a213240k64680j2834j151164j117199K6030
19592c733087M05725J649743a05228j347358k455513j078434P8821K210725G31189
19582C099765o46073G02322a363158p85094J032516m90468k42284J55280f93346
19572b52934C35313j42507f55812o49920k64511o00669B003406M671077j88447
19563F486036l065931r34067D96693O27944J021834n85335M49887q2916f59698
19553a039787j965192q48529N73851J551438E2302f83100m02326k074661j426814
19544d586901L56230J820369K25886n48731o681J127541K76955M07436f6633r76253
19534a042886m55198m54137O69185A132824R8697d36317o94351b61368Q0195n97448
19524g78621r37125A30312O09466a338011l94209k75090L34479l66174j476361
19515c515366J045906J071990C23023J954819J760899p8581j176743p73630Q77586
19506B887373n715j137066d80848k0684A188547M22351F50483C5883i38141b18755
19495B704011o17024r13284m24459P67243C67415a615599M14063l63586M05630
19486a159492A417828O68465j020385h29959N1107j309112j212066B62694K260907
19477B523601K8030m91939F45578J93910J600530l07368C9328J60067Q60795J45831
19467A206021b61113A5554R27923J156976k98680l90984M33765B66546b98630
19457h32932A320875K407563J50236A94504b943280o8912o14402p0714a635924
19447a822552p70726N24093f15869j305925o81687J271373B93997n8842J679312
19438A914467L53904e06252h2773r84974o34678q82204k084191m11978J469768
19429c611030a793358c63824o8815A491133J095596m11393n04361K586790j1715
19420D246050j337217N24125N90749r47720j54074l44933k86667B67645i05009
19410f68104K40860A100058J070010K4558q52512D06647J835488Q52423j416471
19401A678087J368201j217135q33144j75927F0866a681750N92343D20338O48733
19392A069071j70814J461644J593272j430765I77724J282954M11141l3638A178313
19382b604616m120220q59237J005426J816991P642k495293r7247L671379G17319
19372B240043e0692q82317j443922J106181C36252f66418a10951A940245l91825
19363A548420F9768f35371I21106K420874N42116Q05874j689237d32435l60874
19354g93309b48118C79342A61047N61669a133746C17933Q17451l10196K86838
19345A112026l03815c14317k015508q75598c32404I24448e17037j820918j492302
19336c830257f57738I26118b5925k379389j821826j365709J131092c24990A710794
19326C130607A223974h15246A69610K085607Q6889o79398L78590a018127r11077
19317a929204l53703J089787M23987k244128k83701N91471o16398a324792I44183
19307A786616p33699a528504j421824N77896a51839A119795k15006J252058m19359
19298A737488o27500R34976P63075q40450K35939J588194l84923E36619g82028
19288b416951L7115J179213N60059k43991A91221f28915l66759j5583j049010
19279b060267N49347d66810A94182b53968l8208L9872D692J525551J030956j265087
19269A296112f76698j327444j671289r683O71903m01378j051919L02228J934622
19260b229658q36782J011283g1643B97393J725432Q14580l60878n86290P86039
19251B676276I79086J160533j39731r33466C82941J423509J11043C30702J47065
19242D77767M03303M55960b5058C94232K163066N93918d37042k479624a220402
19232A475577J707368A214736C16155K328310j200410C77435b090297k670187
19224d760484n67531J426382h54985H82870Q1830a300362M50079j205868l442804
19215e498955j057667K563736M42402m07619j591854K09550J879090a661995J50619
19206a511376j39165g44858A988963m62661D90687b30053H0494d16573n0950F93161
19195e57629j848312M24074d60960g8651p45675j973844p59064J97691J451170
19186a908373A831328k1627Q37662N70262B42017N15934J661876j80198l11131
19177A928498M40567p23365A52617o7756O55626f64545m13492M37208j668486
19168b309315P90343E80578J458545H14782K54620i9856l64147B189444N80280
19159B769724H8698b573937j158630d0333A592297C63281a427114n50780l2672
19150b010566Q7436A37308J718760j88820k20930j24962a83293j709916n08821
19141b402030R71599m8564N48252k52840j701009p44571O4065a115149H01892
19131I41133J982390K662860K139889M65858k445664k764087P2231r40549f51823
19121a269686A301724K162538j469773a013646n78339M87307J31818c42718A534318
19111D170605P28137l94648l35663k005580a775029j699795J249808A88669P7516
19102B66185f87506l20215k493527J84472J023637O4442a89995A853433i28664
19092c390800M30008r86435J230398k533111K44564J195008O80119J535456f92664
19082g10381I7041J508657k18251j31839d37093N7528A835192P60117o39960C81714
19071A060651J059577l22032p62269m04901a207450j746541m41896j98710h76252
19061I15481H3726a183715p13779j252136a090741B768908J640680j390523A033024
19051A598055o3782o84548k26346J02871j03066a510886k56335J63330d80144
19041I93804J707421m0815a64220j544765j676083a358845b58100E67447j78667
19032C88780J659745m77359C06016M93890J462826N39336A312163J561803J79667
19023C053633p69974J04159Q76989J667670M36806j331944A10515a225254J15608
19014a109646J79165c54497Q2160C58370a608878k061519J391642G54726l7509
19005G17217b881707l64583J097332g92686l27484j52003K68656n34164j629206
18996c166887j68770a418995A481748j55678b798A765313O94404c13209k943410
18987c256619r85773J169067K7912k3214r96147K72498k71351j89859m09653j72977
18977d836116J129967J251552a024716I27269D42248R72290J01839l93527b02957
18967d3614E78961d28142o6724p30817N3748q98537N46835A16429c16900A650860
18956A144875h93177r29097j040774K53045M97573J00627N4354Q17849j030211
18947b169811l35331a140627b43701D28465Q74075A39687A6979a471967r45302
18938b417269J038611k524839p65984J846549b17347A196699J177950r61965a083359
18928b181633O8666A82256M66560J549460K034988j843849k95601A65740b247349
18918a662912A449647K512727o55347g02139j791548A318196j44003B28344J580416
18909A808760Q81427A052892N2363K06928g31253k486070R54860m11303N45748
18900b128018H00258a21402n05107A21250b973905j103320J511230O43743n03296
18891b425548k60048J97502k7547a067726A87404f05547j902964m63779b989j324333
18881a327322j505752j521031k79188a874355e75727D58998f29578k520099j577268
18872d726945J841663h14492a34664l0214C46034a179319j054816O23575L75128
18863a235432L84250F73649A76651e3696j144959r26401A365468N22675J64874
18854B053017K461944o82396j378510j148317K86373K071164r52174K6334A011303
18844c13170k325495p64820O8227a06747E35404Q54481J317767A092997n07256
18835E85741K286560J270121n83150j668118i50676d58841m04580k45480p4045
18826a182946D85726J391954J70693R43109j417837a30703j521143c79620G77178
18816B99042K363608K58964n48805J663355k60716A162447e36840j119227N24748
18807a131319J38446G6433a380037j255611k5787h87298c61595j705883k05602
18798b273080n52622q11163k73192a243719c13317k033333N25033g50737I52762
18788A011181e51554k602868l47580J518006A458879K943801j425581A415552
18779d95770o19564a946A251755a539613l46146B152377J949908r41924j473031
18770A687330O1862e87510k046299J53310h82554A530290j02197b696199J36630
18761b559569a26080A268949J80564e0604n21690n33038M39310L18755j426742
18752a774009J80935L49266j00114p28884j866281a855212h28127B45130c16298
18742h66443q92541A189454K101450r739A485089j72795E93513d78374A612192
18732C927001L67366r52912q45936o43362B48159K321396M19962A124584J45099
18723A269683d07661N6175E51470J404368k60077H43113J03970e965I44015l66503
18713E77512b877320j523240q79466K568856A096362N73626N79061R24077G60917
18703b314289j216849J552078F47466M3328C9468O64343J608978L8734l77738
18694A973785a504882O66191m1916A13896R1952a446135g3441B317316K77405
18685B594721B17419e39257E38318K268939P50405l78355n10624D97262k29001
18676B68261O87581J089664j13281a541265j157629O00053Q42989C20832d07971
18666a614438B0678R99958R12711j28772p12706a505702l14914A551873K167982
18657C719855j65400q53086j316619a081026l10378A06570J843477i14270j997281
18648b911551O22939I20088J570141N9275p70645q29753j67132c36147J44606
18639a91541A076705j71761M53389L374706R08799k671593c90250j182281H4369
18629A578437J748025M90108N34996J224869p22066O57875l93525J46779K57909
18620E523407B107536d79996C67246b140877h25694k90618l081111k529278l62581
18611g089282K935629c55760G29137Q51710p9661K18800K087543J078054q69217
18602D016366j196169q49077m97134J365778p72544j51793p92283N88817k46004
18593A465957J21230J405020l07268j069730g90945L01035H05473K031244N7717
18584B894434H32122a172895j284061c12284n09139A20305Q85487k56017K03190
18575I52965J637634J665349j311307F98880p4020J450847N71469A107806Q37173
18566A944979O74883p34424l33539M231464L464625l391112A65037b940995k67574
18557c208569q28693j059631b398899i61151n42197o95404q22990a233206A648292
18547C838965m80175A487193b89730j197647N77113C49877l1973A23363a231008
18537c052932j135402J295439D6437O71819N44122J237877Q5848j57364a40008
18527a484917j311493j446369j105818N87833K193871b45002F55769L35985a389344
18517b072301r7349k7023h40292B058620O08857D94263e70901r57829f25014A166090
18506C12360b439864j421372Q78254g96450A002517e49976j910624j565404j417141
18497e443145j280811R12391j95911K067842a788067P80632G60448a125676J46654
18488i79022D39441J512097M04546C9437J278230Q71210J86178o68528D05308
18478a01258D00816a51814n49838L20734j123797o96448H78097K192999p62496
18469B308600n49708F30611J591565L445582j791247A821380m23691h17288j908749
18460b726037q47849J07622J513777I20143J043415I9471N52032K308598J73723
18451C133824q23839b27615j374888k64265N18167E26954K485988R45279j773878
18442B184343C64312L89670a238853l449855n24169b246837a66223A027620g26588
18432c202303j569319j069418L43065J225023M15682J582344e88737H44350c57910
18422c783563r01124K338956H46883L44597L84091K131393j449418I53910J028970
18413A982880N66784F00116h04287a51182o5185m85340A680724j99939d36006
18403b109725P18913H44882N45839J89569a10981j438725L31272d24612m93952
18394i18564e9050A25333L39827m2644c18659N0426E3752a292869j729240N61103
18384b461006J160869A685259J288421A400810a432031q72164j061919P3816r06630
18375d198928p59417J860454D80739a021528c74797B878350N65090L03047p04692
18366C041795I1439b37449F71286B56973b93319A211711P23344r37512M19425
18357A416968P23519A065256B8845a702655j053828j222135l62223J375265a227115
18347e75191j425950o29747Q59040N6011J20017c15625D00790L45401J511039
18338B257230j99210K07511J296879K44540A203321g99315j699907k023267j964614
18329f487103n38338J366715K8043J715297a597752N13564b1031r06458l937534
18320d865023K49091K253876g87067l34642K04621l21550n41750j605367j482832
18311d868587J275055J538385O54703p73231l011070J58621b465018B3274J143268
18302A166542L031078J273512j890830C96352b158032N64661N73182r70759j471159
18293c462107a664666e20044F75762K047637G32382C63767a856o78078h7814m09053
18283d96867k654878o96467a121300j993030j313168J491835J446758m77576R40858
18274a025623j064107p77209f40473r56770j562017M94994j289185N78121h73587
18264B382754J063235l62020I63538P1568J554996F83743A65127J483398J711441
18255C359966P37924j921298G86119r2620J054473J597706n55478k14337q94359
18246A681504A24653a443809n18886i04400G23702J049776l72719f06194r47595
18237a553789P33574k184181j806598b039657E04296R66471L03783J041028A101297
18227a906479n65072o3295L9341L9430L36392K43732l7065j201224J518660J65993
18217a429587H1854K438455C85804a864797A92128q9984M34128L389823k28841
18208C697254j638421q55950A82449C0180K89837a465934K98462C26285R88858
18199A315143K66188l24137J942803L67538j109504N91180A421666m34412a376261
18189b990837q56294R61884d59976D890108N00533k517400A139645P8784r3538
18180A124891k98545b22711O1787D8891b44357j222474j521328P45929b54210
18170a79010j346443a8633B088329K195533J077902A226293C69688K680637k33816
18161B816509i71272L07943D11904a72945j215337E488J657358a96464j681121
18152a877585b61733G00882c59338o61366K13546A622622N74781k57385m77890
18143A462128b9168o04181j50855q8104k49012l30332r52553n69986J164410m733
18133a814514j2524n32713Q81308c08221q09943A7900a38084A75911J079791K308851
18123C564553j482418a326132j56101C7522a077348j40458n96700j856695J296947
18114b374254H69396K58921n26711Q17114o73260b4548o25634J74105B609877
18104E441926N90483k436195j044650K49495L708658R99021C089408j532432l98021
18095A158955J214317j101780c11264m57852c8811o6705k031646o51110L12159
18086b476113c97953P2947c686A755011J66385q41379d41016A131738J562697
18077B694435I87839B11962K897900E16672a007810A037455J990938J63931j222398
18068A969926N8460J457716J489597J710132j837969C1858d90083j173893o26668
18059b290644k01656f81967F86040k6435c11943B91070Q72879l32383C73747b158338
18048c435942Q40083c90436o7725I64450M88091M32105E2269L9263Q72940m64900
18038D99572a695619k873596n85264J946873a380645J55128A05843b80300F89129
18028A853453m05109B34103i52678b70998A23523L53289h39701l85053A089018
18018A886416J572578k15472A61353b374234a076672D12950N58716A59427b292513
18008d529876j362108L95725J704841k14108J02752R09517J082771J98982M31848
17999a279656I5358b45840l493613j383212J370851K06892N66307j276695K168
17990d253142a529484a14328B178995J793566Q45653j451989A224491d08260A059483
17980B767831A262159E0265J097491j7137l78004n1804C37616B332J952282Q83501
17970B838115A16715b833184k046097N28739R58838J335122a3179j444965M63816
17961i94328k11694j66968c35268A596296p04588a635545M51799k209980k184968
17952e578694a175871G43097n4522f1913k19074F16781L14782J864607j167647
17943A628523a101981j29438d58317J99822r39482p44939J5980M86925r442c05506
17932B047768l27813H47872i02241q48860L64972B76114a111323N5569B341353
17922A892968G21005k0272O6345B28559a827589g24024E00399a49228k067093
17913b216321j964573a860179Q07813l36835c69226j475686K67585d41823j455551
17904a897374c20990A63800M94008d243A779340P30256J061067j531780l20503
17895A718380Q93319k8422r18301o96069C76255a396218G51369O93864F60009
17885C01789f63422k69672A06939a164568j584586Q74988m78030a24437G32553
17875b039903j223051a470409j174545k752699j947468J399644K678485a128320
17866a819577G842i30088l044933n38697L58205O9649j89967k035927J362449
17857d949309a455236I82756C30163J061958o53073b144458L66453D39035Q95361
17848A334396a087516C8461M268979j031643A097479f1544j745632M57675E18049
17838D076343p67979A289739a79321j68663G75890J13090a704229N78719c11130
17828a434482g07339P6582n96783j492154a081152D72626O07138K666861K64881
17819D011506A647194B70668a46765k856789j599422L79795N77013P126k954692
17810f593734j701698J125891R82325J05486J338399J214109p00487j329683J07178
17801e452214J73784N51770J360678a115662D172319L637174k41719C528425q13131
17792B715294J216420J141688q13813p30275j083435b44393E31562J377734D91904
17782H0228M0909i20458j149736c28663B399236l43740R6518O49268I06490J052629
17772A959119k31290o51940k17540J403539J631106J588405J155693k364009A794960
17762H86086a151767j672557l47807a200107d83104A00982h62567H391J120655
17753A129046k64028J067157O69390J562543N63483j242775l558N08049R43241
17744D932548J531904J96545m16512r87608j614755j180773J565924p77356A124890
17734C228274M06425d89812k416344Q56753D11312d80362j439318L80867j87745
17725a726558k161391P24693A014362J389769J204961J051344k155518I05823
17716A069452P49744F52040K51826N07525f07999k421636k157260j685583K19801
17707f652677o61650j711594J699488c627203J393822j788520M79893a206326
17698g88163a1393A349831E56675a101874j338495r19096j400057J521197a348850
17688a661185n59704N85886A225958Q56622b26507k95223A580058M65907J460841
17679C506806R42173j617438o69835l51126c57085j159266G87711B1591a919673
17669h34539M03253G32123Q21211a19204k022002m80277r9555R41076Q33517A452469
17658C002824n14384D99751f06518A579279l13912j31103K297050J18757L07276
17649C857347j419304D00397f71139j196139l30063o66739o31929N9182k07748
17640c644575m98425J796531g11122e0032B079962K384628l20213j125179r81210
17631B037988o74933D34309h38863r02276j061333O55342J25625j626923K27345
17622c421083a491315k37117M43907E55956J864892J947930m84716j809171r29297
17613A145594c30219k21933j66510j786388k570664K430101E07283P74974f82635
17603b104195R17553p25975L53044j39432f75040H04088e41000m23527j047209
17594b011736j225706Q6923J559757a67917n15101A367084O43872c11011B57261
17584b86806j146468f11947k84898k54290A33092Q7528h39505K04993B478673
17574B365827F79052e59151A501451k49260b05913k278553l51607o5919a31522
17564A985122N70386R19989A541293a58439G14597M73459E11506b616845r13190
17555c530035i26431G37071P73637J629293j7271k89112b88249R6420j173319
17546a365148c32252A195406f0889l44079J61644j250134N05241I20627K664626
17537C585253l70894p41264A20679c242529J132240p13967n52016P63267N01689
17528b111316r35294J101306D53091J280916R48095l07908A048991g13607j02914
17519h16521I03272K256144p00956o87943F08577B17461N66011A34649I463R155
17509A8618J669809J95855j063q15933b51825p95745m9218J44448L50403B70199
17498A406008h03378j090583j16190g24822D71241c48974o10011a67971B947682
17488D816213j445999e87391A97048J807337J67607A020567b93721j373454p75460
17479b442635J082742J8106M96023k47236K27551J37042c41147A482267O57577
17470B139844C47189a458777k0138O13925j504508j203776R02817Q62207A562
17460A343367O03881D56237b457045k173864P84921f13695H91326N69223B04281
17450a555507j40744N41897E12425J212650m650J175132K560985P44989k186417
17441D015114G78204h2705j584944j744142J558787c9660A794057J275224j191761
17432A877520a683783m58543M23961C24162J971756m45122J181735J320438k85080
17423D067889p18181q91169b158967k043553b087802P54385l13451p00172f59467
17413A645637n61058i00006J63318A114412j7590f66925J77209G94355l936f55623
17402A253186Q86480J73493q96613C98902N79135K364227J384801q46955P07325
17393D587435B022806I08817R99583n70718E09615a608712k79402c42738C67858
17383a793319j196505a390253j29835p22158A3833M02190a6296o10538A38829
17373h85918k867869J292786J82075f63925J07512k994102a516275A3162a03542
17363a724590j567635d04189A822255E31355a35673r82192k212262L10445a047930
17353a972478G7614L610025j058689A039957J175364K90464B58898f34392b32537
17343a279978L82465n90939k61148r68832k794500j794447J262618K312664k13953
17334c946050m61453M40115m59986J671774i35861j143238i29280B07347f41164
17324b18337B217992J218292j520790b71494n37594G17367K278216K473193q07336
17315D661440A171980c707k379662p24931J473892f66536a16124C583311K385871
17306E969182k572687r58398R808F54265a818505e24605B219689E03117f33923
17296a82614j47951R4034I21147j97899C46870b549527Q80733b84953q66134M614
17286a146473p88475E37777K551448j420129g64370j19090B032234i4920j222437
17277a317357B97881K002016J146495J482499r79531A495975A27149J38145J580497
17268A845791N1165R8400d85849j609850l78658M87819c85079A068182a639284
17258a912430M05864m52135R66541l44280k144849J452240D83536a762565j553209
17249c315774L45361j068583d49302r5073j294375l06985A56951R06036K18527
17240A281514M82377F85228f53231j757737j920938J623916M42247M01668l87416
17231b251491a001560l75516j59893H16675N87865J54034a57869j392359j500630
17222c050858P87606A203949K849486o60956A097265c6096B6776K864432J888717
17213D779925B317482I31721R11712J336983M57243I92569g80458a22726q51056
17204i73782d29353B459884O28482A299973i306H1373R16587j93055P04913K725684
17194D235502j139824j047841l75785A12110J747729O72290p22316J71901L75751
17185B357465g21695m1778A245128i14676j377137a8096B639742J435237J586243
17176E661222l27068O67335o48955B114595M9267k84729l37825a211145k434787
17167c645932N95141O5065Q6949J059664F24530J53986f7026j23245m86522k43997
17157i20790b81325A18362b5049A418821K656738j031596K77962L248r40550J281954
17147C666577j90137j115874Q98605P487G55347a612882p40482j111887N29211
17138b936040L72498n55444a331949A180120k21745a465428j436720O75221K79594
17129a947333P34862r28109l6913h27143j75049j811840a7022A889314R95299
17120B884613p54041d50257q01287n27410O23420D10697L43648b87282k79200
17111e66482q43376N50394A782121e91560j803455J123175A136706P62009k96339
17102A602376L898567o97298j763999o76362k94842Q90237j17409j277149J011521
17093B575642O43231k08241j181482l39262O09l99756g14695l82018B29373J940801
17083B170174j073030J361352M78535a009338M19090A262119a131027k56156c3292
17073f73835k30114L88716a63054E65960K003576L15331A378365g40453k0404
17064g60857F0614c16388k785388j715963q29191K084680J61978J687778j887366
17055c599860j958347J432532a283118a41676A548429J315900F36864i79729B87822
17045B00787c20267j889208j79521R31391r70643k88051j100262j80950a642322
17035h47579k333712j629532K67368K038783O84281j266653M48237B364e40282
17025b609694j480990j279519K289605E76548K381304A140151d32139j562667
17017a994806o80947J016227d14978b5783A208856Q29999A000386b505285j615453
17008d120738L16896J220967d3438A355144b217127l29221J027274k37907k97476
16999b054457j271604J031728l2164O41940I97731J850043P4368q8416L16725
16990C150451J33471J160984m84575A144376c477571r33556J593355N73849a109371
16980b81181m30792e4201n19574m20517M41298a97337p70254k37031l99317j962801
16970c566740j630926J566400h88374K95379p95505c71969A772264N85837N82452
16961B940553J50632j287877F06951n7873J224672m47632P13798R3853B3670N57053
16951E80723A80473e71069A280363J507302d29433k359987A789912K107977H95800
16941G15297J995193O00997p38249L87258A216442h0907B265160M18411j299265
16932A384306J63565a731974j552137N26912a278588l31567j287396J229234P18411
16923i49906q05980D04357a02184r36762n0965c96623q83644N8162K10289E49538
16912A794413p2063E40441g48181j882917j436663J86491J192500R87395d05672
16902c31357J55548r16187M69896j19593j720314P53677F02818L9690L40396A25149
16891a061472p36000K31191M09259k04517p4919j871966L563L97294b77493A979020
16880C812868j193282A297845F38876K076046A291756h40066a24873l11811j635858
16871b072542k533249J403240o39461i44308j31396J18819I64527R4453k67312
16862G91668l00624j3105a526585q87203E62344K562964O29618j392155j31572
16853B231199P72917O2602l3535A431174E24255Q22785C37296i85978k008823
16844b994801k523433p16724K447486J886752e55107B21703O27355N40920m88039
16835I01939O74886Q76767J599685J03287J962380K69923C010655D40547i05534
16825C64520O05677b534504k075490p13422b357900a015090j465573j05257j14207
16816b700127p91766q00803a596967A138026a77131I8846N62477i91155H31976
16806A21458e51767g4391I31791c61656l041737q80353b084537j233419r83093
16797d301049p7272j186703j617522j151632N2939L034561J592925j033532J635493
16788c051792J032216M36283N25589A57587J958451J174640A568451F88021R54287
16779A642308J680984K77237A439497N11870J147940j099388P74835O00457d38846
16769h35217a0055C435915J564985L6833k332582G58606h98638D51284J361148
16760A812432m96176m90698L6655C53146a124290k529450j521352J293182a458739
16750a430668j180438k6239K19456j292611N32421J156028D46552J911974J624683
16741C983209J83565A083533c89171H37533m16191j51689d09322g3495C50003
16731a149758c0378A943551O52159F20079a070131l2833q58132J59361c9532H88127
16720F42992f71725k206840q44022Q04208J083970A04892J938965Q68683q9213
16711B823327O07882N33263p79871F78426J87006Q28102L962432L056043j413514
16702G298495k954852j052268J004166c35793m436957j239523Q97505K185525
16694b929243a098520j673053p63170p7246l66017N02628m65892P40055a551103
16684a382090j581968o04588R03531L47001e46093B631438N09602Q2875N53543
16675C777458n7397M30019A621233E86406h7393A677659R77438I66204c566o63198
16665f66764J53080A681744i04485j254911R72884N80435I54442j08402c096940
16655e115737b548759H88398a401508l364928a846319f15412C25466K0141a260082
16645c828278q46132J422479a416328B12575R57061L08450a069013k271124J097460
16636b242677b34737f3385j969144j530409a716347C16878e35167k02158n97483
16627a334808k68194F2745J461482J988276p26170j381231f37785E65472J673677
16618B239149K46021o97341o69766e65634B05900Q14178M65149E20015j16242
16609D03773P5582k32484O14755f97704p56448q26035p03022Q76770F8583b317059
16598c920374a249618p71516k86137p48913o6791Q10030i18878H17162i81914
16588b016267L67078l41858j04239H58682k3456b43386I53642L43377R50084O65687
16578B912790k14321k33908J326904A889112a60649H00448a187146j605412q5949
16569b878507a287135B84215a106240k956421j318911k46389K180466i24753F42014
16559A775895J51918A79009b4170G47303j87082a42240m5523q54224p75197j80434
16549a997618J37671j190356M75907h67773E59553O76514f77411D03531J037204
16540A440735J379435A187536a268037n08188J62478f74353I7694c02902l96341
16531f99243k465887j82672a352625O61249k167150j435818J554667A212324O66198
16522A878522h58519j858461j268192j101185J370481L00090R34326N16030H49263
16512D334804j71327F16905b421974k091138b114322A380252L12799l93578L97400
16503A696873L54720q97270m8978m51635j81837K366361l9008j028359d52817
16493c041384M97859a171762j41216D17377L15175a107715o28265j071584j170739
16484c978303M60168Q27727a232865D47665B14211e41364r78197O10613A44325
16474a75836l15213p07320k13861c44401j15068m72242A138914Q62973E76250
16464B11660P93261B20164J272297J8059o38021a130834p26306h23118H0059d45913
16453a556415m17183B70702J818485j57361p86095J749612n99819a53979j867994
16444b021973r52874M76105e63548B209080J029869A284505K227246J580821n26705
16435D565867M56658k37328j935163H68677N55444m2178o80088e58299F62708
16425E40168A31654g43811p41019j394491j85305M82548L37034L74365O17720
16416a252959k6542B1821K78275J168100R77672H17600e0824E3120a98562A565077
16405C611404r28396i59083k139342f75506j58457k887509i00046B193318R1073
16396B284391q76062D08949A55251g89083o56481A21441b95244r46917C0632i91015
16385b218146j291675P28754Q09023I10623J326660I76503L48730o8947P9912
16376A336198h65351j494065R82110A353000Q31846j13568j15354Q33069O74644
16367C463637q66702L50974j032740F63049Q09631k74181a534514j614610l35392
16358c484516O56446J7473K19450J91628K58383L98549J10312B50636c24358l99860
16348g24218j599841L62310f99126j134358P32117j386315N89608g09466C05771
16338C049312N74742J84235J367672k09808j199486l60629A159020J31689J389052
16329B679761j6024F40444e69567a00917E90915P83743F27058a302627L99606
16320i03021a52523I60885P08127Q91054m75948C11170b483609i27779A490010
16310A558190k9765F14416J954839K61636J51388j440777J60645J53216F77095
16300a508601j615488J057750A28774P31087J327193L45798Q88174o51793j68341
16291B600892R49069j329626A017868B30507e85011H20263K570392O05521m86972
16282C509204A409590F83043f12841B202307J141936A491825A57886a442220j041258
16273b483478O76380d36741J4573A301200A46233a265374d30619G52143b22891
16263a404038k66758A171518a0247m413558o24894J736097b91295N0121n36904
16254g78078j151828k199076n22039J843122a030284l365149N28207F13816a47643
16244A180086k38327b55267r46666k173630a410392B368124B6173b878055M36723
16235b441332l24933l24679J458411F83478J777112D73839f33937p92878O25989
16226h00826A067428J227865q96301K55409Q73107D97903O2964J985994l20401
16217B226460r40410A12071c94722j639240o2951f58619p12865j205739K51566
16208b325657N96194J88301F84953J488006q4845K133648J488939k782539c08235
16198b423529D97072K659772j32104p8559j349362m47435P48643G53682a271689
16188c417444e66529F16559e17808O9790A744440J263459A155085b24790A170283
16178B284730R83946p44190l71491q70570d4785r62577j923441j343380L6522
16169d237661a958618h54663M17856A063307d90728n20578C49182j16889b16017
16159f42045J53758P8447R1703k059334m98399a037500E31667c89899N3068A53248
16148C286540J913880k466954J84949E15992c00740B353405l91061I28828a63409
16138c73957j219043g88556C14256f47648m6915r16920L98329A415286J91153
16129A606439j83503E96330b715715j638182l83399J29474R34337a432499b95228
16119a384568c3435I615d6717p10992A441647k50395A99640e22539k102410l53624
16109b978573l3243N10748J209727B149655d37025j860811N08725m69178O45269
16100a613020G71635J059626o94360L36205M55536o21406D85374a748764r68122
16091b716886q3509L85152e03256a4061H43266K25897e55925j197077k63266Q98783
16081a117485R4291l30736l33716O93780M36270l461749m14015i10087A21477
16071A60462K35564O3755A88621J624c13399k10838H46104c51223k562115M19223
16061b494115O91396P48137J19385j413727h60329A506702n69901L87836J209437
16052B534074E54045g34199l69337q06736r06103l541540n55642b453209A527312
16042H3551a33403o4561j428490K83996D65689J744396O94003E95523a197320
16032e39317a00703n75432A172221A6921a283235C38495N79251g7432j430424
16023a507856j448822o83672j978815j984768l14435L911868a940380c27763H00271
16013A108124B80702b35188C47005J211802R94988o70503M84928O63855H17387
16003a728753P51396L14196p33412j150129j186927R23876J287126a34972k077074
15994b212046K34820A731523J589426D77817a408739L4124k61385O34933J84215
15985h16852a74779r14893a29602B000115J327680K431152R9534A893108b055107
15975a118293j25534l73772c07056l94387j306213K57845K86202j259765p36534
15966c459908C28882J366602E18963i72630K87560j369584j004655P3618k008884
15957d994575O3483K231768d19543B63777J971402J712476k0196j627709b76929
15947b736041J06153c9909D65923o436K595104n72340K36127p67184c77003k628917
15937c005920P43440B32508K968141J84838j594676b05126j390325A428323l08882
15928A119441e38564p15507b72628F90447k15571J873794A065810j5517d03575
15918B31602d21091j256753J53567O65586k4624I04407Q74240A57433b854097
15908c638741f88121C95988a551787j190483a298159A131753B8764a107275q9680
15899a196955L81129p70766q25690F95258J273803p08972F26625h59465j687403
15890b546868k52792M02194a180596N43464A770504J024490I58212c92280E05765
15880C272903A372861C83573K82977C17767a229972e77727h3774j390840L49940
15871a124674q46867A58865K595626J030820q61702A217822l69731J208989J13496
15862B170576l33484a387272j007265J171656d44268q47417M63602I53984N66935
15853A520919p13902f78827j989974R88901c73706A162619B02120g64582q17933
15844a582515n9615f31263k69194D13506a577839O7173f24185n40011C97171a209518
15833b318986P74723P03018o57839d13558A468003B48718g2867r1857E2527e29356
15822a895400K91082f62950J62863A594498K84351c44920k053000Q91489F71769
15812I08069a724817m258989J46788R24498J332541g37161D5552O34970a26879
15802G58347J801703K88990l418R91178j384306H68604J415374J250702q6549
15793C448131m83031p65205f35420j537226j529888r59398M08400a043313H55489
15783A237743e73165E00431J406395n07022B34227R21843R53892A97164a113945
15773b655911N45179m99124a051169A662289B55183J97542Q82718o33814b835867
15763d327711b064905A043712M56077C80354M20459j41098a7731j37782I87905
15753B346664K67387m24073Q32393J617281J316719j831758r2378J507623J995388
15744G535246o68646r11218R97122N298223L695278K212090N520023J5375468
15736C9053586K2166978M3626949Q6098951R6017453m3975226j09020565n7177734
15729G6790392l0019143j2214748r286793n887499k303496m94186j800153l387419
15721A1396955l861972O66378p24787k931210A675083J95338Q45560K565234R23587
15712F204802j330043B035984G42494L38022L785014R75018k550704H53214m00676
15703D52538B16992P73043m24425L17351K886771K031379j779508A818392H99778
15693D47790J31463a606427o61979d22166A131970J286362B60780M14541K637665
15684C312986J826013R79243r38443A859665E0762g44354m69103O6568c13210
15674E56015A10981d24881A824442Q02597j209505n67138C84285f79822r57342
15665a637164j239518a194051A297408g09298J42423A959908I69681a77653D52576
15655B638937A271186e4940A127317M30023F02789J160478J129540A363045i35535
15645a804193j386283j31463Q05511d37655J22344l87004C16268K254601Q19987
15636C390856j091509r98709B15448J24217R82952Q86711L99411l77931A020163
15626C492885J064561B250364b3688B289724K844359B447903a544670j456644
15618c001314O42790L95437G8969K382071M15823D58452b097551o80113Q01392
15609a976272J80907l49717j557233p34458L86047a332664f10976k009417N17276
15600b103117g11387H55384J432905P80100j288293b31694m08111o48058r8291
15591a386154n34661e24884C31932J127247B84393a579221F93386P92412F30900
15581c62262r55627B83940Q74838a479582J10310j527201P81688B95676e79658
15571a576358L43032N3446m93659k08961b02698r7298m39913k78827F50686J891556
15561B542242J382759q36128j64314q49416q26531a463281q94660A846497Q22947
15552B669444j120816J019388A88868a57371B220015p48463b30822G99005J315252
15543B114257g41061j445627C60434J789393J587111L85814A574062G36358L71290
15534A107648a395085p86342b63046A806107J215314J176191K557621J930666
15526H685899l648335A796104d24855p14060N60173D65709J25755a49680k684375
15517b834055M02122A31057M88035F4950B3971c004555m40080R74615k99343k04742
15507b974105j286563M21548J238350P92212M81371l10311j13576K82295Q8484
15498a380295F40844L950778j162364a31815j351886K15645A381127L108805Q61521
15489E351453k286518Q60123K70717F14355A31707a02786j640931L99099M57661
15480h86957n61791p81400N10555j641377j680482a967895A550837n53214N9159
15471A056782Q70958J028224q56970n22235C22775h42937k35899o50916m17737
15462b147489k81990h68275C61346Q51771Q6164P65803m13085F10750j35777R64162
15452A439135L91005A91006H7154J450790g33618q97550H51876d20026j545646
15443a965672e56575c9891A131547m14189M19318n5902c76718j557277D57226
15433C813577j97962j777163F00650L88845f82010c02542A745921J795067P18721
15424D259709m86018J137106B134010G79841J554989l69089a196343A31682L650350
15415C782032m98379A201819M45788J447052B80905b365192e96560G33449J039122
15406A772571k74358a252812I24627M238442J668833k452221A953956F37301a152060
15396d97021l03687c65084A752964Q19807K29282K40609f70913J25534C41658
15386I66231J507145Q80571D71624a351292A155462l67248i24245c27213A014335
15376h80363j269588O49709n40888G752K147966J232277P49872m25191E94900
15366A012251M19515o49886K0643A83571J182512J099870A054408C05431K412025
15357B717456m17776r56196L21262H24450g25984K36722k45359j607191M61443
15348a880369k26900J50237L64264e89666I35478J457131b22222j028510B80438
15338a962392l74654m88660M95323b95064C96147L56166C03713f85133k030231
15329b715364L16404J029420k45964r18499I19371K447805J66007l16298k07787
15320C009098o66646J325531p69795q81903p62271C95247b142414q00656d49800
15310A408602L12163a741722b49214B693861P45139b9048j066353n40160L20513
15301a315048e29935j192886B60523M00448a448209j142056P52907K36603e35700
15291C091986K315331k594306B22507d00997n78958k50970M77723n14167N97667
15282f69702H7343O48302l13991N28898A80164b225104k72700d23974n08046L22180
15272f09840j017125k545581q1829b107238m03685p52291a502344a63203C30330
15262D5263P06129N71198e27162E25300R85997K53348a186498n28272G50012K097406
15252B847418K445702K019955p83104B817664q07763P5072a44263j660001q48129
15243b652393O090j762424K019947A608193l88018J580464n78839G37253L04133
15234A041386J238423l92930F33907J848595K071863j754740e43374k414638a126869
15224A574747L823342N56389B602947j228275A42196g58571N8198k3023j220312
15215a943708m5564A956039K469127J232230q74579j705250H54392k46747c4561
15205a001049n94557P75087l80979j412496J130113j62962B3076K728252n51762
15196B199566K88647q34526c305D16112J165827j6378c63696o65685F76430Q19148
15186A495578C50435a378648j669018k322975K343034a225042f01749B97599J055750
15177A353349J029252n525R9294l68486R08820j055201E89800c70810j301026
15168a671836r89905N4788l21850Q69463R9866M91599H91221k56300J655864K454709
15158D745494j125182J796768p69197j656805A442643J3489R66969J540071L29941
15149D293113J006446j411667j155508K10316j92536A141060J759881J989084
15141D890025O50615j126390L075107K096094K6346j185170o44967j125661k62253
15132F393746P05344n40554J289297K825720k18694J884308J740206N729359M897473
15123B4706205J0290483J8329998L2916916N8884668J07777814K6199331j02649700
15116A76455715q1065352m2060312j6786710j2221499p275267m828216k240233
15109I978126j100985O98764J673847Q06111l042079k989320J48798N02438l284441
15100C391259j071144K218976k53806c06023j521608A277835J637269P01987k56541
15091C360550C3765a697225f13548A461015L144178J051986j900507H75902b00408
15081I82447J194215J258427O62653j328199H2486J43290a571424N8977O56043
15072h56404D77595b34817G44112n4774c25386n72391A048414K131924J000A447257
15061I06812Q31738a420576m387269j77372K397826a625852C36453L24742e56472
15051g31053j375475A42755K617044J86385H75680l32560K41599g3534k018975
15042b092509j686467K44022r13712j419824P60671N60163R07646J593986k5404
15033b071428Q47361H10216M74737d97005a91805D62520L31731l05467b306968
15023c473270j21638J034161K08804O55198A056881b39214j134488l14980f31554
15013A23725J498824R62494j166778P90877J307959k64429c37025r65320j1843
15004a314188B90579R11432Q03435N54634m9187o8265J12555o0347n96700o65721
14994A232415c69456k179557a041017k02155A051917N74706a52076r80561r6408
14985a229045K72302L86354A031700L35413L01037o85253k73022K394489N22362
14976C626726j490209K2717P25660D9433a913053F03880J794861Q59407j472906
14967A785242D15017a903003r08030Q85166M11859j628603j168439O07476L03518
14958c400056P47436a154341r58991j985050J559761h49623j793948k02308a339976
14948D19129h0161k49819l95187p18860f60690G36586M29411I1019a517560j949038
14938c466598N37035j107812M0247a878832d31843C013011N66444A748786D4121
14928a850575j07774O34762b72598j242178J4849j823320J486882F43515O05241
14919A248756m9703K469718J262204O02578M20804j241146j111713J575865l80382
14910D796981M49931J14119m08297j459917N42294q73296D76850M86315O17534
14901A580699j00776j0077J22773k11739m16065B5230g94373p58322q64406m80433
14891b897534J033171j877637k462934P48083J270222J885853l3710k247493J62737
14882d419242K001335M38652G02185N16271m16825a371828j686040J006297m41129
14873b492700r46665i89889D047300N12741A469779D84460o2951d58555l067070
14864c525625r24286J653877H10477K291277j021567f72338m016472N94692J419362
14855b674756g7863A088688a509288k33683Q1085M78569A79064b221215N54067
14846a667148A448P19797c60009p22546C61403J353376H49337B54027d31591J90420
14836b41171A99561K708699n45473N76602j68771C33473a413320j534343N15439
14827b432224a203998A458315J303339M61658J437258j241565j650900D55287
14818b737300j175254J335767J207583A367823O19J161865a27334k358231Q92194
14809a593371O48339k022992a014588B1204K31897J835576j46137m28478c3620
14799h72162M12562n72630j106438N34580f52099A565809J635965J60632j204300
14790B158106H69272c15922j243045F96911J336238o08778g16889j987340P73096
14781a931133E79231D9356d117086j186823Q47773J621412C53392J394584p47772
14772A000204K68490P48907J38347q26887b54246p57999A284183K992720K35594
14763D512497j688758N68125A241829a342418h5451m14782A267657a194015b54996
14753C01116K452046K866814B732712j049517B28120j05556L27499e42844g2900
14743B195469k3253D94389a645604r05953j169401J210426B38147a237861m03322
14734a641183d62238B483150p4543m47483c28994n3931B763766J91605n34045
14725B421326m46542K54876F48633d30018p03193A477786K083416j3070P25984
14716D274116q27603A308869e45051p72001b13385A095971K285579Q27005m91290
14707C717265o93821m78677n98599l44464Q73523M13934J21430E15481a556805
14697c371493k739137P80807e13441C038130o56542k3109a114204j639585i33937
14687G93523K050360J474817J82502j681036j133632l41589i82697j752210n8651
14678b793558h31828j43625M2534b76161l797866k245082K16401K428620a663219
14668A69772K349052H75102g55488A403507J875306L55595j307314n97503m89215
14659A240376c15369G79078M93578g83799n02380n66942e21200r49008k675833
14650d146041K059094e80494j099326O5658L14076o04589o41141J238485c28547
14640c59210j022009r01516N32855D64119J72726a641689K79245a68963r62067
14631a131030o19612l57167K22803B34600Q31754k82704N19975K450347j091915
14622B662057K12896J151340j866287C03636f39927F97190M00639J219234O60312
14613B977375j396447a104615a12712A029590J801021O19049K12123p6869J36882
14604C721796p60328p14518o47844b11545E48792L690360p43224p55865A020527
14594f83841C65663f98731j287538j106778q83530j442087K140595J369124c99732
14584a722231j260519D94961B31787a81966B547817J371236j873662G4642J082390
14575A157032L97466b201633j452418J818663A136380M82682j22519J463832p58226
14566B202149f19807a13156C91479Q40545m89223a573353k385499J723426j505411
14557c740837j738749b661155D67157L41280J24949j62177O52108E46015M99537
14548A045552J31173L45628J361743J494435J391621k033821F80981a53142B311353
14538A153794g88138O8901c41806A527636K670005n18646o57755j36216j274157
14529A610867L10697h60091l012320J636011a093288m47453n11510Q58034A889616
14519B623959J315379J14904r14983k96346q62984K383447J60478A871672a40523
14509a871963p51112N24187O18657A081916J428173K20327M52676l48508D78694
14499f29373B50214J306481i36302m580406j62248K419872A363483L92624C86343
14489A023621R02235m95351F05046J693179l09638a893877e59118A569925P2601
14480A642526R2148l8685P70168K17193j322599B26339e95175D19364K371513
14471B790877K487556k266742j317994L647273m58102j252609j194054N62810
14463B999015N92770A299606a257274k92672O28973E99112h03785j782160K50779
14454b335166j720294K43674c85838A499181e38040l251750j590835O82752K41824
14445d456049O49917J782558n55079o67996J618125g60171A8220f88805n12773
14436a201578e96663K40420j347549j347304p06304J145628B32590K71999a224588
14426b882259o72660l83705a198630F38480f92655p35163J91035l31501o71752
14417b240036l0935A173373R02671K1111I97627c98913B075412o87963d87244
14407D90419J525675r58333m78233a271887O29237k454350l317611J35945b755306
14397a279644j244114g51718A071345m84414b621021P73176f53425A357401l17018
14388A040383a400726K77068I22481R04448q12231A31460J18488e18195o71288
14379a189483n58451K63204c99179k07566j921408R05198j306364j801961L93797
14370d337483a406371B503628J614931Q91211A670910a01956A602611J377616
14362B980227J922696j145877C44133a335245k59734n78044e73995B138070N92768
14353B730838M45767j76741A002223e4819j294964o48719q4751P0736e62580a0265
14342I45365m0184J048967E99913a613004D00372J421883M97344R08288j479347
14333A748540b260977p51837a036610B103131J394428j215330C48983a133064
14324A213063J019133p39498E58078a676375j143773j732746l95127b037980e84173
14314G04371c71849G59840L47223J061713F05849B71040O60921O62998m46923
14305A148036R77117P12764O80748L05932J726465B343119H61989K49695m9140
14296A062544a329937L294A396720K435791A187275A17200J187388O24545J363294
14287C292427j15386c75041j922997j446486P1964a514333d65545P1233G4668
14277e25796k061965o9149D9506J819068D1667b183033n81099j591749m23513
14268d779394a920763A79925a093774k486469L86505a030586q95965o29052a061540
14258f05936B49695J696241O74245Q11331k73708j563906N3850J047681I59976
14248C07020a225889j115631d50856C032269A253600a016592j191613B09003L510156
14239C719159M02772j999896q90078f291k32335A72397a47653j522681k19819
14230a890153N86316p84628G3423L192376j102254P7806M56266c65770j519144
14221a884914l57569e39367A696131E95304J493409l46206l87382n52266Q60308
14212A663167C55554i73869L83970l42209c05456j923971O81565H49344l22745
14203E26599E2278f31180n16782a61026m96611k051912k57890N33000R84859p56477
14193b206057P55603c07280A721332d78150B49319J16510b756546J261001H06104
14183I35476a112102H82974J872750K021897M32532p75595K45634j327203h81649
14173a247051H89151K84713d09085j458374k328040K12361P83947N5272J505442
14164a638477f16183F6898K792295P18824m79696K651841j919587A91332b009477
14154b167840P44238j8399O07761l32764c6430k634372k857137J304343N97714
14145c625882k82670O56462a218893A569163l24934e74494c6623q44709J84509
14136f96823B55186J188841i24987j253578J078896A18375P31617K244406J538800
14127D633198L66633j884462p65058r21991N18923J015599n76999K39436Q47885
14118C473164H88877B83938K098783J844197j496250j282902j21314h03582M9112
14109g54470b18961j402077l90299A40082P16653j71900N3979i9976r47602k19366
14099a266944B124905K732260o56975A736873e27041m62701k49273C8907J841235
14090A880142J417830J994210j415685A191762C51845P83077n30201B48761P28111
14081I76872L9122N94908o18915J83148j31189a713516n44961A74138g16340c28092
14070a099286L92204G80269b55179j839267K11802g09537E40743M23616a367103
14060b921461j624833j456568j33674K233675a127619j20878r00335L37876k247106
14051d058062j902775k10890J300051L56530J395033J277789P55678k590125m64661
14042d141432K29598J407322k2242j575910n28669J152264k44529j499284j31546
14033e354428K435399a60076A670768E18891a35230j39943m21630r02001G41215
14023A729412g5115q48951j24875m06732K80710E93423A112a776587k559328J064983
14013c270932a283889j257026j849365O52491J649447K60023j168197k97774j95229
14004c489519O78661r73046J594519A133899J310999A133931b27564I41476J513650
13995B455126I89635f51564D76564P81046b76339p18325a33032A962756G87466
13985c181005l65413N60639a011196m83443n83799Q02281o40795h70851K73109
13976e97742j227589h91048l85843r09991I33595J352269Q25263R54670H89059
13966e72793A041596Q13312J208288o48917m42777J235076N91406n07799n84767
13957B705418B40782b799297L89415J161980c21197A99813L16836K056456O21108
13948C194213j417814a779898f20513H76019J662349o32905J135072N8672N21244
13939C620451j063941a60223j363973q37566k83535N54990Q40699b66814j114708
13930a381522k754989r98712b410547R73948m95234g79927A19889C8620J245443
13921A284063K44500A44950J382229K68473a297306n7413c19304p25926k304850
13912c350080Q97320b51498P1879A63395b44059k48197j398194j017206a356002
13902D86719J327650c31100l906672Q51854f63629p33868q97592P76109O46032
13893h72948I84938P86647C146K67138c26362o71452n88173n43357a20086H81527
13882e04578p38086K98011n7771A66569J410098E07903j46409J141983J448603
13873B952080j320449c65068j502119N13368j06581j423528O24276D01473Q53646
13864A255119D20041a33345o33181J49492A065881n2153A86336b0481G19426j32929
13854E86497P28424M55828K64580h76969k964631P15672R61435J25668j368385
13845c407210N03670C61481J205610M00055q02015J505483k10618k80061Q26665
13836C006600m88883j196518D54009f36867m96322M51376j343374d72072F61567
13826A142187f37207k970170L94770a133037c15633n82408n01181k127800r92675
13817d519697o49114L32414J224912Q58696q73330J48927r49410n22739J702163
13808c247178P94703q93178p05571j015071J851640J293904m67999l120181r67409
13799f476340K574332J834527l32724j472349j002725Q17653a707135B08363L066112
13790C274475n25419J86020p73227a098934F5110K666875l17749m08978R35805
13781B941063j073074Q84493A296269b23868n80371m03620j469013M36716N11861
13772a728295n58699b4454B026913J604147p27447o49389p83097a439634k12714
13763a652348k78530k07973l09131O79555H94126J069127q09196a72922k472614
13754b645536k157397k27930l29651J581275a681219E45952A57279b156822e45083
13744C753754J460680j964147o90493K709699k95371C99619b296125K73254g68655
13734i29259d01409f7029p9300A113875O89775M81825l965l79868M39113j28021
13724B212734k21457i57554r75097n12558O87838N07k44166a85332C34246j25970
13714B08276O4756K55014J935210l3837n11798q26021K33445m25729b378059l83793
13704b761852e34714C87980a34403m23227j580186m27112l2580j232102p22192
13695d551802r04525n63276K725084J518059B98704a192365k223709k047052L78067
13686e085059K94320J031014j58370l46749h72847A47597J00344c67383j651821
13677b019204q74187g60787a85836k529756j404087k53503l55768J424678a463793
13667a112571n71550O07235K60833D7238c35876C58096M21408J548383p25100
13658A602787K05791R51241K9046K95195q61061j028526c74360r52963O13410
13649g13913A742830Q4877D39383J458331J053546A034502b385249j247437d11655
13639g75832j152800A371978Q0026o7391K649888K245236Q10039J55621j542102
13630E703295k217201r71685b152456j294226a706395L94715l62319l73029M52421
13621a594607c75971B32651R15198c77498k582629l0264i86820c36375k888180
13612c224555j274576O8584J126030f08336A254864Q69928k86635g40938B65126
13602A533935Q55911C09201O99388K160504K348809j98084B323746j063999J230736
13593B490483l11534b65036j157333f62416L29126A074903d66770m51771F56213
13583A871235H88357A04846a631735f84223A431673j64150f44254j122098q87668
13574b654020h37507H61033M84888a683435j518363O13484a168485F09481a192978
13564c035972M69914G623g80461q4752A546353K668224j833028A32345i44889
13554A154996J999237J14616q13836p16036p46381O67025J441544A034335a152795
13544B0017d79580m1742A896032J942731j253951n87616k97541o45737j28269
13535I25649b380607Q41113a12620o277j87536j656229L61506A425315M82124
13526A907439D76459h08173J68618J77954o76007I29900K767962L61120j381885
13517B677097j127050k42639F37134M89623d04325A229450G4342a699661B72993
13507H50162c05052J06535A102601K35479Q23647L37732A245092B99223P1451
13498C70674b3882F05204d0194j347713n29843c54690A503674R63353A20670b018959
13487a432006f88405A590606e28089k053886Q32605l0579q03037J264767B135992
13477B099367C1414K29211a097830J19601A04892J045957J058250q81697N4283
13468A381685K55241R18214R22404j608119p80683D99917L68634j12054A25911
13458A787818J811080A075489e78322j192014e94743A590345Q56589O65358o41913
13449B470379d3038l41563F88854i27740m0117A243305j93950D24676e32605j383845
13439a916450j640477J663876A22547M58347M05442e30627j021907a41475C47880
13429A469315m29932j35084p7716L41918a000602k211104r62613O28333e80383
13419a096628e12494n6279l041004J26425D97652K764460a496962m224968J597407
13410d124523b35694A605836Q5544a075629d62698A10067J681296O88526J95027
13401B674916R15474j332976j086183J290398j041687j93901M41500j2886k32110
13392A422545k15676a339655c48205H3746J73326b693879j607877O1079L0565
13383d210112L84702a705505E932J299476Q98361M2750L01622N86886j543568
13374A591459j68226A86013d28372m52957m67388n99507M64729a95324B574812
13364D90046f07978K28838J7638j782102k109504K003770e61854A184461J583613
13355B768074K743677Q27759j391064j181355r31706l60452A009461f16502k120884
13346b737386o77769J327592c78871A061752L603767Q75251q56273j284367o10567
13337B789563j069228J91773m89283P59579P45918J19427P25932j268507l05128
13328B200046o07422b424587j650236N93464j695677k76416J426620J975307c41333
13318h9612A604902a067088c13459a21684j591186M38656a6610r37450k64098
13309a218158n35913o89904p61018i68948A450128K040523K297730j384207A353351
13299c5738E01392c94346k691023J267597A427356L492541L8111q82129D31516
13289D97279K0359B36948r4275K361866j096577m22870a753651k56371O93481
13280a316541A645679K907295J236129k725168j469404l51452J544821J375817
13272D163717J113688K045232K487714R95552K250979j181932O431823P576832
13264B5883605J0246946J6980002M0420051P0874082J08485787m221538j08947443
13257A59721492p1238988l7128240j7515287q971117m117705n455613l507906
13250A1786636k992328J475077k859654p24714m98558R23677k464887j838185
13242B807064j371565o96131l52899M26082F8462J822283I28226a448078M49712
13233i98366E3308c28817n24591I2014J201342C54636a931049P2529A13211J815425
13223A928636J030688D06128p7668g61158c18670p27790j263597B02698J412362
13214A615060J287799J026967M47726k79911E50088d99366A867843I5525b40693
13204I87303R40805K439422n39672F23537O3200J249889l15554J353027P63975
13195C738074M54737m24084l86500L151102L339855q73833m369303k198950Q35280
13186C266378j082768B23706c20586A826389J413430o30326G00215a376304k682030
13177d058334J302763J036425a38971d1153D81031K023736n6031q75307a046017
13167b643403m72170i51394j807786j993915K060539e72014K29777j130290k25191
13158a697718n23726B4459L03005a058828L82483B21666a926831j51490g82559
13148a186D51829I6366f95683E61689f7779l364815r2705g72941q5262a33103
13137C46662Q48427b000743k006003K75817O36121j085303j107607J982900h47649
13127G02389a01432G99599l22798J54881L84734J19942J144023j04964n2567K00498
13117B323348r48422E58395B78642a238215d63763B069877o61860a762013l495012
13108e257025q88076J2865K018406R36013m38781J804251j862604J46847a295251
13098b638012L72432E56676O02384l21777i34603B00860J578894o53224J978405
13089C104935J164153L48271Q61437M31159m50638B305334C94810e12825A148038
13079D50923a123335C83298b7838A122256A97680b49888n08590j229662O03593
13070a384547K40165F2065J852927L94505p19190N37934r40084D39502a771153
13060c303811m29543k04151a251854n25883j845318a192148N92385q24734n98546
13051b023043o19210a244884G58194J818195Q38119r40696m34181A7031b877446
13041H794N68085K86663Q49744J327763j416068a100187e20368j294465C30976
13031A147999N29865K514043m64378A202082m53749F4009J442033m93136b247365
13021a561327J21653j68352L02479j7787m00956E56345N82032O49298K679981
13012D467656j196351A075354d87597p03330L85663H1004N39446L09422e54332
13002a173768j47240p58734N35424N44476M18746g0819C00505J450483a58304
12992a907836f64344l72967E27844c00091j346017k68304L92024f35554D41185
12982d92831j66098A07786g05446D86753b69963j036642d63876l67782j690907
12973b522565k9985K08848M03544l11340p65234j5296R74197P64519f40751H39119
12962A502539L60757J970538M034502O13246j447925k129161j995113n00372K040687
12953D449698j076016I81169I4126d84638j48081k294117D70393P83364E37712
12943A980269P9587j21173R55542H08592a669220A346896J295417j142884o93724
12934H05705n3058a435160p8300c61772H88521J047843J475633K26729Q77873
12925D516599r25199A509830C70649j69998J386243k34475e07833j820124j357379
12916c685336O80784n43979P25876Q31248b05642I31853m1604D2422a17064C2996
12905E79244e25491p20467m87015l36816O67236J55332J61488I40159A71110g1403
12894B363117l25964N10100j090470o64467K300808A068045b91968D85794e87016
12884f51019G11297J369430o60875k29199D51677O5352a23784j112971L09421
12875i27334l042452R29123B93796J215610J560000N87371P39175o46544D15663
12865e58481r62785l182715P483J603612a294138i6E19248J768055q57371J296028
12855B725960J717910A705756p19569O75174G27036P36831K13428J552394J459535
12846D689224k222392A004559A43913a964467O79538K35518M25608I67996J157155
12837B125151I37642B04856a343904q3530G7989M88272J959714R015J9885P57725
12827C312600A370511b2700A273600M92622E19428c27669A478453k35723J373947
12818B616677M57344A388838J59302b57502m96283A710244P19041J110503r57924
12809B581864A089551j75364a40930m5879p0829A423767J068549j166463F05451
12799i09007q28313o41557J163937k73081l02772R0020j153538g20175B16939
12789B989370k92190f82555j990913j109356J251954n87326r46234N1978R84070
12780c028382j926679j953230K328591a846172a97226C127674P95382j231517
12772B691539n96083K95417N0382q06318q02342d30360m71778J88842h5076F64711
12761a05898m02957j206337j953843J514240i57759a42719A896525o91405C47188
12751A482248K76095j00414J682398J286112A302302c89485F53712R77401K540671
12742D171784j373478A285512l10341A77008i04234r02896K61103A084706L87822
12733A472528J778460J476206r53013F64125b203662O44777A601684K694999J021232
12724E317915j327247r04432n96554k31029r98017D39043c31443A143955h59203
12714c315747m78902p9270J797745E96283K341194L661760R71034j924873B302467
12704E49893J348808J835918R9877l28666A563865b43731k965222j044326a785767
12694a717748d85704C604349K798978L79205r7138j74586j206423L65902k635296
12685C034991n71984j68769a98297j67388a00795k398838Q36808B637115o01663
12676B035452O33640J312277J484501j819923p73783M50787k95846D5879J86746
12667B32625J977663N81466K92653A434412L063129K676732o2169L12528J19083
12658G543715j491676k570448A732917A80619K282190L43102J111295K642832
12650F560038j29292j934409j160705j494436q2220Q30031O85007E979a987269
12640a914588j4847j874607J381503R06744r74121R16534K70802N28415c01008
12630F56492N05132L790071K087145k355400j895829j056739Q41663n65375m86250
12621A520910j80682J9910l34005i91532C27045i12681j105277M74752O31932
12612i11274L90314D83585J895673F59230a311227o98683K51814j646650p57847
12603d162593a940410d51456r82030j050161J148431J4782j233653m07633J033625
12594a928095A824197L01504l07997J737040r98266j057772p16576a619865j740499
12585c360364a191576c56918j01997B049803D24018b854875J181907a31700j981379
12576b113079c95545B123900J61853r85504R93813R99989G95274i10376L70429
12567e39947B700294J016924j33571J23302A502717G40900B83253b948080j554646
12558d502726b116811b09603j521877M26350B64250a634309j084259M52577d12874
12548C001817J517076A888896a418298E21497M53527D9689a838475j238726a392666
12538a340764k48710I76255M02265p8354D25787b137107f52229B846168p77645
12529B068523F67782J531171K30958A185288K423692A620814c83113J19151n99773
12520h63735A224456j14428m77152m0082R29591P13811g07418N5525A377790c79611
12509b424819o68928l7239j203313k185204K6806J253100P66203l32194J398579
12500c407009J462366g53196C29887L65341K192343j205255I4573Q58558J907860
12491B860991H51154h82101A392679J620570G01136a909646N45732I36938K998732
12482C935670P01278H20524b430269R06260k3637e06654C559997J622607A017636
12472b762708j914953J142950q90029P90807f72219A40437P36898P17606J6422
12463A611363k55880m90568a815553l8368i4766C253746Q86809l02369P2335m05465
12453C505056n20303j326694k50565Q56749L63982F53786j70898K489050j069129
12444A902809m79068j28524a17527B62788J062677h51378C47482K133058K545066
12435E025606j672032L92229o76094D75518a039767j69316C61527a81659j665505
12426a847164l33128N49181g46049G59311A59931b0730k324131k473795k81508
12417e100164J977762R38773k127137J567331j542434K5528J99935L01359a116840
12407b470657K37681P17961m84239j702131K39571l72412J304009E14363M45995
12398I60358J139256k99588n37776N14905J930091q86503q50478Q35124R56982
12389C762371J930850Q29200k278441A153559c01072q20784k126791L17594a079993
12379a718913a46031B712900Q20871A763546m1363G04709a318889j706315q13572
12370c838776j259509j437669L242959q7849j273247J548799a544991l85822j52295
12361b083108l01127N44652n16864j750k76833O62792F40058N52215a797117e27967
12350A297167b378941c88351B054746Q99966K73785r10445P02883J860484j455841
12341C425578g37002q27894c34338A782835M05352r12106A70901a35171j093847
12332a229018j030504f05680c0690l45649j861178r06692M84373o29873K9851
12323c259858J098913i80394B325167J579246K73341j012528M9822p56137G94325
12313b17278c1142A769364L63588j021490J296614j003104i60687j268309l461847
12304e690843J893673a608742L50168k94296P6522p58006k33877i05639H98475
12294B906110J9834H66804f49646l569999p6263L49149j891843O21920f69040
12284C077930A404311k57441J84365j70209D52280d40544K10374j57823r67608
12275a355601f18318p8054j857217m72437R85125Q63163r20726f60255B36031
12265f42727p69825j318649k845890J393521e73978A170856J439876G07587b026127
12255a889346b92949j321515l11662j76814A117358J369654N29057J108216n58792
12246C565493q43774o76612r52482E6443a000272B00439B2215b844958k356008
12237e200966M66783d1309D1891b746578k02655C93227L681492q50939A091299
12227D47041O13043j24985L56826f23253j363078k53756c08438C94368b283435
12217e056899j3993J49681J657477P77320a130763j070877m92814a115361f863
12207h95323j122271K15992m32754o53597P56946M60323f5009A967311l48334
12198A618977P44972J173658j203769A017385L86199E72166a435412j01427k371325
12189c908164q14721J761272j810223J547980R33145R13833A16549J690298o06704
12180A200143A20200C948J80054K533396j015996D58529d8738j920143Q06873
12171a162008l9078B4908d58311j674827k609950m63512O88013R15475J787463
12162a815649e75692H65750A44439b111237k138728P34623J614432g10475p08741
12153a419216n58879R52541k03551j359295O84899L52389f04765A152834K036919
12144C189753j343986k9628R41269A081908a65829o78563B59992J236542K888256
12135D384790m48925a13678j546202K78093N49550L12566A048422l04930g72931
12125b997680j202433K42258k10795J417900I7338P84527f34923A188330C69619
12115e40186A594332J358294E15558a085213o65720d49723o27997j859335a124854
12105a606188m52079q89982k993815n87757J293659K734J490054J581354J56254
12096b005766c44023E86028a498538h8540C131679L26549F46202M54915c5065
12086b83699A542895J634413j202153D02054b019560h80545b26979l64575j005010
12077a596564L51840A212074j82569e38820n98291k022049j589272j75955a936791
12067a590170k145324a260316b44572q23097L59763j5031A115255L936409L48779
12058E400443j083393j573848j77176m18994p77793C90632R35569J1237E23665
12048I40125l39734e5872k9098C06009M98660j56188b20839B156011J695452L771912
12038G623375L81552j244227j946731j788858k84668l78985n69912L24914P31215
12029B847675q17249k64098K121759p38767j063825J225194m26595F73613g50200
12019B200016K73698p42473a57905k757828M79511A20877K249581O74403o71880
12010B372981J118064Q29608j467131a36424D0593a22300k861344O18776j133715
12001c498583j071544K41825Q58499J582648N91102K02574A627503J774727q45780
11992B556450l86241q23573a578187j000142g76523J39808k031835a034956B042253
11982A368016p5914b13414r88793p995N29025j669085f65008E26417M38690h787
11971f61864B98357g4312G03114Q11538J722910l96486A129884J426597P59423
11962C315904j072871j04702l92526q32054Q8876a26111o07901I61909k3567P61255
11952A699597d15920j35381A23389b24453j020897b46015A31439g86359j909102
11943b695461p13206a06213D75756A47154h39827k643172J071671a098800j479523
11934b578323j316506M02975Q52513J195022N39821o75694M01523A20154J344066
11925A464220n61510J47116L100631J813960j288391A170854l37723P6195l60440
11916E48886J85564g51567k194163N82272F9639j4915N30877A19892K592045J818851
11906D530788j141296A162002J258264n84204A34102L58272J03917R11279P27855
11897B235425a31213p55859j497199j159412J365703K88670P61942I56228P90776
11888A747004i32790j906298d05852B271042B34966N80982R44874F3271J46573
11879B09844L929542Q03520j59464A566717f78467B99159J768782P2906r46411
11870A194436k85469J361079K095634j296400a133488q69499g78444A593031n65771
11861A027260c22687A458320Q41511p53067B38535A192b655845j973261p62680
11852e391786L13669K524948M94762m59036D08989n0275b570563a187096e6868
11842a319629j237178q41289J228831Q230a00643I36096C89826n7287c40701k224487
11832b565188j750583J659397J128416a31714B952306r84001G9903P60360J48185
11823I88448j70968d6798I92026K178927M56296G6357a598823N36866G13623O00345
11813A313968d76653G25307o2141a200860p93107l51580D25060K207952N24799
11804C157811j383065A18372a818338J54207M13349b62796B424128L26287j276383
11795A474032l68245J591660o1664o8837L437791j14872A606377b295795J14899
11786b180896F72037B62194g76075j305328j141889a523451G02099C48804j09004
11777B39800J014694Q35546r59219a89315e4753A634035J92932B61204i7609F26057
11766A53499e36068G09922Q82970n43884c236296k899461K046017J556440D7339
11756B10166g75767D25678Q78622k2413m03824J667901L362779q00168r02385
11747D206190p88873A388030a02774B81571J87053g00105a60766G41680i51757
11737c756175j458530a050490A977224E51912a154467l67560A819555N46059F13148
11727a259523H1219K660748J063316M60766j481607A080919l13670a291154j798787
11718c089941K8531r46248j746685J088326J695434P38838l23517j156238p21292
11709d432792J225501h86042F01206J87101k33181N34201K9348K50885J93779
11700A563339L58168l02004p92150p8797f59322l308969j120421J705663J060766
11691b322283N09023j224726m77161a435196C89465J966367J251785j745848A11279
11681e59645r62904j583979n06826M97477a251385G34047J387874L11500F86560
11671A725479J175616j099746l03335J576515j098488g60629G22123O70142A62797
11661b664202j170300B65963K394099P7075J276333j071812A355083a078095o13008
11652a691103d32188A687458m38145m65570M08597a622979j058624J91291j59140
11643b649452O08575P50192j818050K54505a298223B180494J653457o28747j474908
11634A730296R98128c482l14560m68902j114012M33968B88134L20995A97380L71025
11624E68405A42564a225441j688797I47787j3328g70532j584333j149522J742320
11615a762067A363318o35447C34686a283519f00551C89527L51690K805937O86927
11606D234081j002012F0178J322535K887217m50760r50663b85981j964726L96147
11597a854560a71880A676320R88966m63710A086665a223922m0609M60302p58720
11588a562949j195718J140897L48987M2086G66525P14788a386095A22776K548739
11579B671515N76977h59350j292016H67835L27281b49889c1533D69759M37808
11570I07567N64489c3637k101237j201867J431377e21257j143252j287924L83447
11561b568986R70874o21725o72436a246507A331985l59114f76842H05905h14881
11551b511340O2880L1653J058610d62560B20075J44656o3486O23178g99972l760258
11541d560230n86443Q35577m6228e96453C616913k64907m78530M43585J216465
11532D533526j108431N26899p63465C19359a32156A18658c68205q09414p4539
11523a252158A226808R99124g04299j974366j375991l98286K220280C08806K083110
11514B391916J705702A478656a778784k875535J500909I94015J462417G44480
11505A042591J091427D64021K412235J780139m86596M39394j545339g78264k557846
11496c336110Q64850d99266H92865J78120C58384J674865l38671b782432k075978
11487d858410J698037a74680A839702B27326b88361F96907Q36185G62175R64304
11478A726479J581992L008856q58440B406432l14094k51920J398158j266299H78777
11468B089336p29274D81799L29897J36706m3357M059K39830D2214J600060J24928
11458A767202n80352a024158j952874A157188M780780P66604k608601F06967J338634
11449A945601R65485Q65059r57234j228416d02776o23486j63103H2971M24377
11440E07348e55324q61903b65857H84840J383406K262191O14424J801090j299609
11431E646342j384087m95989A428448l08588b6090H27623Q90908b90768k330152
11422b620920j098590J285929N88985d72723a49225A302431J333863n140F81884
11412a443881l77220C36663J563945d9441j128723J60803l68356l66989h21267
11402c28440B228274k93049m54048M1939N22193J84838E79557a113209j637461
11393b750670J239940L29339b21663l41661k231307L0328R98726e99859F47227
11383A146216o7673M10110O49219r10799a107735r82385M36242k040372q37167
11374d531417K140216d9153p25050j893024r60713O33655l118259j392624K917636
11365d587532J702217m39080j20410r58910J896258c87974C3108J983892O81416
11356B698416A262783D25019a70248B43155a178997k062704j159976J109592L06514
11347b985571a394077b42445G53289J050737N45624G65554J236524o47794g18715
11337G5967i24224G66107l38478J34550J84902a924860p89837m90659J440959
11328a764397Q50952F52277K801332J134544I40977a471692a28387j00535E18292
11318E62956c37318k089188j171410j474398Q64851J935429Q37611K88470l248239
11309d394192j679582K705205F48343K903427M21169A367601a173278k810831
11301c984109J563050r4848r95221J073273l12888j108101J203053Q82059K75038
11292a498694j571107g72261K54133q83267A130702I0432b37357A885202R90886
11283B876088j248085K9890a25783q29902b13668F03173a526695o61279J019385
11274a168589c13455C2957J384523K603853J09201A894759e3184A47637Q22256
11265I69893N31992J476373J85968M01616M80653A730874a066378b64168A533128
11255G95586e86739B8661d78609k911066R24446b90067B126088K377441A526675
11245a046483l91957j043496P67057A723212k38418m01312m60303A77712R33524
11236A111236J764798J056734j510231L40172q67487i96228K11067q38242I53863
11226B559861p64986K32134r41942k56073b097343j94150N30884M89690j955259
11217c226178l99890J228266J158170B37058J436326n47992k87147l61208b21078
11207d18766G16782J95993g24496j302242L13098b15417A851036F7148a220400
11197A70693L19181a20773j293215j328229N2153A322855m69564g47507A602905
11187A161393b08553B704593J049754k45919k85014k8809G08463b473499k59429
11178b732928f56165A680059J338810L69543M29867L55202J322270B255509e01617
11168b423689e27193B210723p73893a274040j083089A32917f95113k765603k7850
11159c488566a49761A125643m51042J273943R46047D50821a853340p00211L92219
11150b161332j530342P73519f3121A035580L4382J76019E21212j12701J528995
11141A937506K050999L427141q72711K51738R89719j273194l024096F42957h77173
11131a604950q60729h56151c56730j323753A35921J154305R43510b50858k38965
11122d89823m41774j889289q99017j264640Q95831J600140a104066m10543j347425
11113b862034R8324P14331j214844j690522b334371C82801K983531K11691j039290
11104B538733L011079k64676B263326j023631J729408J586944j882205j083542
11096A590300C61335a346650d18850A628823L19774C13712K95478L275193j63919
11087C720464j429006K849360J610634k298900j324632m34839q72060d62927r23766
11078a386693b72897E74214J890419D77224h4184q19603K65634a36076H54940
11068B658688J09365r76661h82069j176197h85206C44177j61128j4412K02362
11059C70999b612582j999924M13235m15613J393905A61411J166334a08056k359400
11050b467456L26495Q76320A100989K416976l07871j439450G24042i35699j45349
11041a081048J64423k59819c92812B36611b72948l061258N21732h58246A792024
11031a105777l120239J658884n97588k388852j186682K81273K865824J064458
11023b528699j562476j399650K249599F01875b17836A90079R3307R0734J193166
11014A567286c9270r60807J75804c36745R9719F94107b03030A129879J280016
11005B409895j198431f4526o74188k493373j075038P07558P36522J93784R4379
10996b574882Q1053j04775K23963h78407A731022J107322o43644l11032D86062
10986C36873a94510j509610k173528j413350J303232a019850A897905j27795m94672
10977A275438B71860b50752k521977h38175A707836j74234C32197a667206d45508
10967A142839N2689D37450b31193E19214c82618m044017o1330J758318a206719
10957b005876l091411j867517J439636J731823J254942m09926j856122k12260
10949e016711P90827n53585N56159J894260K59541f41911D54052J51654h73160
10939b174763l48215L35764m48769h65989A535927G53825a170911F74951J810964
10930B485915A069844h53970j795856M17257r762j012645J284730K55882k24341
10921a938705k63349J027527M89355p26177O6494H64414f92023j702859a109366
10911b031996K41689A94656b404356j241772j80309k088960j005126c286180a640046
10901a764077q60750Q79027m709n33796Q7363h02681l20974l07340a04477B189840
10890G66247k81378O01318M74068K11225o78311A00002J357033m81648e57088
10880a423307j139417a276872B0838J290452J350870p40573J229335K644318L449407
10871I244647N97207l446777B585855a572198j882123d9991A398674O04591P71880
10862B775145q70766l61383K17858n35122c365263j007242m22753p4733Q60133
10853d009858j6900m39389k94032J339348a668566E99207p6365O28339J86689
10844A337870b79427k122587j602434Q04847c99596k299182j46602a062617r85775
10835b048392r45587j29402J516250c48695A651739M055431j00127A663373b03095
10825a558976j530171p08942R19997J29699K22241B51446J578608K110914J905453
10816E846421M79578n59429j721227q41131K495493p72534k428995C09465e71391
10806e43420P7311D55450b61743D15672e63978j664216j855660j973612b039372
10796A996452O51175A205751A37317K49708b28464k236167j44110k041945j624149
10787f274835K438646a044172A863639M40467O03627r72731r38629J62654M88172
10778A647199J742676m07864j458512b80545j427940M16061j259388l60366K99131
10769b613047j541514a136265A416951J227506r69272n50819K041637K335256
10761E501259J181380k076149q87877O39072J190463j528341j717795A86568O0685
10752B47253a385698k013209R63419N12842D74049K206542J051581j132072A065529
10742D72316P39656l15428a443295r04840i61878H41281K00772b68713C69076
10732I55213a203604j595341i74120k17779k435970J72675J592499N42771j069464
10723b389388c81801B363208j116531J017851P4821b54556q23923o66517j786621
10714c531617o00520J717226f77798G1917N92813f1011k045097k97405F80064
10704H24789B82581J004820R3081A36262a375147k20481b71195a23059p73229
10695h96288r47069K35644l89807f28433r37952j211905G9121a51285j098590
10686a249875d56015J28843B08737J676098A44417c111611n23567Q58628h89022
10676A680500M16951j98699o02855F834P8767f06780j91573F22665b038818o74607
10666b713425J130560M63068l153646j164958K440469a13789A162076N31148J486397
10657C179621M51022L41429N61199B163553J82380j19155L05904p47112h86748
10647B63923J449239d02673I37340q6947d3468j30383G07807a853046k006062
10638c859108M98468j006877p5615J955190P77085q68452N58468I4819N33549
10629F28368c71670C379255M93691H19073a684027l861909K005264i37362B35520
10619A665936D92308k42472K500150K98117j464164m83580c16560j033829C07393
10609D19406c5429C66219f92786o63531j41288c00153n83232r77044g58839n79093
10599a337932l815902r17732K851877L51138l59455J132753b02412A173609J523903
10590B697512o63417F17879O79877k08080E02350J050213J223576m8561f85852
10580b406715J199844c5954I22267c105106k953696O88045a947447A866617l4765
10571A831852b74948j988612k882639R01732J280269j460403o34782K450239i81304
10561F83936R32602h8480j171787D09398I4651c066162K92450N52394j102795
10552c324113J028132a049507L1987c72075A463684A64111a018805A07840P3070
10543A80910K17692J106830K40254D5981a750084O64443C80065J782197l34182
10534A828080o54654E48659b74610a5310B04686b99382O8481r96355b65251A055480
10523F26850J772678N38250g37584k737479j018428j68985O01423J177507j20550
10514c004096j399823k01743P81196a303136E99424k32829c0126C89553h31092
10504a606445k31369p89427A138685M163285o66050o40610r79712A006483h10753
10494A087229J630435O24061K053299k67378k017961L28294K458237P07779j864147
10485D739848j259618o25637J754390r59214a051560l9753H32065a595639o4439
10476a660078b55022A406152C48604b123467R348r79289o45000N07102G30848
10466B999442H62846k215R94725K59338l46131P76354M69080H36926J501329L093282
10456E431537j491503A62262a711928j863691K28670J193669A459503K768389
10448D227892l59149A577211a91212k203464L46410f49977G43219O76831o15355
10439H04695g68945j885187J033857J53729M78493o26701o22842j229008R20491
10430b546113e48590r88801l043418o43729a549974E40068g28482b34708l09756
10421e44464j535016o62031a364774j072323P06706G12614A4334a884700L95359
10412a489341D8542J441589J698522L94637j008111j040887d24598B24727M82025
10403G06752K215d11896R3418i4406D67467B13472b384380n04094R27496R25900
10393a035078d73960j354002k220482R22049K42883J2194a250792A757308K692680
10384D449988k95866q69966A243195a15564F98636i07404o9765B55088J173729
10375A428817l97760m53433K369813M71072K47897J452652k193761A62928m8038
10366A14890K054043J098713j159217J156090J662098j703195d7835l603253L12801
10357c338287a584814E11011K47342k49589A07387a20782j256326j772803k3779
10348c173690J002546M36685j359606r14427N6786j5807J412535d05362j455295
10339a860657j362644a419661m48632j280856R31193G8613K17031J30643N78961
10330A005248b66392j807186R30348B28095J185787E09381a081292j10384a84603
10320A271254m06378M12586C10929L413003R25949j014897j721510o50640J161821
10311B424655n55767I31595F1513P54383M65829B58918a051381a5402A565956
10301B718580P40789o72707E76865L51275J796587p10590A01165a463962q87724
10292b351686M99197d79707A35821D217a713447j774372J311286A941064K617446
10283D558510j874635l05347a44001j434852r79668Q42907D49287N99717Q15605
10274A864609b238113k201105k061585L6077K200915a83877B013970J557891A299528
10264g86754p17615j120807n41652j249016J320483a73251A08542b029281k543481
10255d572762J839337i05446I27655J683503J281735n99155A139263a966675j083904
10246c050579O2076i65597A079512i79270q85032f41735a57361A332175L070041
10237D402216O03216j180960f15548k046738c64890A805516H23286d64191A035586
10227I86619a54929j775671N25775G94670J772903K56132j387138C6836b952165
10217c875650J349026N64147c02219j336261M36091c99585A113393E27089a577670
10207a861707A913931M25376j122993B95580J985151n65536e4700A266448k26994
10198A039454l59825m9420a60700j870721k94030r0567j092257K61968a142267
10188a136904o8598B87500J706328I37425c74468k85319A868502O40059A25432
10178a524164B42008g51896a62714f214I52301J986217j050541C81512b699358
10168b212320F22628P4149j00572P94938r8441c43869k965127j663120M67454
10159d504662K156389J22150J81708I6069J635207J567176J189862n79576j902394
10150B006344J232642A079344J101740P81271J54268Q88993O97831r07229G58248
10140a789369o68745f60793o11746a77706D60628J192579n7470G43043B144a274078
10129d394399k909952J021328L024601J462957O62704r467C66981J6301H3242
10119f26276j087030N00639G96159J844315L0977p52154F36902R388R1213d79962
10108b297342A097458K098583j178392l62331d14677a62626A179625n03131a151249
10098c491050R21273O27356N63957j307170l25505J26313i36445L24724j605030
10089b216751k948217Q37206a809494n57795l05924R11368K09f36756m04925j785650
10079b827331k98750a439183C45977f95629B06632K70043c16735r13084L02715
10070i27104j249486q83878j84759d97467B269471I38800c651933j615551J301883
10061c965601a428210J43351n56875e82072A044286a090767k52577c12771D7597
10051a055721j425859a226649K91884j526898O87863O97630l58057g00771G97358
10041B964697J128661o10478j660621i98871O9052j024575d38279B267814j087978
10032A179836k38765b42506q89897N10831b21072E62940J302509J24414M81439
10023B471302N82144J254782K19725A459658f38828a73559F82870J030724J246958
10014B960552N28440p86186m34321m32300I04571d8484A661584K738272j255115
10005C144741j004293o85564b221161m70790c89219R8599m52523b58216J19225
9996a38991D99077K692691K122752j078860N91698j191589j647396Q95792H58837
9986c73442A067940q8966B74499M70195b81800j0353a5130A73099R77466J606250
9976B756815K26595k16673r49193I01539l4928l83752O32652N14200a342423m830791
9966f173214l4815J810849b162053j72889k116498O33556R37022P2344L4691d41209
9955b41564j77694A17610N29499L093677J018801j137712j424675C30381g78996
9945a210931j991491a508418A370476J920930R74864A696932p53919a545378k250614
9936c795992q55837R33604a820257M86699J60821F54586K533312l45903I95973
9926E54484R42093j35185a664855k94725P60422K53719J30598k38283B25212J939286
9916B164498K9288L34665J56168l17141J758525A913274k44644j70032G16111
9906A180713i16420j125192r41669J93665C63965h80999k125475q9051K62315
9897b833210j63465a448785A75329h73996j000914j117782M46379A43667K388421
9888B532088A110174a970775j477140f38008A616755n7027N94349J53477N4910
9879B362464J85492l77793p53934D50807b83483C68446R36053m26407a506444
9869d035735J311229K86598k942223m48970J039522J174055J230869k06591k775528
9860e366774O0183o00p65121K287439J733790k177468r25428J154979k05368J582287
9850b622081k5371Q0253a141288A069854O91899L10896L34516m67259B5338c641752
9839a587054A236437O41980p547q81813C07306a058850j808487k031919p60806
9830e660062K144483a605824P2738F36241Q53070B61736K23112J179411A5814
9820a063384b45405E58313J865390J181651q53975j075874D52078b526394k240101
9811d766495J782971i02376M8667A67149c40975j78603p62089R9036F27231C1189
9800D27263j40624J069488N3715f40133j52966I50101J074369c14671k363042
9791b677713p6571g58777B801691J414586n18510A44168a129403K30304o00568
9782a499667j014087J83631N47865j034633j01943Q04715g37524A782647K536397
9773D319044B036657a19768j190446j218025k87173n18568a345537B24313a232054
9763b136725Q90221A83621L07555c44940r77714O25198j127122l501305M1016
9754e284867K616075r12023o12706k5926q70188n95367b221540A75214a871419
9744d515618q65731J149411J196052f37380A241641l6305L63023H0770a22488
9734d66985A359533j12013N96507F60028J201109J399851j294601P28024J025926
9725C720337N70453J040356j690419A182772Q17473l39363C47125J436955K487238
9716D271318J494195O68672r88256k512990j180820G50473l56657R49832J199720
9707B543368K70722J753372r34255J437177M05206k57420j25311k334824F75455
9697A056811r155b5069o36070n60938e47345A508099j12012J335368J78249m12770
9687B496934A149097a652386j233931d38225J67431k645388J077410a46037A161706
9677A666985K373001n12077l63659j317215F94741a03845m53956P2437o01226
9668a086590o32696e19563a05445k58680d0353D006997L11348m55423A478553
9658C12038J346528M3537C3749a535251n23608R66733l34086J90367e15164B92364
9647F7107e51026p10657K00956A62395J611739J913809p75040q10476m1698O00419
9637B661148N79660n75597L5950M56618j122735a012905J3007K25558B891956
9627C956928o35199M95304K63855m92371j466155d87180C05760L38264d67488
9617b907878k38333P30763a111187b86004a15282H24863J464194p23219C50912
9607B9801b17510C09101i16330j564435E33009L046774k06462j481372k01499
9598A690450K499029K82305A194781j47227k97297A37158b119589Q76868A2799
9588E84461A15168a34875j689527K355d09815B181058D72599c012245L77318B06969
9577A066827c7829j397444j858387P40119l00024J323387j462902h97038C065784
9567A834304a63212j009892j34098j591109j14474c29759E40737a412758q4560
9558a497318c31007N9239j394447E60209K051371k05685p12954F52535L46847
9549I99382e10527R6729C13162a86877p01008A517846E95753h99313K58010j131892
9539a773195Q24194a96364K4410A642605P07572A106835B88506a885226N09680
9530a375546q21523j050034j319049J072488J168786b2735A621840D12637h04009
9520g62404p79920A27031L96446j17126Q67645N62004N65482p60291o40296a243613
9509b442626R59588B720420p15027c181131l07576A64698K843986o48317D85315
9499c22555A273703B2124d06567B325886A133807b68203A057039i78975j90788
9490a169763K07560C5778J870854I23379a473147j96J74607f15653J07639C69378
9479h30146K1414G33282B79493c69281J13969C79694M48607J395065L103663j994277
9469C332752o38240K018268K0393B184435q41893F06125o5541N29815C52701K74470
9459F27171K598486K502253m47897C40996b219206A355924K212858j285251n92582
9450A690949M15451H29338C50176c098099n20879A34554J725146L045408J05165
9441E010273A266504a389920k87761e71924l04770k010310N38052K45447D40155
9431B171985j029767a812577K54717g40465k69797j461655i58993r96047j351734
9422c306774Q27694M88460l06222l08639C73075P54613j34017m01441K74340N4382
9412I20952K25737J843960J203681j032701J99360J437845n42761p86675A230553
9402b91059C70907N311Q67652R04123q98502n79210l4729e62966l27313n32724
9392a423003M230j357290o79662a098935K46098A11285O62107A57966K103818
9383B261784Q05323A306483O07280l92484J681728K48934j306930P14662J392800
9374D252473B060485K3669J47000J623124J287866k198118F80401B63296J637007
9365A900303r7995J173420n81286A09257J01835R59899c86681j585895n29324
9356b501900M23238e21620B91165j23584c17278k163776O84400f29864H38267
9346A610292L33576E23391b076045M12017p94141M13076k35732j242528J324848
9337b198505a024591j690482k171772J766497a384054l57919a36960C606250J633029
9328E239279j132994j117407j8866J346433j077328Q28882j856032F40793B50085
9318b46757c1678A302744J876485A555998A22777N13651i73622p89528L23488
9309a439662E52052M74307b32629A802317D14142c747312j559858j7K06942J380325
9299c719920J062580d15767A320424i9337k2169p37431k59720L85643D19108d44011
9288b972499l89914Q9508M61315O34085j3632q03719R92597n8053J31149a50436
9277f14104k87159a32354A453458F52566l2832A36401N63879R29806B26580a047876
9266c8554B197840L63655a46362j879028j139433J27093a320095a3686l48135
9257c61821n65911j223440J68063i32720j647241j340183R71561d62031p57449
9248a219480m25231R4638j392776k953824K062136a572488O57194E42826R81502
9239A524328k52648G7227O1204Q3275J83313i84196o53634j284005n38158J574261
9229a885732K11305O12678A514541j94574K24994B25510g56961O0403E86459K643498
9219C229957K85029K870647K69779B455513a657711r78512r0944f98858G68843
9209A329948k82903b305B626h81621A4993K210023J582725L94944r30309Q31267
9199D103643J364663q86220n17490l41789A700134q10198R19632J64391j24987
9190A848972K89377j035392R0718K58866J924605J125648R21480n88722j119093
9181C716459A689112D08431a146332k74252A280102J28323b51874j149013C92650
9171F22468h57554q70933g62336p22163j290407q25077a686187o92418j358468
9162c737073J012796a167472E59971J292707G61306j5179B73829J839134L41992
9153B454955L88721E55976a764595j48646O49635N35784B945039M13383A623020
9143i16320j222863r84930J344834B539591O25547G83157K10043K08788K425059
9134C627047n25319o97661N16854O1851C12033a778404l28418L89447d83450k395196
9124b878646p0356a273700A81758J48898I6371d27000n09954a06987A284047b08990
9113a267728M16795A80555K479208N024M69144H97599a50640B087105I87626b0352
9102a667499n82610j756928Q55965J090274b48346B900399n56449g63614j419891
9093b183505K06911C35467O94910i42792m087511J86877K026710R80495R01933
9084i34288k439523j773002J288380a673607M05511F97645O02533f04825j540534
9075b145359k491036l00351R83806g03612A825038p43392l81017C21419f2704
9065E08455J238333H61690a40707o7220I10122K200447n21304j139120d1473j625145
9055a666618r20805K78908E52852b50952a18962k3746r10415G42691K144362M89932
9045C376985J494455o85985N785K21878J37090k49538j749644H80308D30811b77419
9034h07529D36827c0327F49583N43724b2186p20517l84446A516043N47193e03020
9023a792927c65983A054438D77084a436511j383239j330182M1299a710039b1102
9013b497647L26940F93981Q31581m94606k03193d45670j97017E40599h67236j209425
9003b076661i76152o50123k288690J504563E04299N37108j85543n6545E045a137342
8992a432551n92575K20025j167395O10210d99890D24029a416336m18516k389923
8983d224775r64507J816523J72955J280282q3367g71775A663968p65815K14K53722
8973A152089m76892A54557J831273E02982d4158I31831K480977J999563N4333
8964E466704B664084o42849n68651n42581D6195K841621N59274j425017b52216
8954e19048A891032J443281j500265L7493i8847k947109k090246m3913R41512
8945d238603N11138L70316m98606k7260a830063N52399j028048O64560j274823
8936b915975k10802a297744f43695A347232J037457F68652c206357j545609K160153
8927b591813r52555l003123K72967J415937O63683J901277Q40640a9015A612391
8917A829453K57974r48824P91095J618181K57585O8536F63257l13014J088971
8908A439214b62870l43659A133392J548989b38561F13895K246125k58977D40993
8898b956651n31902J109143n28639O99352K13931q4745b15413G04930b65500H10285
8887C692842O33931j83515r70057a019919k85800F0344J188930J657406k03285
8878B703395b42858n11282L06501Q6527A802015q45486b140038m61803A621347
8868B961491J487979q10929C33753i15180l18613A587432Q47775A200375J302353
8859B502728r52845d72491j09205D45504K179928M41915j038704r88078f6334
8849B45595K14079A67851f43713o94423J09690B806678J852068e71409j706719
8840b278128d95391J33450M7271A330606M72816H80290C7468b705595J37518J126954
8830a441123b13403A540507E73385L5504J095162Q74154c05352J2231A495995
8820e33532a95258p87679k580313k193065j463573c253841R43425j75665Q48341
8811a637740A795J823772J205696m00781R10347k24052l58880Q36650j576475
8802B218072A069847d8475A311628N40037l95229L59825l37989O90037O2086K2312
8792B252707h59418K82336b05193n37069C45901J051887n23908J09821K01979
8783A185680J536094A344634D24917a198463L08509j796042N71926Q16263k48707
8774a546514K37252K15877c30904C34251J454678K20676J020599G17237B88054
8764D781770J236514j638196l89291j097091G32302b49176i7910A006055l16197
8755F89858J277880B18606c98599A336158J018755C22594h85094F01705Q53002
8746A454707a07484A19794K891339o49992E48206O95157O84359q19121O69248
8737A777849E72197j17006j90057A25029J056531g84907j915675B62208J112945
8728A375153g336o26797F3653L214395K016562j240705A033818f60739j3934k059159
8718b733832M53651c00028j661934O75260q68310N14474A64302f73339l73250
8709a046589J19962H20266J621969H55315c36098A068696L07936o21260J42900
8700H98272l99547b931149j759759l76613n17652R77249P27454N08083n54225
8691c926612L69686a709178B5393L77473O53011J132769P38572F84886a374252
8681e0859G63212B86783f17801C43506e26831A56348h25251q71979j54993j479559
8671c331782m84498N80940n4175O86076b68814A680703f63912k011312k240942
8662d916166k239112K237883m74958l75098L16043N75746L58316O85794j113046
8653d944598j900456K63981J233973K230227a151818j326730j035900f93687j32434
8644h26121j397446h57060K45163j437344r15788o87620j243033J41094J100092
8635c654496m65428a546762A560935J524487K258305p90888k005269F03817J784379
8626B388196j044133B44985d94739j174215d07402B056688i10600j959524a316043
8616A372933J507993j024822f18271j04925a22486k8474k37776D49751e59393
8606d49856A600673J669894A599286C867a109510p32604a94256b8674o85806B3181
8595i33325o92127n5833k066987j622432J448654g72714A238143R3599d04228
8585a821741d21049j325434N57141k03235j128974M64228P49151e39167j191019
8576a730186L02758e75629A123631L53948J35541J570011A303292a025798m20700
8567a446498r18993i33817I77327b01479l734680Q3454J544606M59535O13180
8558a235384l3637J92174F74048J673850r50602j04570J8629o5023Q83802G72452
8547D5413a30209A113930L907936K70272B504254c63858p0878A123329K231691
8538C355020j462446h78901a69393r0915k457829p63128J261740m02402J231516
8529a390411F86817P3697a857973p56692j407964p58454J361942i69781B98073
8519A505070J169525P77201o69288J271411N26590j478136q15678J379396j698598
8510A967493j96624O16102m02984J370363n32930p41836f12853l267789j126193
8501e006835L92205e16567B531742k82259G46511f19217a8527B927214N6608f2121
8490e24773a41133A117561O34710p45841O70098R16156J228233I33472a023984
8480A133133J748229R6077K30036o63303n90239h74293C50025J693760c33170
8470d25319D46785J132653K392332p97751j126105E29948J087634K127351K60005
8461D004938n19661D06984e96296H98303Q4140e04579k67973A786598p71387B42404
8450d9039j066355E30136J087641M91191R75244k14656j390254d47493J02877
8441c44616n96816k269508L27499P98171k94003K26992a055826A247909J076190
8432B324099K309643l37832A604516a150890m38411M07354L04514p08648A837211
8422B514851C68712H4756b67974k89323K49363A16083l2715e01455j614611b54420
8411D84899O47834H7466c105522j389279L09858R0272J714763J74200L41390j59232
8401b023550A67188J235236l83828a123316k54733g3540B643208J547793R29359
8392E120360J1596j626825r36071A142538d26860j907141j153125k216977M603
8383e699500K583314a163583A921R24659h7331A703J612409n06031J114192O92215
8373B914488j056236e7870k416783d03520D736221Q12265j984066J066627j399587
8364C231460A69944a32356A455326l70522K086264J855851C88392a900568k96854
8355b197422f3030B438218j30016M30505L75844j256589d58259k138387b59910
8345D085849M60230j934257l75373n88393C42018K62493K216402r0429K84858
8336C015342N64031A201585i31787C34751f96665I31846K506860Q86411n5595
8327D269522M99766Q30422R35786l65687C10438c573089J296670H67661J821900
8318B689561k08532G51579O64411n08223a272289r92554A638291J009186p20320
8309A927157J577927M84551k55273l6763N13513B039137r52439j54523J34729
8300A066904Q29347J32509k86211c30929C68311P30031k29084P02644J318215
8291B890117j86862g55409L6306j027108j87547p65979a094595B231913N174866
8282G406779L890686K024750o01515L217838L289919R972765J4244006L1832974
8274G5278202N9766918J33183130N1157693j27458863r0249705m5029287k0712868
8267C5935220j4232261n728521m094776J213250l582172k313028j965551M02337
8259E634498j810701m70243m3906N13120J794167P37003j593561k32120j202357
8250C325900n82434j176370R21131K663l38459O6624O14207j123477L77320J306039
8240C393144L09854q7527P83768A636315R86116J442266j725657I05230J062801
8231A968031G26451N10081m5883L46392D32733a51976j603794a22441B55866J935613
8221B191479j32471l44299B72164K45638N79809a826322r21206r98991n70521
8212d317040J842613c35595o20321n29548l35014r94267c54470A779490K75356
8203B054846P53382L38134q37490o44172n95031M04223N76466e89771l295279
8194c885050q43464K138832A103193C94413b614217Q3557L40364A9753J228203
8185A247956m48279P07504C30431a503773n3910k2902A886925J403051j108216
8176B181760D12315a980304L71621n96113k074461a916091B27744P74593A78665
8166b06528j78293B709749J073502l70083J579420L27322B348716e0250o36711
8157f86961q9526K93871A079395J028012E72821O54706E61413i61899j016898
8148a978797j98477j141341R22910A171138L61694E22249a129402j062243O09723
8139a581922M89823p28983N62973j408295J122083G23892M93146j11212M04842
8130A510668j46332D68074a05756F40187J86016J73955l11224J943273J343520
8121C975727A938000F22553q8071a616649M5648C58414h77222j507663M75907
8112a908978A562257Q43922A81123e20108n61771q95610O71909A273665J15823
8103A389488j09693j37230a126890j060080i37209j27602j532261M14936k67920
8094b450056K56285j27796l64126j508222M81376h7785A546296g01659A068595
8084A574046b23349q72057c41402R9873j81884J16248J4742j877052O1434N31864
8074a576177c55998D50807J118888m96684P71832K745873O546517P45343m752432
8065G130144C542968c27121A038250j27538b119571j354282J369336A416274K845528
8056D261802A655629a32483c9648k960602J383019I59461J299954j042352b27988
8046H85649Q62309l91509a923155l45941a78534C40509j40653J089560K511120
8037C800536L82325j657097A035628E10694J338053J907472J864540j386479A082287
8027B200613K258020l27647J032434j614673A002153M87073l33156A46121a47783
8017a579667j56619l21213N53773K1561a01514B956823l65012r35611F94174b583399
8006d736955J127147m59793j20423J430340q2544J409898B78306J952323J1002
7997B241631D70408a526744j71631j092789k78518a427375H2556a054060A822414
7987D033380A751799J25481C63121L95839a0413j278811j081227k614902R04913
7978d080440b036761h86205r50548j881325p79612K064164a86067B19233J831570
7969B050803K832408P02181R31775J441282K61426j507045l231191c18569n92343
7960i10912p9639a7925A324775A44982i61897n47366F48324M14737O56265J204448
7950B923774O64271M42887A954943b190984A05434K853307A273609G4850N87637
7941F62487J114814P7596g95177j157383P41938A583411R93626A060168r0169
7932I69999J714240H70868b60319k032907j113294r72342a436635c79244a74123
7922b49750A168401K811910m69983C08113a380927N82169j602Q2620R3259G84334
7911B090671O66592A155476a815288r32047L97508j29120R6732K95139j97706
7902b284782q46739b65326C090215j372793q30167m3934L63964P36507G24900
7892b20069A18083K775145m93111I10672R25674K802489J272513j952232H00103
7882b481203k01970f54644A473974E75713O3714G0369M3821h3654j16762A081023
7871B455208N31395j370836l87277j43412L27179K95170o73893D56375a20770
7861c4846A646893L15955r44974L29389K454754K685784p54333B388296D33401
7851E01725A96711f70547j706571j144295a256314m66223j630634J57933p0346
7842c265584j146340a033391N08767j411311P00485e71012A066138J260633H80294
7832b772245k996139R35974K286951a101547B005202r40000b49349M3167a7418
7822E78657B00672l7746c02631A590822p39472L60022F5260i92473H56473P41513
7812A597986e65256n129069l9249b149668A013101K285572j047968O61728K169762
7803E082195r28987j252908K44922J303817q17629I49373K84171D4723L2902K331399
7793B409024P08818B88779a934515Q26988A953070J23350q38794P01351r62081
7784I76896F0324K24475J160821a418830j545771K54124J048983j99429L48178
7775a512745M76758n4021j056585l44495J005689B058790j002464a396046k04729
7766a600775A79608h76386B50839h8852E85520k62677j26784e0878k516748Q53952
7756a713674g58345k507525j051698a788508N65912o43721m37873j180674j242705
7747d727569J631463a213546N96826E29091L09320J61662J535605M97973K64918
7738C298569P10955j660613d90202j307817C44511K097846J572756A866994a746858
7728b995606a466396I22432m04595b000486i71596B654563L038623j182758H49581
7718B175246J16350D1484N27911J737464K78037l68080l38947R59794n37016E61800
7707i14669k350831p30632J467871A90664P63688d77454k760207n89588M86439
7698c340810m15543R44769a111392K3897e18980j192944k104851l93485k92646
7689d502906a914235C89418a098202j103610j643244j384003R04313a707523F95202
7679B029305J647847p41364A018330K735045n99118C88577J145857N6396P29270
7670B320100J07568J318815M87417q39139q40617M27064K501485k46792B331958
7660C260792O28899j455950Q22390j585675J220586J924453B067187d85082k59898
7651g44980C59932c19904p31514k92227n50323L70662b24493j6354m70174k82353
7641i93374A607852K467923k40680j3437P35216j411719j041742G02994J63463
7632H66457R5261A41913a922366j741736R31641F8886c44416o44274H68657K75804
7622A144461l57400B45376P4190M62730J255683f67310j507902g18584A49545
7612A243737o15109a235276O16885B060043p83520g7060K7143A84456b097588
7602c553672j569123J079054k48724o59158J340757J171301j282400q08458J268189
7593c262234R93255b63141J1136j863034j606051k95119p81436P04456a482033
7583E13469O70355D4022a902673f55411A542714k73927l1775J220302O18475j509930
7573A565859e12376k257907k701374b086961E00422J606855q98071g69073q92427
7564a661500h851F41477B06615K68784a393086q37248h05625F38418k6503b429306
7553c487739M12078c86926A426408Q71316n98410J75832M23743K208649n89298
7544C918240I17942B91087M38144K454878n62415n1600R35395J25272j065843
7535B564918j69727N71764R50300A951162E40503B31249m0607b17043A877660
7525D389590J7055L054387L309235j347989C550772C1529L0461B2544c75734j364270
7515a740004m10359a049159A975349l47228G64670I4142O51794J901700O2399
7506B710035o4401Q52790A362097M46940K53279a184483q04422e55657H37210
7496F81799J411681B61007a214474d88579j720143a86653D36097a426314M0863
7487a385451L42804A705281J749711o67533k3486F65580a358362A445068P12059
7478B157127Q94200n00980o06671c26119q61368m38841M81789B117587r79200
7469A138387i3247k37218J46093I9924K60119a62132F05730K642744L594375K100263
7459H943112j123781l561043j815052J057124A599359m58723J128387N86634A297513
7449g87067C03470K666442j042630c47927k057333i58705C624222o97431b91383
7439i71594M53998C26948Q19899c56121q18360P1955A354320J394744j116206
7430A632858K192233O17002b37860l643282l04544R16979a014693C95994a01941
7420A290712n04a143232a17627F55897M98592M66793B36237b787586l389237k23891
7410f400714k60278J416274K212286i06519A971595Q74748j332141K307606j448855
7401B372953i2309k8846C06071O2767R0106a98652A747593j26936j64592E73293
7390D59303M50890A64543J418691D87955N49102J028769E65972h55581a16526
7380C07034K064113L730353j107214H62805K29591J577679M65840j483267b6162
7370a091190o21015L17370p37690o60872l144392J946819E8479P56684d09996
7360b823725j660375J100431a133737A859639J120157J266647J808439K810809
7352H865691j160907l274608n0185o64662a145757r35302g50004H65297K494531
7343C359828j076960P33683O10121A774399D33700a800177b03234B51980Q26350
7334A078330L200156J133080J775767k048330A968511G68722g13508r41130j039332
7325b693970O26529K98486f99862A32918g39416J13983C51704b530500k254092
7316d784592j95436r57015R85230n63884K399361a503485j560351j455065R71556
7307c547345g46709r17022P5203b47718E35234J402678K48601D83691J38614K673861
7297C296166A223398g94161p29247J02448G35347J311759R88240q25642E22149
7287g19002m32328n65658k228970j26426L71132J556980Q01260f40493A941447
7277C508333j272503B12229a017825J04960n64717M22862B526383J580923m87892
7268C619414r06643j067405a08427q49522C03596J206211J474456q25740G45391
7258A177053J411321J146577B92461b623578J271127B48319M92345D3930J912843
7249A956773J200036j103333A16691J247484L912000J747487l5664j538076j264043
7240D185879j253041k63712j031739n1464R07052Q46086M8565A470383o35110
7231H35273K97356P37934N85753j50234H14216b332057k022589N64426a500538
7221i38411a69718q3542p67781m5911B3252O68738d36644j628595j205165N97333
7211b673071g90602A374727N29552o15868l05860Q81750N84287j065217O2152
7202A445523j5903R91001L97749k51780L2596q99371c90360J42991A574344c89134
7191b879514K6086e72308j49356b80756m40443r08221N58378D75381d32722p15541
7181a148263r66110Q97399b86458k749296k207371M2640J200110G1618J182613
7172A254231J274636Q13264A547894P92827J109774j376640n11880e60016k68761
7163h28777l01763L1603B152874L95744O2352o76595R23956J20824a77652r99538
7153a177190j495426f67912A943884G71162P52810L400865J125045J76147j042719
7144E183310q21054k135073b492978m82861g6031B537427L0863m78756m89574
7135A599960e17277j532493P08553l70184j475847J44401g40869F17529J510106
7126B127635O4023r60942n48194J444505p6138B19310b8492e441j144653F53918
7115B018018J495133J594079p68662g2668q86960d40150j254264O92355c96165
7105B94457a019440l168175j770024L60111J961108H81895J526726c44453k577331
7096b921784j698675L85618i97295c76610j390475K89981m92945K75304K31203
7087a463542D0107J340474k83223J541807P18220j655004a280752j157665k50629
7078b689046j311911L62637a404689M15008r82600o39106g53782j002470j899437
7069c655689J697820j182430m63409R5478Q808k799568j323322K801583Q79344
7060c941385m45868M8331J513416A37162c53938a40727B279491B14894e60378
7050b44296j257885k35856j809619N20850a238099L63831j835762R08690A066216
7040A101847J53381k65244I2455O86195O1788C19844J488913K089582J038283
7031D936622B022374D72544a824712j555419J023205R73799j558740j406989K066917
7022b281939D68282J78246A81811J599215J299677k98625A356910e52749k314091
7013b866840i45167J81177L14390G19039O96132N7270l75094K48773J106963J137020
7003C590103j671273H30372a75738p68614b39219C04871c12952D42702a059276
6993b080832g80828B8644b04435B171201J269591A649423n85495K061405J08535
6984C233868A298073g73008j78765l91839q0056k73078p96911f4468I48907R67567
6974A916474J569173K366089M69751j923645j960500M05408K72718m98250K314569
6965D931787N88596j543884j186135p49449h0152m54444A543623n06267N85340
6956A622696b90099j438329j627520O18622F23872a226539q65189h57502A115865
6946C762630j796195R2228J499442r75240B18874f4478c609j329778m33956j490764
6936c258107N42806R05246g56192b82608j596498L88994b55236B883486j69275
6927B714211a386687r20040e47542j151903j812192R66555a244782k499225J35870
6918c608137i11430c93792n70858j807176l090888L14108b615734O39327j829180
6909c805587J303819k6882O50631Q65292q28944j150530M95200D07207g2838l446146
6899c518984J024114a232924j606794O22481R80127q2765A186819L894671n27340
6890D554150k255127J209260p77007D30677b456278K72515e94990j220246f80946
6880A824478l38002n10035i29160k210241J227289h57230l18354o59623Q68545
6871i66662m50760N03797b50451j951492J073247A22433b64218j757104k565073
6862d586395R16040J644935O85464b20568H90815L75622L44383F23980o1982d83259
6851a274056A434870K038939A589233a069178j61848A17012J028690J141657D97545
6841b142123r561R20870J64716l1059j16078A047705a170811p22249A341157j97748
6831A143409j2426e04991k086232o24949B8764K623019j267087L25590M05089
6822B115375Q96067J787084q91633A722421g18165j574754n34609h46744I94489
6812a73766A043902J646127L329330j17666o85963j298706A209823c33285A056858
6802A710987o39938h5947p60167F95465P28474F08371N33495K110057I8701b194010
6791c418658J532970B60847J40888b371991M5143o49191J97573C70512J041560
6782A412072B44459a551667K63764A213828P99950p54895H7162f53788A441814
6772B241266H04962l12841j52860b23079k744787o03477P88443L18251G81659
6762B355679f6316r09559l70865h1996C26177j59315J42805c67745C39309K861029
6752C200338K249166j920648j110755L90119A269115j58950m90602b124770k643789
6743d768559J095384a715738N08898a43247F87708J66724k05175K1951a314278
6733a608920O80903A231085K470778O3108H80596N13938O60109Q97138n62471
6724B389310j71012P76837G93477J42580A58027b5451B13833K256797A004215
6714d077449P62983j210603j645241b679720P33509l49009a107008h3652Q34m77548
6704e60366K02670m49979j838637J79465G85601J552781q17723c92109o62903
6695a055012C75418J591816J23745d0437j517573M89879E84329E4987j1092e81292
6684b839683k3593g56572H40783l15398J019378D15237b564025a251342E32307
6674c83029A012415J203493J488335J4486R4484J89604A711736q06449g39767
6664a608861A75395J204671C01174b894685q69142J149322h55846A258308M75733
6655A734041j177K61010J233442a92040q90302j344633j024198F34033L96300
6646A030333g48901a8057k267833k507145k21405k216638J222423b111376R6862
6637b014514l323866m23725b391751A68045K450637R00157l33314q00585a439856
6627a446207A762126K321544L76025j93906l06477k34844N37022p8165j589796
6618B593529D20372h14806K9292A6753J779714f76236m324335k25175a588588
6608g70766b43507A488908j80244a897385k163941a834173P55303N26258k75684
6599h28296j582666K25056J086271B48913G4853e98806I219O32896k24892c37624
6588g87971m00624H56269J291121A51191a380382J02054o80068l28383o67852
6579b954631q6706L44451i67135K92821k17178B73442i66967j829565q12407k80001
6569c888940j048911J66047M74688J477599f15732l948981Q11249a036139M29763
6560f06376j001678p58699O21492k172245k474330Q30749J535450J589419R11093
6551a525125B05185P95115K197531R32573K77824m29993o71131j096698E03573
6541a418056n88528d83399A076493P8167j25451B49240i62772q52673M95493b93795
6530A11343K197326L78705R45498K79812j529015A116908J3794j62279j17395
6521H51028L8190a050738l41522j44852o1121O23147j420938j318480j229388
6512d943892Q11546a868614F72436j68243b234203N1725D57561K494367r23885
6503B028043r72782n0531B19941J180390M70124K8144M64543K412925K23973A855486
6492a28609B71204i98663q4710c53940a18365H36556Q86485Q49948j104760C15765
6481A97129R95910M35700c82232m18580B78566d14188m56090M06586A758736r2847
6471A665889h95100j816693R07396l32387D85098L869219J667172q36402j498382
6462C686705m52492j401616D10228a203848j306720L05572o50333k34505J055057
6453b034777M19203A062569K576263p49390n86835L25820m03557J328322q4262
6444C468930j226493N02651P75645q66898p99819i69622j940579p642o55525J485327
6434b088041O25889k114695c1992A822079m13038f52285B83628K54592j65348
6425C72872c8238j250482j924675o3825d14342B905444n80744q72090J193521
6416B646131G0094f52209K52366J59938E15799A78752a645468A211802L012117
6407D223919B039769J749733J182674r17065j173848H02047A43664L048686j56130
6398C036220j381663G44779b117232c97831C657086J201915B214201J96992J8841
6389B430034F04086L175353J656892J250674j291525k409812j071180m12796B93135
6379B52914N10732j37052b279459O99001D4510a514725l59240h34622H7340a025439
6368i41375M04922m5972m43433F71606J507714o17984Q8277J110587L49845H05180
6357D33937d3879j022170l73353m95804j287044L44661m25553o11352J806258
6348b108236b02933j757792M72420g40594F28184J35266N93780D81064f32853
6338a63777k348862o74702n77799j616791J466920J658320Q17771j549849m52663
6329c441432a498578A311948J229220R8391J118863j071718A19973i79506K30918
6320g48588j164794c46876B270072J2818r64040N93132B53121b320665q69833
6311c190498a356145E60921J404654n50483M13372m91684F3375a174781p9757
6302a254538D41452k17205e76137K1329C45019b01512j303418O44894B361696
6292E662745l88706B521895k25454n95171G09270R13030g25529l386467J344731
6283b767265f65906A205908a52997D33897M62998C62224P4562Q19160J585442
6274B841388J009166n67253j170899p6354J621195J283657j22560k79852j243789
6265C294699j52178r33631o82936J062248J297413r95038f14844k338429k56300
6256c209573Q1414L21310o81875j27385J34412b26368A440595D37257K23853K158981
6246B820091O93328p23073O18639J377464K626773n93157C187642k46596l33110
6237B607936F82218a179774k125135P28675N9760J16575N68271n19299q814a126011
6226i23384j283549a031984H30235B14313J351073J410903J087360j28040M65792
6217D401401j425596j286675n98445a16008D03246J5234i42032p26207K88060
6208a380179e53167j604447q99743R94123c58192o29369A641129k17784k74276
6199A149069m23716a190711n17950L88297b36450G18158a50988j305679m39162
6190a895829j564180J554343C45853a69374l258516O24312c61712B077402J180517
6181C257919A067445J293760l22801a711463n42257a047667l90210I23735D12853
6171i91946j180890J8709M61590K92527c79716A604434k55384j64735a02003I40084
6160A259344N31689R35028j276995B76279f63872A057687K469583A274546o06460
6151F68086R29975K83969J220846n04673j054548m76016K33274K20948G47315
6141h92l18992E8496a54407F47513R88708D89760e2254j455898j370253K22405
6131b656000i20892b08744d6851D99729K385974q71723B15399J329171o72299
6122H72271a548665N77819C939583J509193j650415j049682J712259j350835A306478
6112D21147b31633B427536J61004m51290H17692b831903l318895J249747B67821
6102B317255b13495r34190B94502J535060n2817l22940m0857e42916k152636H1669
6091D08196a451457k774421l95700K263116C67935K861412j33758P25895K98388
6082D119872C6348b118611q9643k098616j226167K593460B46316L89427a333245
6072c270481J360582j086116j123848j13592J350824J371919d30087m97951A027959
6062C56962a260148A228703K801303j754021h78356J9165j551344q29624a326994
6052H8438K379407J329656j274009a716918j640222M19550N29647e9753j577391
6043a637144k516104r02098R67950R44408Q78576N76708m37581j106384q47662
6034d079331L78538K094J036060j041844J203114H12805L08129e32109o89199
6025a221308h4187F89924f3138n72790B17342K850786K181743j117955A415374
6015A415875j52240C17461a9170C16733i32668E93773J285653J56956B57801J526194
6005A783995J143019A345394J310517l06816n72438C7136a778769j8699M83289
5996a314179K76416K14162j286771a014674q4146o81363h10595H82019a173524
5986b560107O37710m14584j550882j261583n22040n39465J447092J310141g13813
5976d8318F14382b74315j436443R5126j315694j555351k4467i43312G10188L50787
5966A060975Q22980m56181f56305r82420b34520a16296q0269B08761b66282k68568
5956e34850r7314n06114A73445b14385q97400b65337o79336j065852E7366K708140
5946B765506q2016J180097j761976E70818c19348n42258I4901b236459l54478
5937b590937M62472L56733f72777N5070j774575J44684B087988J114272k4440
5928C177820q98235r65199b134895l016742L5044q63336J09100P32691a399308
5918g12856l620924o54706J813203J245649A809961j32362f95945k379421p41388
5909c816754J274237f87118F15402J359947E08235b665178r22529G75597K79446
5900A055043a167266j916205J343782A286271m89534l63025a798175r68069R81185
5891a785059f0942C15223h46206o07637o26261j060475o96844a034921b50752
5881a054992j740474Q88395O42124j364697k186646J212881k87018J100378a260664
5871a517475l51292G85672J375925G85459e6261k19542A104776g15229k255056
5862b970285a322901D724P45977f90594o14644j134913r13625m01936m68798J702309
5852b522201J241483p61372k775496R74916N46518O16587L17196p10187J062039
5843b010517Q14285N13770j812155k288306J372215J221116Q30641m18896N55010
5834a222837d23826l51890L64580k047387M94459r83848a109880A539804F84130
5824b95296j012674k257653N07875C28237J214080C79175i30052n97390a94184
5814a81042j826663j096008m15432f74686G4732J570070J16881l58549E97897
5804H79650K141751L66884j61602o69645m63827r21066E73742b62703j66419B011872
5793C971935o62377j246163L98133M95139C07707i73741r62257g3727k42244j298429
5783a614400j274730n89004J697878M8252k57360R8087A330425L420057J974179
5774F724661j9026k653073b50324k078723J145911D9755b83592j805421A022042
5764B080442l2317J948996L217697O34231k533842j536464J070596N39374j038313
5755D350400J09016q35275j748961c04714A766816J498253A312400a146156E08180
5745B038684L22546F09348B24581J078870k2660N69523J67402G61707b19713p20893
5735i40606r74857o91618K32934l35245k015147a819308f77293m96596m96704
5726a670593j978141J661979i0254A058485g03129k496306J283942A269955m35554
5717H34401f12784K49315B77511J30028M21296L33163a52026k343863c8754B078995
5706A607584a065804j773175d34576F64132M37235j63244f23270R8950G12297
5696a404482k251964a819528G36263K588950p17459f20790J42305j349713N69735
5687a258463N06588A96741P39426O45482K920690J874284r81128k434081G27100
5677i80491j816218r80689J253117f38674A570825l74814B1449f88505j324007
5668b012512p61193k6800a48485k09167M7614d3448j820861j659635J79261L08188
5658c036495b60324A445119D54277A46857a697885l6952j130450N83790Q4872
5649b196625j35885K36529e47824A541276j12351a490836k930298J427301J394007
5640a599826a18258q74992b39369A457176K80540A71893e62028F05508J066289
5631A671797G01499M01214n41154c426502m40018n0784k156604m85401J012857
5622e546452K146079a005643K43239q44965j419734p2833O48892K62464k46396
5613b434976N19851e32491D802814N58595A590171F07168P46743J741106P78465
5604C873482A344083f87589j440252o60944f68535D98136c7385j692914j847674
5595c577973J414711P16447K40005F62815P36577c05578h6206B85436a64911C94701
5584A4773a003311p15569j711022p29010J731847a208619d75052r947k369006
5575b854005n71111k800396M71211a543652B11468J286125D69256b577248m82726
5566c059974Q63470K22018r47540O04980l13635Q83726M59985G84640K053116
5557B837756r48035f61073q22092n08854j503347J07291Q82749m76257M61569
5548b520014h77777a45876I80062C73841k4831L57441Q65631R9946o30016m71834
5538E70178e46864n4262F5333e71762j461694l13463J05497j486538a121470B638870
5527B753525L087591N00154k925491j319202p26300D34879k02957i93559k000007
5518b993566R10660A480357D87702b819996L42231C16541J209L78851M37789c05913
5507f97891j517889m24618a195254F87230E3033L09326K905211K15870A619273
5497c72808A75609L19822J832713K91791j51468N69079L21506M13826J652153
5488E425031j380918E45953c067010J75387A38801K018573K79169n41169J30540
5479B025914D24857a180676j320806O65973B19251N73948j44126O43888J237446
5470B530407P05541A220469J677464J29239j246051F32096J475283N59927L07566
5461B974872N08355A671978m38474K166685J223369j623895M80517J241815A379283
5451e63583k80479j103491k770584J318021J515106A5230J723907J402646p27821
5442B413962a638293k583398Q30567J85372p9071j579374J227881P97680a375082
5432A362179J063166O79770r9915A115327a803056l638114m66812b738616E6851
5422b526153j672270K36693K97167J0960j291144R38445J423681J230443a0918
5412a153948p58580n02359o45283a472675D53332J125770r1295A60305b806614
5402b363999q39233Q60826B003797L05789k10402J359156A718504N66630J835404
5393D120538K16846O71620K09448M58307q01330p17003A476267p5922m44723C75139
5382D33167J859213J051717K734336J42098B824662A284009D22081J75289d87249
5372c041014r98291k05674k5557O84346J011036N56890O33746e5076F2232a394952
5361b290288F25100K183870m51750A015663d83451g2502l90176j453811f10129
5351A100399A38994i38764F39301Q17223R5111l79106P13402L400P69202n01088
5341B157445E10971N59873K13730P64064M02023d20587j071061B145789p33770
5332A412019K96591k33335o31981K281021K644598j924237G70892M28922L20741
5323A520555J186460o45035c99896j784927m45782l9336L02919h22159M9612A283159
5312A569235B12018J419026k52959D72551e25557k15450J66389q24618e26740
5302A812599m18552k22301J38529H4877d26895a13246B698740J573436k82826
5293C989350A348829A24791f63629j03886F16536O21033A35495b57686C102200
5283F241150m97389B307452F96776J367945F64417h94178k130305p20233J1450
5274c733266Q9170q74864J206877h26726a4350q7416k95642D99452J611052O92870
5264B803374A172968J603054K06653j292776n51290A08724a850081k405323J168862
5255c086542a231107n36762r60115j329576l26287j376857J462341L93614M94950
5246c409799e69413j355360o76645J074593A321119J274390M37694l07891o33469
5237B091843c38434k325412l7260J022335l60146k399948L83365J823248M85411
5228a746841p26955h70376F88764J071067H20788C14650J491229f6153j989423
5219b055576K83425o96736h36608D66258f1536G70367P90967j05555k2631M75811
5209A908959f88964k904794O73853P05913i54099A616255L37490J97460p90287
5200A360918J417361H31941O9038k76526J46747a86132E09645b46761q87167A717243
5189A854743m57453E11455L09695J24630e62505o96127c83309D09145n4907f26571
5178a949103m6906h23176J80534A233887J133058q71350G36768O41303C40940
5168d24719o29758F02450R93565N82064N12624r47276n48777O4519b10594A006440
5157D35386f24340A597713G12541b34242p69874K94771b18905j933154k652550
5148d804609M08994a171142n82378Q52189G88786j14545Q35998F95635a337782
5138g68767l72453n56155o46762m76880g91010l53844j918952j613498Q6600a633640
5127A59805M26349L90628a699588J52414E21262a208777l37930j194698j723218
5118d464623Q59525J104770A553147J896216J97861A374479a914380j253280L79902
5109b787758J355180C67289J531246J609567j014744j07117J272828L17620j205058
5100B771631I61929P29975J379159r93677E38542a756677p47833k316213q33048
5091e653771K764156b00058m50094m24940b62844A033171O80597R68947k84940
5082B397775I34966K04863L46919B54336K51149J020664G18180O79345l59977
5073A037548c091512P79933A69361i04107j117275m1820j483950q73421j517926
5064e938499o1348J144573J377097J549169j324732r53716O00625a555310c56343
5054a31560A484661l5295D94226c02189k014356O6364N09737q52648N91887D22008
5043H99770a576689o26636j208915K47795P4324N37059J193383b16054I56739
5033B925468G10010a778037O27852j44850C1998i15220j492401O47421B44690
5023g52980B45J542685f65365j159507L9221j852246J188261c37128H53297B97434
5012a690987r28551j791800J004946J268624h53703E72839J448170F85500a012256
5002b59522q38222L4590a5872n14919A682587O74065j165534f2138A05045O41537
4992G46582j44147L12306R32914H73780a159249q04510j03873B92962l4005h41942
4981b289881q41415r6575a514230G35482k40216J218264e10482j869356J075739
4972a304099H62482k0476b18067F23265a113327k063362j340420j795243K380964
4963c931388J788870L1800d05595n84971r45554q30617O20402A823531L927085
4954E750616K94175j200697j071361A388382i65937j652724j269167o32080J315629
4945c204279e30515j291297r32279L58201f70573H50534P79107J891671m80719
4936C040593Q39822J531793J093326p50611B034152b573583k80391p01540J159763
4927b395751B29366R81886a399854j557088O57751d43408j455941O87985A139783
4917G77973a967934e65985j46982m51307j83602k86375Q11605B82235J142670
4908A424905J341365A070177D63136J003837F79144K3443h34300k102803j510785
4899d447888K6864N36789a363210E18617L95287r1121C25111R30713b19869I657
4888C85680J69912g0726j787868j26799L54340P7812b38294B151606R3738I59815
4877d99106J76570A241926M476947M69425k576817R30731R11707j018476k046005
4868B389438B68760a785222M84470N93145k260412a134033a61719p39535j3562
4859i14816G82755J795823j090893C80860A17723f75694C54959K089578J382157
4850C826694q30398o45752p30840K08723A21767K27940L04882N11932J60387a507200
4839a602640K76967k92701r93574l008779o30649c051394D40242K305132j195412
4830A549962l55364Q70641I08207a230881N89704H80840n9274Q04620b74826k855557
4820c130383J32525a286508A64772a007008J296G74420K063823M21562E48112
4810e30787j66956A039499Q08349E03854J65554K862833J400529p56407j514859
4801B661504J42278J347847j935665a294904q61630j97844l007035j52681b473605
4791A424156P3018J160390k93140j55125j76362a06440K3033C187484M08208A664722
4780A375238m06063L31070E33254d40886j140759d32843B177508D64206f56064
4770f14011j124756g98651I56815k3502b384004J54976R69151B17617J069583
4761A287200D15374L29582C57692j64025J778658K966741j08239j680024e03415
4751a642561g39312b41861I6198J205915K108919N42409j378777J104439M1313
4742C720416j622278b54982L4213B84103f11537m37446A833273J631988Q92600
4733D357861n9932j352851L45131C32400a984077P40271e62726H64005l62662
4724E01343b23024A076388K407959J825673j124855r19266k61380J666903J623318
4715F294740J01314q69460m53630n25890p48302n94904R39334j584577j229897
4706A328728P42107o88737i81267k720738l24817J44722N73279h19101B014201
4696B917853j44174q39613B81953a697743d35946A445938K98570a77611r18469
4687a096080d46850k700320j681263a118133r20761o39757a253736j532491O92679
4678b093548q97508m18813i59049c594q2865k883464K81445N98327r19080N59498
4668b449733I43223J290014A067906m8499l25305L07676k43723d87729j896049
4659b383778c62786B576896J63055E68069N20833J269596I32890d631629j958403
4650f590032J885443J634769a061041J68502l011956k463828O08427l81498j85447
4641f326841J806287J234635g33341A75428P01603m36744g30385q91146a55343
4631a111654j108417R15467A054447J932185k80626A232356j20031b534431j684191
4622d218622J873213A094390k50594K19599K151281j130100f82475C1456M235618
4613D267074J645169k002019D33631b548444q47281M38594j357279R58728a408901
4603a234848B66020J527667F32802K95799b34575j500069G1490J125224Q24984
4594B021698J629673n77172o04272A077341R62924d05186k796069a201993n39400
4585a741393J23225b98506G40868P70028o30173a168097m79248k34001l90974
4576b272320M77671e0451D78242H5215P65553I5577i47762m26285j015926p48659
4566c138632j240323o56047k31407a228871A430354N68214D96669K43558a567438
4556c826269J414876i92655a93991l77878j48350A102181L62777f47576A399289
4546B49224a70470A381960P13066o14983C37587b127988k462834L07133a946695
4536e03493o93127m8252j997186o21188J254522j404904o773Q45020N34596M91991
4526b148794j198581l130954J016583K388910q86841R12408G98557L062418j230806
4517B630169J038521r57967b541417j587523J710267Q15098m7671j435337Q86116
4508b200467M26851L30998d98739p82326n50648j060082j219272O9039a878747
4498a0922A633504f4587j512655d39799B084385J643336Q5466A738211A25566
4488F10916m7329a208051c43247M113K0739a04939j802300j035991j09676a309892
4477d70160j558492a005337K56789j539332n15536K29254P91942k46348K43466
4468a785102e02993F59427K25828C88734h0782A006a20252H60515J473392K713828
4458E047735P2951A637476a518252j191687k39622J119157L71756A356369K230750
4449C587119A665910a755834l027759a876827A165251M02422g16646l243248J956227
4440b003667d18145J40536C14406M1089a379622F3782b146164q71026h65461b09746
4429a093839l60473d39312j061539J83900n82326l31008N38812m91879O23910
4420a559442O3632M91209D44401J568925K096749K95808j577173j341786G9425
4410A135861J827137K21014j582009f2494B066335L065726K29829j569137j145980
4401B646773n42453q67137a448770j851879M57009J241031f46199G49167J071230
4392A820397p8277G22602j97504f89687k027943J232577C66868a82403l50191
4383e32594b38733l90333j843499j695763a580338d22960k3219G29688J806207
4374B535895J630200r35687C91744K17365N88106J686682r17664i38903p79875
4365a718778I04023K377100j337937D86964K89484p0794a035863l88971l2051
4356a456885N90739A431975O07051L9441I08572B68621K70515d3510q23612A125601
4345a463j564767B68734K86352A7906L86754N5133a43599r88776L47141C259778
4334D135600A670296A99326Q24385L7432a396171j434408n80873J403659e77237
4324b516461p73180J492734e85038B267376l05571E64813a488401J32307b52310
4314C51935M13775d05746l822300q49648a025612C00200a208343j2110j528002
4305b748455j039939a066963A380034P02817r96143f10600A5131O70915J72536
4296H58582J076823n6756J508494L85933A516885o64983B1245d39422j402277
4287a841699l33279P31175B770618J793981A758579k93722J8870Q63069J232651
4278C579447o65754A076106A87059P0894Q47248N36191O33509C93475d82394B028316
4267C619463j728558a215937R5348H44403M88147f65909m56084A91749K32541
4258D24290g91748l44807M51646B32580a43459H14848A26271a716903c44472C061105
4247D557951j390715A137405h40301j417759M06278F06075J007771q00557J40865
4238I54154O28245J256481N06124B44067a206326j640272j948827J835968G1002
4228g13015r59555g24013C82750F3695a785741k392121j743279j740184K795226
4219d866099J156300a633920e14004J13911m80875k57141n79003d98837A576959
4209A521761C06174J195075J67713f02806q34295f72223H02410J76320Q30057
4200A808787R7203l23312m4072P53507l36666G97512b029626r90815J086063o72923
4190b607301l380650n58064K847377a340951N20258j90080p13582J9015A212J088751
4180A089963a774311j537908j217526J64015N56103O0299a338192f21987j953825
4171b575812P04691P73186o61052j99758m88525N71375D66723o9831N55389o2208
4161H90073o7088k85690i82058M74184I73137Q79626J54291I54738l40789f35060
4150D97714J836206q70425a072437k91978J15832b58447E79112Q04362K88679
4141A672153i18986j342115j99534J130654b48862A364591c66412n44366j70729
4132a081507J91659L5833L30100Q4890j161253k57508d03203k016301j760262
4123d179766R09415f00465H59110J015454J307204A537632j68830M92542J779852
4114C641196J31859j794444o50580K951371K787262j956983G44555h8781B195564
4104C419700N99702r47682a218265n16754j106223e09650A178377b34053j418074
4095a652127d87822H31051h10042r64988a95868j086194j652865M6352a439019
4085a735421j950528J768857n43571l43182j81901m80056J218238M2247N43873
4076a661444D24290j8460f42210b31549D17515O83684J663050K86105r26865M50954
4066B574443m17583m38642b850l053435m73735a539363e00851J63182B174863
4056B206404a134139k022884k437608o01963N65874o42793K105245a418682A03430
4046a168817n18289B19025P69527m79934i69157P9004G08304K889419K162995
4037E760718K70094k172599j454996A142981h64395k729060p41279a593757B131668
4027B14514a499940C06522A26010A9089f32002b1329j370314j800637N72707f03996
4016A341253J589745j414284b20338B126433J281336m75242o39950F42975a242993
4006a488290A35590J862244P67247R98646A834161G33787j3436i38358k62990
3997a201348e27895A197638N18244j96214n97684J623029N04439o09311j001524
3988A438617e23792j503196J39532j14628c15034D18293F633a462235j772288
3979c234523R82151f53702C50282e66585j172790A135901J239097J252827R58485
3970D586310m20428j712825J817970j128401B31053N60897J65130r8406A55770
3960B160438K20598l57600J06063M10103j94478n04427L27818M96853J141263
3951C806631N13586j005203o11502n86514I88624M94870J598821j271207P1137
3942A882245K958470j365051c05785k494350m41300L96945k58497N91171j98055
3933b709871Q15434m57290R90328f43650A232508m55105a395688A056106J69079
3924A225185e35704j371650j936519J041218h29388q34272i2426A493499Q36916
3915B330415A034028e80044j226712q95579a104767E79945K876997L14804n01523
3906C270223M70116M13382O58119p25539j229606A211855k06162R39421J59864
3897B104978I58026h63085q37495k38777F49551r5228a564150H92684a76655j110006
3887a286661B77023J55570j6610g29314k392146L15946N40817p01823q64306J840844
3877a989982K36371Q29071p30338j757060J020484A04505J926725G65879b558077
3867d188247J739878N19098A30478c0193C3686d03928m58028j202431l652075
3858e716462l142934J260887L039141L67500P059a500566k430923k21032a556313
3848B005444M22775b1033H30402K3524d51049A26502b66993p72602G8512J409252
3838A487764H8892a271639E29362q8434g43555r9030h5272A324286K49149O46167
3828B219602J17633a16249l151775g56589B025815E11538F4254P26242l2726L547107
3818D304877J621970j117132k021157m20719E76755a756886e16574B047114P3306
3809B120420J101315J95476j259410k15399o1689G01142L3738O99995O52452J417374
3799C504701J500963p63831j132183L246566j545182j255260j109256E66753a389973
3789e70109b77029j225006j494118o53860N1278O51001J249510A236281n49975
3780F86306b28234q75434l08052l74381j276656a191019A573065K750072o19067
3771C704070A754881F36321c368676j073144O22068O49397o0400r52977J055629
3762c128103J053182j926415j41997a387423A448982n72526e02153q44939A638251
3752F110204j051621j11867j89206d98680l115616R08891J168906P65633l79479
3743a150345j71616M8118c21167j659070K97881G15753J950970j02015m87664
3734B077044o36692M33618F00464J597872K992126n41455j507190j536876N91239
3725B196180K951973L99648j257194k019114j074538D83530i09380p39876P44607
3716i04649j486447j412308R78350B14594J852409N58848M47576J408818j786699
3707B695546b70005j50014J32869E24909a50969l35293H04192J066050q71123
3698I99119a54222A854106n61904C82579a571897K71162L32822k012877i30358
3688b06010F7295a623106j455445l45431L73900p76214j221885J67298K422353
3679b458530D6019P72958N56555o24659M45493L132613l17383j923165k59692
3670A828739K047811J068342p11431j386890a84437j237932A005552J035225M93833
3661B534610q15800d6282k719063k106159n00059K161794h08596k409418n04601
3652c722615a367005N57833I77751b99428i4603F11449k91818a358169f61358
3642i02870J54535P4434A349157J189827D30729a542710f87650a74479k75498
3633d49977O9630J6482A67626d18981j389556k122506h02197C119444J685078
3624D804522B094222i8459G56630L67480P9343K3548j40488J708037C34956b093991
3613a483044e28479K16906p78553m58180J23637a13024A742231G35710l33189
3604D02521j89305d51794r46932j345324J109749K49661n28307N1733K16439g32947
3593f50921r91542M58765I98828J836830A137570a369317k361625o04553l62128
3584d697623j996604J417753J912597p8971g56699A023494O78788P10514a059925
3574d066497O25005M49644P69181k93453p86433k774828p46716J055635J567784
3565d200678J098517r61415K19130R59278J124741D32405K326710n53272J111114
3556C316957K56588O06057P31305A684856A8297K979217N40447A731920f58857
3546a412156E92380l6290f84931J34850k85489k091868J047421a21563A411388
3536B167875m84333D97855b051021N32907k97434L99151f90728J96119E4947L86733
3526D41680a63902j274093p84580i11715D32769g26755l070644j957649r50894
3517f705942c237632e11362j180565j269930N56332g60293j384476j856010j959453
3508e960232J463569J554578K09995a261333H09720A56992d44572a81797j816445
3499a998242j863852a682745B631794m78991H84256f03588B51178K938135J998573
3490E187886k076263I71663N24771J143434o27358B10674a566334j701352O48064
3481b619622J064907A133797J656736K39739n52074A022842i25828l01553C94920
3471B74403O45758N37773f09245j897735k0678n37015P22120R21303e01327B134813
3460B408892K237726J266158B011264Q09206n4014n23440n49104J096871A308129
3450F00286Q45113J165992a121922j339840Q38201k88831O79560L82216l21356
3441a171972c55570a11394k70539o41348j066338m78380h75851H51925L19817
3432A171742J202429Q08092n29922J051902P3983K69540r70583j053340N30752
3423B554595o67598a389015j977367R22803C72986J762117R57026j190304C90636
3413d36201A596803L687207J918975C347315A188523n72447L94505a050396j536232
3404b586628i89047d00979F02296K83534m0622I2112b29904C171861K96516j58514
3394C309863C72658a072125D01238J400757K05572p76294E98544g25619n6428
3385g82047C81523K059956o8162q75785l39567J210078J051095J119935j314618
3376C224455A405711b14084H34487j66077a245337j829366o94410A46914J567674
3367A714588C07183a217046k709451l27853Q38945L8152j094860K67662J727567
3358b476884d56984j29356o21463N30925B5589J87587J3963K86109b16630j575373
3348a792003m11392d15272G09521N44172J389931l3071H59917l75508R36657n37127
3338H83939J41025K748041l81726p38272A053686j02577Q7821J167099J2687D08851
3327A632829j87120F7314h63564B40240G6599b288883l7201i21721m56683p52636
3317b131040c8885B038876p42666h12822a40506G36135k4488J893147J760727
3308D365521B125569J356228J228096B012887M59588A004470g55414A341829J502438
3299B844267m69478L82743N44028k27431L34248r65759C93498b369992J080524
3290a289468A860738J431202I82285b660851j776440J667967O62743D33736K309167
3281B742903A211013I8734Q5949K11295g99213L6770A016823K150596j583032
3272A584387a328250j234033K5013L73908j323003j51079Q57553f17222C83017
3262I17635a197742o31452J35851d97216a25581I49278J661975j257101a686631
3252a252538K47391m53658n18792R64665J35155B74751J609985A89356a199786
3242F32501e37080a59898E06541J031458K563209j023048E34948F9840O04391
3233F74231l02569f49279j518125k121F0814f59425j711436P39154A088390K126155
3223C214545J768144R64424l33518j489712B18727J88626J238744N01677l33304
3214A814470m342o51540D10959J94307O63444K414598k58525r39935K01068J546139
3204D232055R79600L22913J43036k171417K27494k53230J431613M61652B191454
3194a278464L03144I13006j29687b489708j727559q15976l55752Q93475b207403
3184b469499o34283p42168o80312j36961J219215J065779J148742b33901A246279
3174C274255k9849j373036M39752Q07866k29253j035538a209035k484484J534626
3165b158893A331901D46273c15618p13817A64404o105J451230J010338m32387
3156B187480d34075j43228C57886a385246j474257h69308r65104p2192e86757
3146a11723l38290m71807j86069K34050D65578J433541K869650P37380k287483
3137C218666A265814K50776M45698l5901A64875N51081J237759Q04629J002564
3128C760908P21875j314221j263894K028194O11095H06097d44507I90976P35990
3119A726966h11771k010106e29954B233608R08500I31693e285013j054502j58171
3110f497686J115559J849230o28001J721461d3776F92340R29599m21948M72340
3101A672331L15078K07173K0332L95313A245806c219226a230173K58345j414623
3092b386451O39733d08346A883638K3660a815779l8023h24217j405596k578626
3083d808439n96861q78141J855445a198041A67338P13663L12245K13457K83067
3074A689770B92465o6139p4816M42089G9061K394081K188576q12206j754511B69309
3063g56495j153171Q29240A515119k61036a97137j625526q26500I76091K915271
3054C891362R84259K16355L2682B042405a52833B036307K344635j83646E68422
3044b02566E86064e33910j975017j600315k33250a481552A459657C29668d84359
3034i77727o14556E70020J553862G35398J34178O9781R33400L68406K56083E57879
3023a700109o69740J86101m94544J324812J51701J31981j148118j320834J350226
3014b188524j728341J438524E14005N29780Q96493F44452P93676m65389c008429
3004b886337f68250C908329K272772j828463I69564Q72682L384706M5810k066834
2995C205928A374843Q55238C95287a216234l0350o8670j653349J52571Q00788
2986b015244R33764o32496j51972k458854l39068K210072f67096b4419k859268
2977b883687J421069I14761J48935g52209k352421O38439d87023B26908O35332
2968H62240a052395j883612o50653a152221F37055J945515L47608l51830K56996
2959B835344a077105k093518M96335a289735I75801M4285O01681l23489P72204
2950B070482m2057b6831k21928B244430O68744r1217L47190m27180d93006q96764
2940a389770c47332A871954O60054m13335L59440J159544j049477e20440a86546
2930A896228K481714A365806a990196L85927p76869L30457E55661J565925E23738
2920c32889G43193K37272J085519r5337a41672A143846J609539N09141N68382
2911C830908C13775a810004d70226A005046M04090J512527J669834j49657n99241
2902C842599G62340b028718C35664j42957a302856p36617p05381K45270j936135
2893d435719p87086R15092a154399A016715J67321b67314G63077K057265J074294
2884C894636J956424R47442j264862j490640j257371A34505d75002A32159K147863
2875B280022p12128b90323j722667d5964H16556k91177Q92427K063013K21814
2866C702633j783698C25032f90548K85364I88994J666685L7696k42062o23511
2857A827802f46961A385242O60010J74719p80603a25785j617487L77144c63633
2847b174622M80348l93817k407798j928248K842002J315280m76572N90715d66641
2837A91288C3227P59847J45459C95312P26364a44043A641874J420122p43820o67039
2827A651137E471b428055K74569O55669j294278J15757i54913A85598L4260M66206
2817F86064K84027J42935Q22379h9627k233637N03447m76053p08037a245117G01803
2806A076547J519774J588047J46791j605603L36088J94816b50713l086672j049040
2797d386425J603426M01124k235697N176b250143B52350j25323K51694J504727
2788A883448C29517E6554J049100R24147J213868A011844b590773k731467p16132
2779f038372P84857J290794o76670j71703a650042a47375A48254d14705j465708
2770a880413e56328H25080B14615Q87528G8894a075999m4946A368148J649058
2761C017206K731044J149109j209397k238179j304740J258036j19313J205281
2753D489047q6135R49471j220511a00329o22902o53362l75260B229127K465771
2744D694898j456490j300743o44173j57095k0432K637J324847j161911J39177
2735A420715b073r48963J95346r14447i7352j103844j730702r77268J342877Q67593
2725a698696Q43634H66310k05214A60563a958095j459669J187306e09627K48788
2716b60839I39607A52705a364065k83051j700357j6155J105190K13380P16857
2707a328201j434947J260502c21693F20605b30955o23982K47439k166007p05762
2698c479267h92893B017400F46860a335871j554695J400564b81907C73003i12229
2688c346256a052050j71053l09035C073592L350023j486948j779199a340606k177464
2679c518070R57920B41756N27502O3520J188610n60092R058J13050J035246M92141
2669C110791N91915N68470A937430f31051r26067A205803K5194B72278r6920K163315
2659B338673o80754m38255k78968a120941b98335N9506m39381H41575j72692a734065
2648c446581O63391J154778f36027b1783j5375A105519K156342r01563o43336
2639A716962o01685g27985k84848m03161K72959n84293A110485J443981h77238
2629b780955g99550K72114j223950h29077J08704k59677n87501d24119j116807
2620a540926a24202A994331J50711r58570J702795J732209j826443K20927j041582
2611A974378E07467Q30941O59237o62943e19758j782973k94235H5651N4005a280170
2600c366600r45827a574897C65184A36066b017160K52269D79232Q27014c04255
2590F20108J664474j41766Q72292m29019E24447J559378L764823L317202j101306
2581H064544n48975l409597j517638p63611C49696f54631b25388j778702l88553
2572b392643P70031f56310q90735j069166j762112j780621N97007P30589o64264
2563e495612K596129a143047q31948d86988F95965A88475J19903J17520J269703
2554A695601L8339K548549L17236j495336p36708L52931r07736L62696L57099
2545B532671P50646o93675r15279p0898M07257J176656m66685K343383k453408
2536B610668a161162K86355D018876K485981q13279k726177G94741J973863K214465
2527D983069k408849m20853q30516k03707e75819j186805K20356j110488k709766
2518e362522o2615K399138L99691P36219j313487P81229a073123g1713j091065
2509a162778d81917a73343r13795M53774l6037B071070J050431j191136c85287
2499c796966j308681J566703J406884A504883p33628j83176K40214l21175e35596
2489h28048j687870j151412M62437P12095j208474J170783G60124K770J537238
2480B300132A109891d99453h3575A050247K47009M28986J203431r33152e54662
2470a755433G92690K37228b92224I58884N35436j54365D20051b958484k209611
2461e168095J125611a832652i16288l84864p19469j754039J415977a7936A281881
2451B734496P62020L78909A421586E60510q1225f28836J75571A91591L12378L15065
2441H19034d17992k394870J262229n79008r65781l54854a566829N63757q55723
2432a858795k9162o8311j607587n53099N65082J744229L90579j084253R943A00444
2421B330254r37725D54167J318327q5148j60472b65949k92066o06987o22803k50368
2411b038173N38860f96474j155673J82539j47967O97326A22461d86706r098l93358
2401h89162H71254k22784b270246j333973J069909a171262j327887j024587L13812
2392c209924J028124E2251P40670J74788a74979m86639r09094g20176L45639r55505
2382a330042l55426B38027j6909i43488B089796N93098A03766N88770j58863a119312
2371E1670L91055b165695j369788J311336f8421p42459J09801q44556l24615k012852
2361c883102J418540j127965K25485J403188J21727J6978k41834e96995J69448
2352d27547c3780o30132j387100n78992O52005O42367j216038K86377f13414b28240
2341B00580K635402J853047o22595n45174j252664p17181F45708K322245k1077
2332B946876A408337C71279a758862o40313a039673n76265j222124Q93498k399101
2323d343665j35686J806794K40823j58998e94511n25170k039598O60889g95990
2313d39564H36365P02229N67405q17992a105143j759875Q37920Q92608a33863
2303A597646F88885M45789O40899F74503j35131J429155J97017P19994q03515
2294B082023D38916c70000j040137a97473B098173J350730R95111j127504G62369
2284d62476E14489Q66911j6754J842204N5467j413799B02569a764372j270671
2275c035043j552934O38285J490877a066715A096615J854160E10991g88019E51281
2265A163702N17783c6956k99078A974576M61578o92864j04020K2770N97964b6576
2254i26060J07422j782110n593a182756o91285B43753J777433F32395e076G01349
2243A221514j24053m54018a466122j800051h18225k42923j706509g58761D8066
2233I40227N99529o28615b577391l149781b720938N65480n12195j699538l91846
2224d759037a361744d17407k323022m83884h89867j26468c78648A543643L2867
2215A576510n09301O8566i70406j797262a342307f55679K12401q76128J97597
2206a121809r39946j289369a56361B865701j222570B49193i9920A145365l8254
2197A107111b79804j558388P28387a42879q2671A953089L440133j076317A207151
2187B733698P57477r83489e82174l54929C017033J478355l91224j020346q72567
2178B211251C94561b056951k476213K2847K135693L51778j84873F21244J267613
2169A888857I7995a432733r57273j56816b09570A392217J808233j567270e94731
2159b980330r28580a242548A143174O64214H87590R14707D56247O06664J822670
2150B885581j213400k76931F90405j30152r1528b56057m24613F81357M84227J005285
2140B170869Q24936A120023e25359H1998i05206L54213A204440N44244k96725
2131A451959K216820J907194A951109n19859P6756B86726a287269j265683j079219
2122c632171j442009J127696J622500n51864J93133m22420M05074N39409j250076
2113c410728n83427l08158J869253i13926B56194J657048h63407j902275k3030
2104b788712q59860J87882N12112a399434F50143L271564J07911p51097p48882
2095B529639e50613k677012r22915R54876a354597A076108J134720R07490K820050
2086E938368j454118B036436J428073A673358d019408R28626B25871J936353J376900
2077C539124j057090f16787b85235A102545c3231k505044j090118R62080J259789
2068a406524a4137C29258a364346G74756K672719P69456A265465c58032K4633
2059c33399D97106p0080J278810N99217L77756H22042f72120a34206I0422c04285
2048a678839m87992R573P11020n81557O92098A37482j2585D643a97499l403860
2038c601359M67426F26734j43805a623363A752229K960635j165736m05177r66213
2029B175738q14594C29118h56435j045795Q84002A69734J972539r39867J60101
2020A362507J293231m74652A082935g54692j743076j42949L61921O35050b48991
2010G09735e0424G91707j95963j86612a938613p54257a239750l1815l334091j975269
2000f580925J674755g53443O624N380k15744j079471a34449F08414J03764K47274
1990I59452N70750J53461J273868P05623r78698j234168N21138n92096n8714J254621
1980B575237K57495j059489J224502j356058h63381q09945b67586E16259J007649
1971A523908J415411j026397E49009H8177i0465A23786h30232j114677o96658
1962b641567h22145C66869M44673J84855B7651J450769J022719O3213l46370q57797
1952A360185d61810A502603N27548C99539a22896B44015l7832a016448j019821
1943b036269P58687b26961E22920J031640M48696A67879a750482n29147K23416
1934b056213A734730N00095P35169J881174m35605A981711c52384A235374M063292
1925E298666m42178A609906b019587o75042J195639K99852j497776A97677K025287
1916B222964o93108b4779j85821a3863C13584q6263K92366P98517E75939A77582
1905e13535p8996F31579b000158j444346J564092l3204A287482R22999G3953e8244
1894A076486L09594o08420f1726D24127L65707J283000M35822J5422J54567n24144
1884B154501p49318J848966J141951j873346j120533n30738H5366c22949P1147
1875b51802j023632H70793P82000d38352B85870e1234A9737L08351a83061G59823
1864E15168d87534A929127J368665p49270K04420A366573b366787o92499J085956
1855a973330Q09861C89224J028237J15225K05598D89586a287432k938117k944056
1846g169605L548897f12940M8545j758245k379578p67918O1932o37321p07883
1837f753408J125499b327571j01648M53365B350971j44175C65233b601811p62738
1828c364549f30587A385208R6232D99946a526082K95379h0233F04029N4108a016177
1817b943802k619443K460593C41753J786507J115267j168975j0166D59392b59543
1807a163644p38681K75058j632614Q65461g44001c264k262117j180698J249369
1798b196710g84300q68197h16646A391548C95424a543529d77759B91052a222637
1788a3872G43487l22565P58708N81946r7163J296030j285726D29777a475574l34615
1778a810189j12156K63120K61520e60119J7774j873441e86485B84406a30679l8293
1768a68972o53291b73202C57264a947907o77888R34365n2915L70954e04692F72906
1757A191297E06459a65203I18686L70753o43054a63284q3928A015259K16131a078878
1746a787243F51332J299271q65286J3367a193437j687460O73700R10354A524166
1736B446382l52622N31216J27142m71032H43118C23936M40597b436663j7332a052535
1725b460932J99648g41884A983152K37186o85257i21612h0913k08833C31369e55732
1714i99941e3605j887495H63343K751674p27880N81682j133831l27415r71681
1705A035892L52701P50808D28717a814678M25847B489481Q03783q92876F34799
1695E83547B34098e3556j197098b3441p08152j319094B41676J662478p84003A71489
1684A975706O00734a48172r78746B21238o0797L49006c20991D56921O19607a90261
1673b467119j20818P43232J54301L23431L19811k192116O18083a098352A573955
1663C020800j097981a71473j555990A21405a34709o72061c11330a43735A275269
1653B625848j064985a312338k191774k96007J254612i95113J85134q19223e68092
1643D93023j79639d39250m2119f4476H16647L2583A87242a997525n90525P37703
1633a850347E41792j77011q5281J460190D12297a809679k3087R07178k013874
1624b939462B66737J2004K39082J029930i97506n56097M33156j313042j134811
1615c568300J495031B8082K61632J203808J038452A159921a711697N60457j15370
1606a266610a08422A963336N51941J157890J38126O32727p08025A109494P58547
1597A868041q93744N96127J514594J793134J38452k075921l71239K573959J906531
1588G049934k648866B104205M89581G67575A14772a333158O21023c23284j144060
1579a467344o83162Q51782d11987A019761J246496I13369a884283l25876a35642
1569a523378l493491L46347a896638f39195J24562m35540A003154N39978J840984
1560C384116K329755K243027k039553k783042O05793J022777m22273j429042E98243
1550a853442n60725N32954h15044A619331O70766M06764J123874l69292R60287
1541D411730r38806K3054L73255A866315J07454l7625b598284d27090B224321
1531B851112j176848g12535j068541C95691J242473P05737m50943B1784f34806
1521f72614j69067a84212n0206A561612L056096p28086j254996F01706a987820
1511c241727e91307J16035k84538E85407b43476C99478j83493L38196h84287m90526
1501a374813A229178J105373D31426a240617j68970c18660F59744J179615h68988
1491a609879B56755J071324M43031P27903o93788e53065b45636J1554j240582
1482a474664j884289Q4693f70222A714940K288237R31348j960659a535585l98654
1473a934239A179937o7262M8361r5322J10555J826193m87535j21060F49202J507198
1463B156400r30303a648837e51847A756672F04097a581187o52762d34043A487026
1453F02164P11743M45916J17273G42746l51758K07369J002739O49292l73980J672254
1443C548662J97996o67504j513613o66886M01972J113187J774413K915923o08654
1434F495496j677830B151995a13386n71006A252440J629311r87446b43023l14345
1425e57368E58082L89268q7241K30271Q75301B33536c15365B526514R10250G72360
1414I14405a22096C0890M10902c378994j930409K324783d6874A474883b174835
1404b593338a165045G01845K290597j306917p25953F4383a299395I10541N3961
1395I64502l53554J281396l08072a12600A622871k80129l22532m96423O58125
1386A181912D91073a046068b08915B09682N7625a499060o94618i64269A098173
1376C316583p6111j210726R7966o61642L83885Q34174n31710b96080j850987H66422
1365I93465O67718e16902k528268l251536J758L103381J560231l24493k035808
1356c991637j155506r96383K177072I72423J056389g8933m77442B140225j009045
1347A131180J328761J071316O38325j390724j279066o03685l26374J34695R32852
1338A637280P8640G63176K29219J890008N5072n69996p98271i45236p72588b83856
1327a004851J67679A318717L427720O78641B642728p96120K03288J668763N87660
1318D306319n06178l27139j183321G3265a070389G47826K542799Q18406m86861
1309C622170j338604k10292G49030J612098q16804a184723r86576f91193D67696
1299a334133k470791j34855j202149K141244a16696j193084K82299k30282l378861
1290d636624J069171e78778b28838A40505J104527R88702P73346r77283J515919
1281C545716Q50790j875017j020790Q86335J003740q97467G39973R23698B20712
1271c075907l65497J272654L32591e11879C65208A71771Q5691J58353J493418
1262A909233K129514A574304g0048b2935A022569J275763J215887j668904F24800
1252I05766J085757O16037O857k08825o92307M09905p17760J273882J891618j541489
1242C029441o17301M33327l77168J88658A237261a219384k42323N79816D01254
1232F94974k05153J638628k70102D02429b58877A20124J016421D59309C1052h6222
1221b372588m79655J054381f57506A447727p15347B70993J8144J435030e15740
1211a208680H58374j32980K97573J837522A340427h94243K18349A374817Q69572
1202B244389J809982J33030m88916j345872e97906j754362o86561J023111G99126
1192B276226O63237R55382L7504j281810D5848b334433M30314d00341p18921j522622
1182b641884J47746m76051h44156B193401P0409h65826k404158L52096h86874
1172C08832d62136F3323J442242J262991j00944k42761k85679r49315L17744J231685
1162B739286K367266O16449j076553j030020K549652j463906A905251H42698b84495
1152B174311J48454i39462R4445E98655i7545F33670J674647K89319d76825K33083
1142b43742m73422k609364Q57504K14038E01464R88976k54615K93371A82870h0788
1131h00841j550563i55638B151327J916868A305227g13012j062696c59212C86539
1121a077580d27582m8569k75745j96192c05921A01274J44802Q56503K64551a46001
1110F34807B51802a543037p03587j046156a104673A363677Q17929N14696A43363
1100a917143o04515Q55368c02976j359242j094534n03188R23204A201023J440451
1091B641474J434745j192684I63131J170496L056833J476638j874565q44284A648519
1081F64296J129166K4390A62560J491216J65702c63360k05682j045086e84753
1071E39158b78946p60113o33827M84449e58058D60333J807407J122186j387975
1062B001951L64421M048161J488086C239416A227750D32746a502516P07709A013685
1052I25221a167942j853667j180085M82417N52952f8523F82873h84368n31352
1043a415720j59013F94758A79998f52992k513615j148534a685402L78062p2207
1034a379547o38290d40058A619496J048536j165824J477505J986648p6964J082589
1025E971986l42394r70022B229011F20642J60494J980254J905218j575999D65057
1015D39741J214640J391094P69915J88523G9873b332314O44611O59527A13459
1005A750275D27080K40583O66863R58323M25711j008426L016308R38022B608795
995C30817b25526j48810k824310j25213E04498J414515k66054a715158l369499
986e084657O36710L89976N08189l07656Q61851A239549K508661K241000j212311
977D776899p05215l46624P46482j658977A339993J487989j3139J517306J494535
968E826684j771372A596176b55299q7474A891932L409091J612917j67596l243144
959C503200a63406r07559A146097O52377l35235L01135c37597B1622a53206B22268
948A038406D8583J103081K52034m47361K174786K118313o45518p76911j109927
939B717080H7613N6835J104034h43691D48107M83236a391728p91589c38984A195812
928a706739k34002M47275j791181L67664L58532j641502J714598a048520o63444
919a711964M00366M42685i3793j011282k982356O35779a473349G2550K448307
910B520857o34093G21451R67018N41325r89182J40110j0522N96010R60129J20744
900C047083A480074b87975A19056l4169a684507c94645A658993G05097k63163
891D41934M98955N27112m89309j27473J477131J028068j431998b55740l61815
882f17555r34886B40179O06296h36641J24223A370951j73148B71149K69788a91971
871C05120O29780J857938j339475n10063L07837P72564O77667n86451C2838L39022
861C71860p6368a819252q3577h32153j565042N97211A312074R16037k68497l00112
851A659502l46500P02921H68501a65552j6381K1305C077708K618540r74786F59409
840g89678F67574J922051L2935O2660Q67556j626924q57878J431552p1470Q45652
830C273708P42574m67449j484933A1975a236186p12460N34817B4679a069873j04629
820a174502G58074L25070D51107P95746b4682k244820k148452d67811C497894
810B101647f7273A076869L253191J243194j197935Q14916J887046n14356l058964
801C503961j402910C10886I2290J446941i46354k595367g45881A875059L29311
792B204370R0328q25567L2332J082812K238202p58385I10307J62440J384557K186207
782D643511k274537A025564M51737l06151b05438j344368A173437K11122d32645
772h37162K74114k497242K84631L56992b30452I44213C29810e71221o55516l45163
762a571900M5944P39113K41614p40027L15233E75440a110561k181075a608342
752B03212J159124P94496k0112K26427j028365l61852K174995M7685H40742J340053
742B180795o50474J200883J063963j442773r10053J740793j90385j131520D81073
732a378239m78069K95755O09977K62820L21067A23091O99833Q88310M31415j70304
722A972345h83403a35008n53279K85842c9728j037142j846809Q26682k532092
713d629089l08531d82997B822175m91215B25186a13344A592088J838058O96259
704D126405J28533j161487C47122c67248p65852k185202k3413O22897d93441m90432
694i83873j369470M71687f99300H46650K062970J71032A265345m7011K283943
685C502277P82574J12772l30232J94239O91417j190131j105322m28599l15376
676A913619l21955a509650B86576J397004n45707A39261o8656J507666A65787
666b113488J037810C03801Q10897J220946j129157N62733p25639f93132a06858
656a460965L61325M99770n4390q56918p80938k52088i05982A475516L88501D8389
645c65968l79755k127894a370855A397992R09047r22543n79258i26945j292083
636b219028d8439B728478m74586N11709J555039J434336n39927r53827j687561
627B573661E65293J354594J299657A279997f31597B26667L90471b19253n60929
618g80182j444761a029984B484304J093766J120452j147316c6606r57857L04149
609f90314b62995A183499E24373a884228m68740K53525L16653K03075E25367J781124
599B306491J972701m30188A467956L01083G90354k15072K61391h06944L39821
590d67123j533322Q18351F14853O40072J089066n94623n33859P20808H38331K98400
580A136731l06407R06047J243966n06364o35932o5017O73080H08580g61175J21249
570f39926A002958K24208E860e00549Q7117B54542J647599J153092J20250J114707
560D290190B082892E79960N6934K151805A373372c19574j655613j03036i9168
550E86527c79389p09423O1724j992995J16123f04209A466085K527872j570104
541B423853D10272A6143J244820O40910n78224a10130j289518p28014j68268b40286
530A831068q06762h66013j020700N70769L18989o74769e21318J16955r31524R7889
520a237998M51580j348914M48015B4429b13795j36636A211807j70984I7679K30995
510C28674J192367J220111H59172d25455A496734J362292P44479j101242B80346
500g21685b80199I98963P51468K65796p37564n68208L63959Q6579K35168M87240
490A883401C37651a186815j25328k3826N31490A308985n50796J58336J152353
481B068878N90858K51570m54118J654610Q366j014336k22455j018798P35719J883981
471D484275N19322J075867j493836B181162A015831k69579J57479I5664J87141
462B82805R82031A77363a508842n62431A00578J900180L11900A064010a255789
452h34162p64147A23380K219696k37917j031388a2095D79724J864890l18520k162
442B023932o45511a63164j950044Q6796M49709c37081A620480p64596c40281J34000
432b06281A4832Q47658l45928a367968o8285q09444j32995e83507E83995L10149
422H94144C57987b624192j13803J294594I95254R53039J986917J859372m01551
413E393031m35459k99372A459988a469900j226407a100771D03812K87978d1181
403G09423l01239A32876b56993G57748K80008g76349B2815J450110Q83876Q68228
393C225029l20495r71412p55282J209089l86433p12120M97366P90758k35878m16993
383A923629m910J132951m5120G80221a309985b80979A226228b16225m62496J67991
373e10730o47444E480J037594J312450j85696D55582a599902j063926M38569M97908
363a727351P31364A184178J576872J461309q86659m94534P72849M17211A625466
353d97129Q4671A80382K522714M78678m70674E80477K97812Q03557C13761f21870
342a232016e87892i7921C20830L59706K35126k0329N23552C01509L0354J384686
332A716549j08579m41625C78076A08412J363898D89067a122902o68570H484K171800
322B180284Q35654K290929j601612I67828D19566p8899h5597G5610J159594Q68558
312B103762p45179j59323l33500M88483m33750a053628n34275n69581N73154f11184
301A009286p6125R47291L20336Q95050K008513m06581B316758J49093J34577F82052
290C33104P73120j09825L23376L69622k7021G99358L85378J955083O31782j494639
280B276962I89627c68095j007185K3812J50906b62773A410079n83940o3774P67530
270A529895J123021j072080E74874B01505J537904O94929J02572j200947K25832
261A561795Q00649M20662l73393l93715J522231J578410J268622k401801r62284
252C021176n11767G07853c59181E29310K105884J082156j816691m50523J742990
243C193126Q47152n83757j352166A023434m0474J016308q1791I24270b92144p65957
233a058101p41349O27773d71850j603335j341649a666688f10131A126505O94287
224A820792J789915l05346A031193i75133A82489J235946b66086j470329K82280
215a454135d39148G54080L05889Q82649J620597P98772L01411J28481O9917j744844
205C116952e2946A73534R43119B15764g68133j437909k30486M55525j799591j88961
195c969555L76788J365988J58926O34165d73687A265663a35863l43212k36786
186g15861L0684l04731J64795j531287a028158A87924b46257p60016q52362Q00317
176a058318D82027J338123o44294j35446N11996m06000k10516J610297m24997
167B121190r50481l78979L48985n63746d94724A117649K19653e9340j543099n15572
157b118011h99388M5336k48896F64938A34112b90408A713094m15463n27860B85467
146b37822A546856n68072D29069M10225E2555J10024M30278a303251k49017g35850
135i22763g0691q68378l816911j007530b705943f38161A04687p503K37714J970601
125B305499R7697D35810a443437M59836p66490O96028d91676l47556c90751j94678
115e85429q42839e76448a03464n53831a30094A063212J359462J006231j260741
106B168164g69477o70618M15129J01527b91873A081093J502236j19759m88068
97A975502K8055N76862o31327e04429j934882N38906C35921J109622n38024j60978
87G46541L03906R37387R9486p95948J186390N37161j192910K32705H60359C41525
76B475750L30261J924699O12093j633605o48984p6304j120125L43367j043331
67A163821d94899j292369J9541P40799A988608J148779O67044J508558j665186
58C647803A171813E25630a875337h99407F54004O49679J226552k7534o90542A23470
47a678979n87400J085772E84307P01642J401235K7005A320244c03074q7393F93891
36a485935j234521R49380b29242I5986K49033J654725r69493m77442a66675H11451
25B079336q75665P7223Q421j14902J270726O49071k58269j93507o2105j19317
15B461012l78657p2130H53775k6697J17297M20438l43403M40248R79218B75169
4i15443L95375B06252J241610J098470
0B546332
##END=
