##TITLE=1H-NMR: A_Laurent_190525 11/1 Sample 2 in d2o, 298 K
##JCAMPDX= 6.0         $$ Bruker NMR JCAMP-DX V2.0
##DATA TYPE= NMR SPECTRUM
##DATA CLASS= XYDATA
##ORIGIN= Bruker BioSpin GmbH
##OWNER= aci
##LONG DATE= 2025/05/19 11:40:43+0000
$$ TopSpin 5.0.0
$$ 2026-09-17 13:14:49.128 +0200  matthias@Matthiass-MacBook-Pro.local
$$ Compression mode = diff/dup
##.OBSERVE FREQUENCY= 500.25356276
##.OBSERVE NUCLEUS= ^1H
##.ACQUISITION MODE= SIMULTANEOUS (DQD)
##.ACQUISITION SCHEME= undefined
##.AVERAGES= 4
##.DIGITISER RES= 22
##SPECTROMETER/DATA SYSTEM= spect
##.PULSE SEQUENCE= zg30
##.SOLVENT NAME= D2O
##.SHIFT REFERENCE= INTERNAL, D2O, 1, 15.13078
##AUDIT TRAIL= $$ (NUMBER, WHEN, WHO, WHERE, PROCESS, VERSION, WHAT)
$$ ##TITLE= Audit trail, TopSpin 3.5 pl 7
$$ ##JCAMPDX= 5.01
$$ ##ORIGIN= Bruker BioSpin GmbH
$$ ##OWNER= aci
$$ $$ /opt/topspin3.2/data/aci/nmr/A_Laurent_190525/11/pdata/1/auditp.txt
$$ ##AUDIT TRAIL=  $$ (NUMBER, WHEN, WHO, WHERE, PROCESS, VERSION, WHAT)
(   1,<2025-05-19 13:40:43.465 +0200>,<aci>,<chem-nmr500>,<go4>,<TopSpin 3.5.7>,
      <created by zg
	started at 2025-05-19 13:40:07.799 +0200,
	POWCHK enabled, PULCHK disabled,
       configuration hash MD5:
       31 97 3A DA F0 08 8D 37 3F DC 37 8D 19 73 88 39
       data hash MD5: 64100
       FA 7C A9 DD E9 DE 43 29 48 F8 0A 6F E4 4E 69 A9>)
(   2,<2025-05-19 13:41:35.710 +0200>,<aci>,<chem-nmr500>,<proc1d>,<TopSpin 3.5.7>,
      <Start of raw data processing
       fp FT_mod = 6 PKNL = 1 PHC0 = 29.79245 PHC1 = -29.43855 SI = 64K 
       data hash MD5: 64K
       C6 62 A2 E1 AF 82 00 E2 3A 88 E4 DE 63 0F E6 57>)
(   3,<2025-05-21 12:01:31.613 +0200>,<aci>,<chem-nmr500>,<disknew>,<TopSpin 3.5.7>,
      <processed data deleted>)
$$ $$ /Users/matthias/Documents/NMR/NMR Spectra/Data Stuff/Guvacine/11/pdata/1/auditp.txt
(   4,<2026-09-15T13:50:38.728+0200>,<matthias>,<Matthiass-MacBook-Pro.local>,<proc1d>,<TopSpin 5.0.0>,
      <Start of raw data processing
       em LB = 0.1 SI = 64K
       fid data hash MD5: 64100
       FA 7C A9 DD E9 DE 43 29 48 F8 0A 6F E4 4E 69 A9
       data hash MD5: 64K
       F7 C8 0A 3D B0 4E 75 62 AF 86 06 D2 2C AD F3 59>)
(   5,<2026-09-15T13:50:38.819+0200>,<matthias>,<Matthiass-MacBook-Pro.local>,<proc1d>,<TopSpin 5.0.0>,
      <ft FT_mod = 6 PKNL = 1 SI = 64K
       data hash MD5: 64K
       E8 FB BE C9 A0 AA 89 7F 83 BE 1C BB 11 3A C6 04>)
(   6,<2026-09-15T13:50:39.009+0200>,<matthias>,<Matthiass-MacBook-Pro.local>,<proc1d>,<TopSpin 5.0.0>,
      <apk
       data hash MD5: 64K
       C2 1B 29 4B B1 2F BB 1E 41 43 6F 38 64 28 B2 3B>)
(   7,<2026-09-15T13:50:39.098+0200>,<matthias>,<Matthiass-MacBook-Pro.local>,<proc1d>,<TopSpin 5.0.0>,
      <abs n ABSG = 5
       data hash MD5: 64K
       9E 08 A5 A7 4E 15 2D 6F 4B CD 8E BB BF 66 85 A5>)
(   8,<2026-09-17T12:51:01.740+0200>,<matthias>,<Matthiass-MacBook-Pro.local>,<cprserver>,<TopSpin 5.0.0>,
      <changed parameter F1 SR to 0>)
$$ ##END=
$$ 
$$ $$ hash MD5
$$ $$ 6C 79 E8 93 6C 6A 72 85 B3 6D C0 DE 38 CF 51 D9
##$RELAX= 
##$BRUKER FILE EXP=format.temp
$$ EDIT_PAR COMMAND FILE
$$ 
$$ DI_MODE         LONG
$$ ED_ENTRY        ACQU
$$ ORDER           FILE
$$ 
$$ 
$$ HEADER		"F2 - Acquisition Parameters"
$$ T_NAME		Date_
$$ 		TYPE	R64
$$ 		CLASS	ACQU
$$ 		SUBRANGE 0.0 50000000
$$ 		REL	"Date_=itodate(DATE)"
$$ 		INV_REL	"DATE=datetoi(Date_,DATE)"
$$ 		FORMAT	"%14.0f"
$$ 		TEXT	" "
$$ END
$$ T_NAME		Time
$$ 		TYPE	R32
$$ 		CLASS	ACQU
$$ 		SUBRANGE 0.0 1000000
$$ 		REL	"Time=itotime(DATE)"
$$ 		INV_REL	"DATE=timetoi(Time,DATE)"
$$ 		FORMAT	"%14.2f h"
$$ 		TEXT	" "
$$ END
$$ NAME		INSTRUM
$$ 		TEXT	" "
$$ END
$$ NAME		PROBHD
$$ 		FORMAT	"%14.14s"
$$ 		TEXT	" "
$$ END
$$ NAME		PULPROG
$$ 		TEXT	" "
$$ END
$$ NAME		TD
$$ 		TEXT	" "
$$ END
$$ NAME		SOLVENT
$$ 		TEXT	" "
$$ END
$$ NAME		NS
$$ 		TEXT	" "
$$ END
$$ NAME		DS
$$ 		TEXT	" "
$$ END
$$ T_NAME		SWH
$$ 		TYPE	R32
$$ 		CLASS	ACQU
$$ 		SUBRANGE 0.0 1e8
$$ 		REL	"SWH=SW*SFO1"
$$ 		INV_REL "SW=SWH/SFO1"
$$ 		UNIT	"Hz"
$$ 		FORMAT	"%14.3f Hz"
$$ 		TEXT	" "
$$ END
$$ T_NAME          FIDRES
$$                 TYPE    R32
$$                 CLASS   ACQU
$$                 SUBRANGE 0.0 100000
$$                 REL     "FIDRES=2*SW*SFO1/TD"
$$                 INV_REL "TD = nextpow(2*SW*SFO1/FIDRES)"
$$ 		UNIT	"Hz"
$$ 		FORMAT	"%14.6f Hz"
$$ 		TEXT	" "
$$ END
$$ T_NAME          AQ
$$ 		TYPE	R32
$$ 		CLASS	ACQU
$$ 		SUBRANGE 0.0 1000
$$ 		REL	"AQ=aqcalc(SW,SFO1,TD,DIGTYP)"
$$ 		INV_REL	"TD=tdcalc(SW,SFO1,1.0e6*AQ,DIGTYP)"
$$ 		UNIT	"sec"
$$ 		FORMAT	"%14.7f sec"
$$ 		TEXT	" "
$$ END
$$ NAME		RG
$$ 		TEXT	" "
$$ END
$$ T_NAME          DW
$$ 		TYPE	R32
$$ 		CLASS	ACQU
$$ 		SUBRANGE 0.0 1000000
$$ 		REL	"DW=1/(2*SW*SFO1)"
$$ 		INV_REL	"SW=1000000/(2*(0.005+DW)*SFO1)"
$$ 		UNIT	"usec"
$$ 		FORMAT	"%14.3lf usec"
$$ 		TEXT	" "
$$ END
$$ NAME		DE
$$ 		FORMAT	"%14.2f usec"
$$ 		TEXT	" "
$$ END
$$ NAME		TE
$$ 		FORMAT	"%14.1f K"
$$ 		TEXT	" "
$$ END
$$ T_NAME		D1
$$ 		TYPE	R32
$$ 		CLASS	ACQU
$$ 		SUBRANGE 0.0 1e38
$$ 		REL	"D1=D[1]"
$$ 		INV_REL	"D[1]=D1"
$$ 		UNIT	"sec"
$$ 		FORMAT	"%14.8f sec"
$$ 		TEXT	" "
$$ END
$$ NAME		TD0
$$ 		TEXT	" "
$$ END
$$ NAME		SFO1
$$ 		FORMAT	"%14.7f MHz"
$$ 		TEXT	" "
$$ END
$$ NAME		NUC1
$$ 		NONEDIT
$$ 		TEXT	" "
$$ END
$$ T_NAME		P1
$$ 		TYPE	R32
$$ 		CLASS	ACQU
$$ 		SUBRANGE 0.0 1.0e10
$$ 		REL	"P1=P[1]"
$$ 		INV_REL	"P[1]=P1"
$$ 		UNIT	"usec"
$$ 		FORMAT	"%14.2f usec"
$$ 		TEXT	" "
$$ END
$$ T_NAME		PLW1
$$ 		TYPE	R32
$$ 		CLASS	ACQU
$$ 		REL	"PLW1=PLW[1]"
$$ 		INV_REL	"PLW[1]=PLW1"
$$ 		UNIT	"W"
$$ 		FORMAT	"%14.8f W"
$$ 		TEXT	"power PLW1 "
$$ END
##$RELAX= 
##$BRUKER FILE EXP=scon2
$$ ##TITLE= Parameter file, TopSpin 3.5 pl 7
$$ ##JCAMPDX= 5.0
$$ ##DATATYPE= Parameter Values
$$ ##NPOINTS= 1	$$ modification sequence number
$$ ##ORIGIN= Bruker BioSpin GmbH
$$ ##OWNER= aci
$$ $$ 2025-05-19 13:40:07.767 +0200  aci@chem-nmr500
$$ $$ /opt/topspin3.2/data/aci/nmr/A_Laurent_190525/11/scon2
$$ $$ process /opt/topspin3.5pl7/prog/mod/go4
$$ ##$BLKTR= (0..19)
$$ 3 3 3 3 3 3 3 3 3 3 3 3 3 3 3 3 3 3 3 3
$$ ##$DE1= 4.5
$$ ##$DEADC= 0.5
$$ ##$DEPA= 4.5
$$ ##$DERX= 1.5
$$ ##$FILCOR= 0
$$ ##$GRADCHAN= 0
$$ ##$GRADPRE= (0..1)
$$ 10 10
$$ ##$HD_BLKTR= (0..19)
$$ 1 1 1 1 1 1 1 1 1 1 1 1 1 1 1 1 1 1 1 1
$$ ##$HD_DE1= 5
$$ ##$HD_DEADC= 0
$$ ##$HD_DEPA= 2.5
$$ ##$HD_DERX= 0
$$ ##END=
##$RELAX= 
##$BRUKER FILE EXP=acqum
$$ ##TITLE= Parameter file, TopSpin 3.5 pl 7
$$ ##JCAMPDX= 5.0
$$ ##DATATYPE= Parameter Values
$$ ##NPOINTS= 1	$$ modification sequence number
$$ ##ORIGIN= Bruker BioSpin GmbH
$$ ##OWNER= aci
$$ $$ 2025-05-19 13:19:38.023 +0200  aci@chem-nmr500
$$ $$ /opt/topspin3.2/data/aci/nmr/A_Laurent_190525/11/acqum
$$ $$ process /opt/topspin3.5pl7/prog/mod/edparproc
$$ ##$COMMENT= <>
$$ ##$ECF= 1
$$ ##$ECHOLST= (0..15)
$$ 1 1 1 1 1 1 1 1 1 1 1 1 1 1 1 1
$$ ##$ECOLLST= (0..15)
$$ 1 1 1 1 1 1 1 1 1 1 1 1 1 1 1 1
$$ ##$FLIPA= 0
$$ ##$FOV1= 0
$$ ##$FOV2= 0
$$ ##$FOV3= 0
$$ ##$FRARE= 1
$$ ##$HEADER= <>
$$ ##$INSTIT= <>
$$ ##$METHOD= <>
$$ ##$NECHOES= 1
$$ ##$NPROJEC= 1
$$ ##$NSLICES= 1
$$ ##$PATPOS= 0
$$ ##$RUNEXAM= -1
$$ ##$SDIST= 1
$$ ##$SOANGLE= 0
$$ ##$SORIENT= 0
$$ ##$SOT= <>
$$ ##$SPOS= 0
$$ ##$SPOSDIR= <>
$$ ##$STHICK= 3
$$ ##$T2DIST= 30
$$ ##$TINV= 50
$$ ##$TREC= 2700
$$ ##$TREP= 3000
$$ ##$TSCAN= 50000
$$ ##END=
##$RELAX= 
##$BRUKER FILE EXP=pulseprogram
$$ # 1 "/opt/topspin3.5pl7/exp/stan/nmr/lists/pp/zg30"
$$ ;zg30
$$ ;avance-version (12/01/11)
$$ ;1D sequence
$$ ;using 30 degree flip angle
$$ ;
$$ ;$CLASS=HighRes
$$ ;$DIM=1D
$$ ;$TYPE=
$$ ;$SUBTYPE=
$$ ;$COMMENT=
$$ ;$RECOMMEND=y
$$ 
$$ 
$$ # 1 "/opt/topspin3.5pl7/exp/stan/nmr/lists/pp/Avance.incl" 1
$$ ;Avance3.incl
$$ ;   for AV III
$$ ;
$$ ;avance-version (13/06/17)
$$ ;
$$ ;$CLASS=HighRes Incl
$$ ;$COMMENT=
$$ # 169 "/opt/topspin3.5pl7/exp/stan/nmr/lists/pp/Avance.incl"
$$ ;$Id: Avance3.incl,v 1.10.2.2 2013/08/30 09:43:33 ber Exp $
$$ # 14 "/opt/topspin3.5pl7/exp/stan/nmr/lists/pp/zg30" 2
$$ 
$$ 
$$ # 17 "/opt/topspin3.5pl7/exp/stan/nmr/lists/pp/zg30"
$$ "acqt0=-p1*0.66/3.1416"
$$ 
$$ 
$$ # 1 "mc_line 20 file /opt/topspin3.5pl7/exp/stan/nmr/lists/pp/zg30 exp. def. part of mc cmd. before ze"
$$ ; dimension 1D; AQ_mode 
$$ define delay MCWRK
$$ define delay MCREST
$$ "MCREST = 30m - 30m"
$$ "MCWRK = 0.333333*30m"
$$ 
$$     dccorr
$$ # 20 "/opt/topspin3.5pl7/exp/stan/nmr/lists/pp/zg30"
$$ 1 ze
$$ # 1 "mc_line 20 file /opt/topspin3.5pl7/exp/stan/nmr/lists/pp/zg30 exp. def. of mc cmd. after ze"
$$ # 21 "/opt/topspin3.5pl7/exp/stan/nmr/lists/pp/zg30"
$$ # 1 "mc_line 21 file /opt/topspin3.5pl7/exp/stan/nmr/lists/pp/zg30 exp. start label for mc cmd."
$$ 2 MCWRK  * 2
$$ LBLF0, MCWRK
$$   MCREST
$$ # 22 "/opt/topspin3.5pl7/exp/stan/nmr/lists/pp/zg30"
$$   d1
$$   p1*0.33 ph1
$$   go=2 ph31
$$ # 1 "mc_line 25 file /opt/topspin3.5pl7/exp/stan/nmr/lists/pp/zg30 exp. mc cmd. in line"
$$   MCWRK wr #0
$$   MCWRK zd
$$   lo to LBLF0 times td0
$$ 
$$ # 26 "/opt/topspin3.5pl7/exp/stan/nmr/lists/pp/zg30"
$$ exit
$$ # 29 "/opt/topspin3.5pl7/exp/stan/nmr/lists/pp/zg30"
$$ ph1=0 2 2 0 1 3 3 1
$$ ph31=0 2 2 0 1 3 3 1
$$ 
$$ 
$$ ;pl1 : f1 channel - power level for pulse (default)
$$ ;p1 : f1 channel -  90 degree high power pulse
$$ ;d1 : relaxation delay; 1-5 * T1
$$ ;ns: 1 * n, total number of scans: NS * TD0
$$ # 40 "/opt/topspin3.5pl7/exp/stan/nmr/lists/pp/zg30"
$$ ;$Id: zg30,v 1.12 2012/01/31 17:49:31 ber Exp $
##$RELAX= 
##$BRUKER FILE EXP=shimvalues
$$ # Mon May 19 13:40:43 2025
$$ #$$PROBEIDENTIFIER=Z800701_0081
$$ #$$PROBENAME=PA BBO 500S2 BB-H-D-05 Z
$$ #$$SHIMID=292722
$$ #
$$ # Active Shim Gradients
$$ #
$$ Z           		500             
$$ Z2          		2191            
$$ Z3          		-938            
$$ Z4          		3482            
$$ Z5          		-1243           
$$ Z6          		2909            
$$ Z7          		-973            
$$ Z8          		0               
$$ X           		1775            
$$ XZ          		-4875           
$$ XZ2         		1010            
$$ XZ3         		-6355           
$$ XZ4         		1379            
$$ XZ5         		10013           
$$ Y           		4289            
$$ YZ          		-10145          
$$ YZ2         		-4173           
$$ YZ3         		3481            
$$ YZ4         		-66             
$$ YZ5         		-12010          
$$ XY          		2927            
$$ XYZ         		-8055           
$$ XYZ2        		-6939           
$$ XYZ3        		-4244           
$$ XYZ4        		-2739           
$$ XYZ5        		0               
$$ (X2-Y2)     		11678           
$$ (X2-Y2)Z    		-10953          
$$ (X2-Y2)Z2   		1259            
$$ (X2-Y2)Z3   		6854            
$$ (X2-Y2)Z4   		1240            
$$ (X2-Y2)Z5   		0               
$$ X3          		2375            
$$ X3Z         		-6144           
$$ Y3          		4207            
$$ Y3Z         		6975            
$$ #
$$ # Lock Parameter
$$ #
$$ FIELD		5540.177
$$ LOCKPHASE		8.270   
$$ LOCKPOWER		-39.000 
$$ LOCKGAIN		118.200 
$$ LOCKDC		-75.000 
$$ LOCKSHIFT		4.700   
$$ LOOPGAIN		5.000   
$$ LOOPTIME		0.250   
$$ LOOPFILTER		500.000 
$$ #
$$ IEEE64_VERSION_CODE 1
$$ #
$$ # Shim currents 
$$ #
$$ SHIM_SETTING [1 ]  -73.69541437    
$$ SHIM_SETTING [2 ]  2091.77629557   
$$ SHIM_SETTING [3 ]  -1418.39547188  
$$ SHIM_SETTING [4 ]  -5392.30325252  
$$ SHIM_SETTING [5 ]  505.48591869    
$$ SHIM_SETTING [6 ]  2831.86903933   
$$ SHIM_SETTING [7 ]  5000.81963627   
$$ SHIM_SETTING [8 ]  9676.10328712   
$$ SHIM_SETTING [9 ]  1808.70610707   
$$ SHIM_SETTING [10]  3634.37114347   
$$ SHIM_SETTING [11]  0.00000000      
$$ SHIM_SETTING [12]  -2767.60200000  
$$ SHIM_SETTING [13]  11181.60200000  
$$ SHIM_SETTING [14]  4131.70300000   
$$ SHIM_SETTING [15]  -3694.07037452  
$$ SHIM_SETTING [16]  10597.08673552  
$$ SHIM_SETTING [17]  6000.10695149   
$$ SHIM_SETTING [18]  -6512.42167363  
$$ SHIM_SETTING [19]  6252.49241121   
$$ SHIM_SETTING [20]  -3063.30610853  
$$ SHIM_SETTING [21]  3498.87400000   
$$ SHIM_SETTING [22]  15280.36800000  
$$ SHIM_SETTING [23]  -2539.12700000  
$$ SHIM_SETTING [24]  21570.70100000  
$$ SHIM_SETTING [25]  9539.37000000   
$$ SHIM_SETTING [26]  727.49000000    
$$ SHIM_SETTING [27]  -1827.95400000  
$$ SHIM_SETTING [28]  -11505.40920943 
$$ SHIM_SETTING [29]  -5065.22500000  
$$ SHIM_SETTING [30]  7022.84400000   
$$ SHIM_SETTING [31]  -3973.73069964  
$$ SHIM_SETTING [32]  10825.77154044  
$$ SHIM_SETTING [33]  -17506.44300000 
$$ SHIM_SETTING [34]  4873.22900000   
$$ SHIM_SETTING [35]  7752.75800000   
$$ SHIM_SETTING [36]  13742.15300000  
$$ SHIM_SETTING [37]  14593.66059354  
$$ SHIM_SETTING [38]  -8098.86273504  
$$ SHIM_SETTING [39]  18073.21515760  
$$ SHIM_SETTING [40]  0.00000000      
##$RELAX= 
##$BRUKER FILE EXP=uxnmr.par
$$ ##TITLE= Parameter file, TopSpin 3.5 pl 7
$$ ##JCAMPDX= 5.0
$$ ##DATATYPE= Parameter Values
$$ ##NPOINTS= 104	$$ modification sequence number
$$ ##ORIGIN= Bruker BioSpin GmbH
$$ ##OWNER= nmrsu
$$ $$ 2025-04-09 09:16:50.742 +0200  aci@chem-nmr500
$$ $$ /opt/topspin3.5pl7/conf/instr/spect/uxnmr.par
$$ $$ process /opt/topspin3.5pl7/prog/mod/cfserverav3
$$ ##$ACB= 0
$$ ##$ACBTAT= (0..23)
$$ 0 72 88 50 50 0 0 0 0 0 0 0 0 0 0 0 0 0 0 0 0 0 0 0
$$ ##$ACBTBA= (0..23)
$$ 0 0 0 0 0 0 0 0 0 0 0 0 0 0 0 0 0 0 0 0 0 0 0 0
$$ ##$ACBTBLK= (0..23)
$$ 0 34 33 36 1 0 0 0 0 0 0 0 0 0 0 0 0 0 0 0 0 0 0 0
$$ ##$ACBTCTL= (0..23)
$$ 0 6 6 6 6 0 0 0 0 0 0 0 0 0 0 0 0 0 0 0 0 0 0 0
$$ ##$ACBTDI= (0..23)
$$ 0 -1779670023 -1779670023 -1779670023 -1779670252 0 0 0 0 0 0 0 0 0 0 0
$$ 0 0 0 0 0 0 0 0
$$ ##$ACBTDM= (0..23)
$$ 0 25 6 10 10 0 0 0 0 0 0 0 0 0 0 0 0 0 0 0 0 0 0 0
$$ ##$ACBTFHI= (0..23)
$$ 0 600 365 92 78 0 0 0 0 0 0 0 0 0 0 0 0 0 0 0 0 0 0 0
$$ ##$ACBTFL= (0..23)
$$ 0 248 248 88 8 0 0 0 0 0 0 0 0 0 0 0 0 0 0 0 0 0 0 0
$$ ##$ACBTFLO= (0..23)
$$ 0 180 6 30 76 0 0 0 0 0 0 0 0 0 0 0 0 0 0 0 0 0 0 0
$$ ##$ACBTINP= (0..23)
$$ 0 2 1 4 0 0 0 0 0 0 0 0 0 0 0 0 0 0 0 0 0 0 0 0
$$ ##$ACBTOUT= (0..23)
$$ 0 1 2 3 1 0 0 0 0 0 0 0 0 0 0 0 0 0 0 0 0 0 0 0
$$ ##$ACBTPO= (0..23)
$$ 0 100000 500000 150000 5000 0 0 0 0 0 0 0 0 0 0 0 0 0 0 0 0 0 0 0
$$ ##$ACBTPW= (0..23)
$$ 0 100 60 5 1000 0 0 0 0 0 0 0 0 0 0 0 0 0 0 0 0 0 0 0
$$ ##$ACBTSB= (0..23)
$$ 0 103 99 16 0 0 0 0 0 0 0 0 0 0 0 0 0 0 0 0 0 0 0 0
$$ ##$ACBTSDT= (0..23)
$$ 0 2 2 2 2 0 0 0 0 0 0 0 0 0 0 0 0 0 0 0 0 0 0 0
$$ ##$ACBTY= <no>
$$ ##$AMPDFLT= no
$$ ##$AQSBDCH= (0..95)
$$ 0 0 0 0 0 0 0 0 0 0 255 255 255 255 255 255 255 255 255 255 255 255 255
$$ 255 255 255 255 255 255 255 255 255 255 255 255 255 255 255 255 255 255
$$ 255 255 255 255 255 255 255 255 255 255 255 255 255 255 255 255 255 255
$$ 255 255 255 255 255 255 255 255 255 255 255 255 255 255 255 255 255 255
$$ 255 255 255 255 255 255 255 255 255 255 255 255 255 255 255 255 255 255
$$ 255
$$ ##$AQSBDHW= (0..95)
$$ 5 1 0 0 0 0 0 0 0 0 255 255 255 255 255 255 255 255 255 255 255 255 255
$$ 255 255 255 255 255 255 255 255 255 255 255 255 255 255 255 255 255 255
$$ 255 255 255 255 255 255 255 255 255 255 255 255 255 255 255 255 255 255
$$ 255 255 255 255 255 255 255 255 255 255 255 255 255 255 255 255 255 255
$$ 255 255 255 255 255 255 255 255 255 255 255 255 255 255 255 255 255 255
$$ 255
$$ ##$AQSBDID= (0..95)
$$ 82 88 83 83 83 83 86 86 66 66 255 255 255 255 255 255 255 255 255 255 255
$$ 255 255 255 255 255 255 255 255 255 255 255 255 255 255 255 255 255 255
$$ 255 255 255 255 255 255 255 255 255 255 255 255 255 255 255 255 255 255
$$ 255 255 255 255 255 255 255 255 255 255 255 255 255 255 255 255 255 255
$$ 255 255 255 255 255 255 255 255 255 255 255 255 255 255 255 255 255 255
$$ 255 255 255
$$ ##$AQSBDNO= (0..95)
$$ 1 1 1 2 3 4 1 2 1 1 255 255 255 255 255 255 255 255 255 255 255 255 255
$$ 255 255 255 255 255 255 255 255 255 255 255 255 255 255 255 255 255 255
$$ 255 255 255 255 255 255 255 255 255 255 255 255 255 255 255 255 255 255
$$ 255 255 255 255 255 255 255 255 255 255 255 255 255 255 255 255 255 255
$$ 255 255 255 255 255 255 255 255 255 255 255 255 255 255 255 255 255 255
$$ 255
$$ ##$AQSBDSL= (0..95)
$$ 2 3 4 4 5 5 13 14 255 1 255 255 255 255 255 255 255 255 255 255 255 255
$$ 255 255 255 255 255 255 255 255 255 255 255 255 255 255 255 255 255 255
$$ 255 255 255 255 255 255 255 255 255 255 255 255 255 255 255 255 255 255
$$ 255 255 255 255 255 255 255 255 255 255 255 255 255 255 255 255 255 255
$$ 255 255 255 255 255 255 255 255 255 255 255 255 255 255 255 255 255 255
$$ 255 255
$$ ##$AQSBDTY= (0..95)
$$ 67 214 50 50 50 50 147 145 216 7 255 255 255 255 255 255 255 255 255 255
$$ 255 255 255 255 255 255 255 255 255 255 255 255 255 255 255 255 255 255
$$ 255 255 255 255 255 255 255 255 255 255 255 255 255 255 255 255 255 255
$$ 255 255 255 255 255 255 255 255 255 255 255 255 255 255 255 255 255 255
$$ 255 255 255 255 255 255 255 255 255 255 255 255 255 255 255 255 255 255
$$ 255 255 255 255
$$ ##$AQSBUAD= (0..95)
$$ 16 52 36 37 38 39 160 161 32 32 255 255 255 255 255 255 255 255 255 255
$$ 255 255 255 255 255 255 255 255 255 255 255 255 255 255 255 255 255 255
$$ 255 255 255 255 255 255 255 255 255 255 255 255 255 255 255 255 255 255
$$ 255 255 255 255 255 255 255 255 255 255 255 255 255 255 255 255 255 255
$$ 255 255 255 255 255 255 255 255 255 255 255 255 255 255 255 255 255 255
$$ 255 255 255 255
$$ ##$AQSECL= (0..95)
$$ 0 2 2 2 2 2 0 1 1 255 255 255 255 255 255 255 255 255 255 255 255 255 255
$$ 255 255 255 255 255 255 255 255 255 255 255 255 255 255 255 255 255 255
$$ 255 255 255 255 255 255 255 255 255 255 255 255 255 255 255 255 255 255
$$ 255 255 255 255 255 255 255 255 255 255 255 255 255 255 255 255 255 255
$$ 255 255 255 255 255 255 255 255 255 255 255 255 255 255 255 255 255 255
$$ 255
$$ ##$AQSECLS= (0..95)
$$ 2 0 2 2 2 2 1 2 1 255 255 255 255 255 255 255 255 255 255 255 255 255 255
$$ 255 255 255 255 255 255 255 255 255 255 255 255 255 255 255 255 255 255
$$ 255 255 255 255 255 255 255 255 255 255 255 255 255 255 255 255 255 255
$$ 255 255 255 255 255 255 255 255 255 255 255 255 255 255 255 255 255 255
$$ 255 255 255 255 255 255 255 255 255 255 255 255 255 255 255 255 255 255
$$ 255
$$ ##$AQSETH1= <no>
$$ ##$AQSETH2= <no>
$$ ##$AQSSPLT= no
$$ ##$ATT19F= (0..1)
$$ 0 0
$$ ##$ATT1H= (0..1)
$$ 0 0
$$ ##$ATT3H= (0..1)
$$ 0 0
$$ ##$ATTX= (0..1)
$$ 0 0
$$ ##$ATTY= (0..1)
$$ 0 0
$$ ##$ATTZ= (0..1)
$$ 0 0
$$ ##$BACSAIR= yes
$$ ##$BACSCAP= 0
$$ ##$BACSDEL= 1
$$ ##$BACSFCM= no
$$ ##$BACSOPT= <>
$$ ##$BACSTY= <no>
$$ ##$BARPTY= <no>
$$ ##$BFREQ= 500.25
$$ ##$BGAETH= (0..9)
$$ <no> <no> <no> <no> <no> <no> <no> <no> <no> <no>
$$ ##$BIRDS= yes
$$ ##$BMPC= 0
$$ ##$BMPCTY= <no>
$$ ##$BPSUTY= <no>
$$ ##$BSMS= 2
$$ ##$BSMS19FLock= no
$$ ##$BSMSETH= <149.236.99.20>
$$ ##$BSMSTY= <no>
$$ ##$BgaChFac2= (0..7)
$$ 0 0 0 0 0 0 0 0
$$ ##$BgaChMap= (0..7)
$$ 0 0 0 0 0 0 0 0
$$ ##$BgaChMaxv= (0..7)
$$ 0 0 0 0 0 0 0 0
$$ ##$BgaChRouting= (0..63)
$$ 0 0 0 0 0 0 0 0 0 0 0 0 0 0 0 0 0 0 0 0 0 0 0 0 0 0 0 0 0 0 0 0 0 0 0 0
$$ 0 0 0 0 0 0 0 0 0 0 0 0 0 0 0 0 0 0 0 0 0 0 0 0 0 0 0 0
$$ ##$BgaChShimMap= (0..7)
$$ 0 0 0 0 0 0 0 0
$$ ##$BgaChShimMaxv= (0..7)
$$ 0 0 0 0 0 0 0 0
$$ ##$Bla01Eth= <149.236.99.254>
$$ ##$Bla01Nam= <BLAXH2H500/100/150 E 200-600MHZ>
$$ ##$Bla01PN= <W1345099>
$$ ##$Bla01SN= <0190>
$$ ##$Bla02Eth= <149.236.99.20>
$$ ##$Bla02Nam= <BSMS/2 LOCK TRANSCEIVER 500>
$$ ##$Bla02PN= <Z109889>
$$ ##$Bla02SN= <00456>
$$ ##$Bla03Eth= <no>
$$ ##$Bla03Nam= <>
$$ ##$Bla03PN= <>
$$ ##$Bla03SN= <>
$$ ##$Bla04Eth= <no>
$$ ##$Bla04Nam= <>
$$ ##$Bla04PN= <>
$$ ##$Bla04SN= <>
$$ ##$Bla05Eth= <no>
$$ ##$Bla05Nam= <>
$$ ##$Bla05PN= <>
$$ ##$Bla05SN= <>
$$ ##$Bla06Eth= <no>
$$ ##$Bla06Nam= <>
$$ ##$Bla06PN= <>
$$ ##$Bla06SN= <>
$$ ##$Bla07Eth= <no>
$$ ##$Bla07Nam= <>
$$ ##$Bla07PN= <>
$$ ##$Bla07SN= <>
$$ ##$Bla08Eth= <no>
$$ ##$Bla08Nam= <>
$$ ##$Bla08PN= <>
$$ ##$Bla08SN= <>
$$ ##$BlaEth= (0..9)
$$ <149.236.99.249> <149.236.99.20> <no> <no> <no> <no> <no> <no> <> <>
$$ ##$BlaNam= (0..9)
$$ <BLAXH2H500/100/150 E 200-600MHZ > <BSMS/2 LOCK TRANSCEIVER 500> <> <>
$$ <> <> <> <> <> <>
$$ ##$BlaPN= (0..9)
$$ <W1345099> <Z109889> <> <> <> <> <> <> <> <>
$$ ##$BlaSN= (0..9)
$$ <0187> <00456> <> <> <> <> <> <> <> <>
$$ ##$BsmsAuxEth= <no>
$$ ##$CFASMOD= (0..7)
$$ 1 1 1 1 1 1 1 1
$$ ##$CFASMUL= (0..7)
$$ 1 1 1 1 1 1 1 1
$$ ##$CNFTXDR= (0..7)
$$ 6 6 6 0 0 0 0 0
$$ ##$COMDIG2= 0
$$ ##$CPDBTY= <no>
$$ ##$CRCOTY= <no>
$$ ##$CSW1= (0..31)
$$ 2 2 2 4 0 0 0 0 0 0 0 0 0 0 0 0 0 0 0 0 0 0 0 0 0 0 0 0 0 0 0 0
$$ ##$CSW2= (0..31)
$$ 1 1 1 0 0 0 0 0 0 0 0 0 0 0 0 0 0 0 0 0 0 0 0 0 0 0 0 0 0 0 0 0
$$ ##$CSWNUM= (0..7)
$$ 4 1 0 0 0 0 0 0
$$ ##$ConsolePnSn= <>
$$ ##$CryoProAccPnSn= <>
$$ ##$Ctb1Eth= <no>
$$ ##$CubeEth= (0..7)
$$ <no> <no> <no> <no> <no> <no> <no> <no>
$$ ##$CustRegisterNo= <>
$$ ##$DATSTAT= no
$$ ##$DIGI140= (0..7)
$$ 0 0 0 0 0 0 0 0
$$ ##$DIGIB12= (0..7)
$$ 0 0 0 0 0 0 0 0
$$ ##$DIGIB16= (0..7)
$$ 0 0 0 0 0 0 0 0
$$ ##$DIGIFA= (0..7)
$$ 0 0 0 0 0 0 0 0
$$ ##$DIGIFOURIER= 0
$$ ##$DIGIHA= (0..7)
$$ 0 0 0 0 0 0 0 0
$$ ##$DIGIHAF= (0..7)
$$ 0 0 0 0 0 0 0 0
$$ ##$DIGIHRD= (0..7)
$$ 0 0 0 0 0 0 0 0
$$ ##$DIGIIA= (0..7)
$$ 0 0 0 0 0 0 0 0
$$ ##$DIGIO16= (0..7)
$$ 0 0 0 0 0 0 0 0
$$ ##$DIGISA= (0..7)
$$ 0 0 0 0 0 0 0 0
$$ ##$DIGISAF= (0..7)
$$ 0 0 0 0 0 0 0 0
$$ ##$DIGISL= (0..7)
$$ 0 0 0 0 0 0 0 0
$$ ##$DIGITYI= (0..7)
$$ 0 0 0 0 0 0 0 0
$$ ##$DIGITYP= (0..7)
$$ 0 0 0 0 0 0 0 0
$$ ##$DIGITZ= 0
$$ ##$DPPFAC= 1
$$ ##$DRMSETH= <no>
$$ ##$DRU= yes
$$ ##$DRUETH= (0..33)
$$ <no> <149.236.99.89> <no> <no> <no> <no> <no> <no> <no> <no> <no> <no>
$$ <no> <no> <no> <no> <no> <no> <no> <no> <no> <no> <no> <no> <no> <no> <no>
$$ <no> <no> <no> <no> <no> <no> <>
$$ ##$Description= <AVHD500>
$$ ##$DppType= 0
$$ ##$FCUMEM= (0..7)
$$ 16777208 16777208 16777208 0 0 0 0 0
$$ ##$FCUPAL= (0..7)
$$ 0 0 0 0 0 0 0 0
$$ ##$FGSVTY= <no>
$$ ##$FQMIX= 0
$$ ##$FUNCMOD= <>
$$ ##$FourPeriBdEth= <no>
$$ ##$FourShimBdEth= <no>
$$ ##$FourierPicsCon= no
$$ ##$GCUTYPE= 10
$$ ##$GCUTYPE2= 0
$$ ##$GPREDEL= 0
$$ ##$GPSCUTY= <no>
$$ ##$GRADRES= 5
$$ ##$GTUTY= <no>
$$ ##$GcConn= (0..1)
$$ 1 0
$$ ##$GradAmpGain= (0..7)
$$ 0 0 0 0 0 0 0 0
$$ ##$GradAmpMaxCurX= (0..7)
$$ 0 0 0 0 0 0 0 0
$$ ##$GradAmpMaxCurY= (0..7)
$$ 0 0 0 0 0 0 0 0
$$ ##$GradAmpMaxCurZ= (0..7)
$$ 9.99999904632568 0 0 0 0 0 0 0
$$ ##$GradAmpName= (0..7)
$$ <GAB in BSMS> <> <> <> <> <> <> <>
$$ ##$GradAmpPN= (0..7)
$$ <> <> <> <> <> <> <> <>
$$ ##$GradAmpSN= (0..7)
$$ <> <> <> <> <> <> <> <>
$$ ##$GradAmpType= (0..7)
$$ 2 0 0 0 0 0 0 0
$$ ##$GradPowClkCtrl= 0
$$ ##$GradPowClkTime= 0
$$ ##$GradPowImax= 0
$$ ##$GradPowType= 0
$$ ##$GradPowVmax= 0
$$ ##$HDIETH= (0..5)
$$ <> <no> <no> <no> <no> <>
$$ ##$HFAC= 3
$$ ##$HPCU= 0
$$ ##$HPCUTY= <no>
$$ ##$HPTXLP= (0..3)
$$ -1 -1 -1 -1
$$ ##$HPTXPI= (0..3)
$$ 0 0 0 0
$$ ##$HPTXPO= (0..3)
$$ 0 0 0 0
$$ ##$HPTXTY= (0..3)
$$ 0 0 0 0
$$ ##$HpprCoverType= 2
$$ ##$IF451= 0
$$ ##$IFREQ= 1
$$ ##$INJPTY= <no>
$$ ##$INTFPR= 0
$$ ##$IPSOETH= <149.236.99.253>
$$ ##$IPSOTYPE= 1
$$ ##$LDUETH= (0..0)
$$ <no>
$$ ##$LOCKCONF= <DLM>
$$ ##$LOCKTY= <no>
$$ ##$LOCSWID= 0
$$ ##$LOCSWIF= 0
$$ ##$LVDSSPLITETH= (0..5)
$$ <> <no> <no> <no> <no> <>
$$ ##$Location= <Universitaet Zuerich Irchel>
$$ ##$M2FAC= 0
$$ ##$MAS= 2
$$ ##$MASETIME= 10
$$ ##$MASITIME= 10
$$ ##$MASTY= <tty01>
$$ ##$MAS_CT= 10
$$ ##$MAS_SG= 0
$$ ##$MAS_TO= 0
$$ ##$MEMPRM= 0
$$ ##$MHFAC= 0
$$ ##$MXFAC= 0
$$ ##$MagnCoilPnSn= <>
$$ ##$MagnDewarPnSn= <>
$$ ##$MasEth= <no>
$$ ##$NAMPD= (0..17)
$$ <> <HPLNA 19F1H> <2H> <XBB19F 2HP> <> <> <> <> <> <> <> <> <> <> <> <>
$$ <> <>
$$ ##$NFCU= 3
$$ ##$NFRED= 0
$$ ##$NMRCH= 2
$$ ##$NMRMEM= 16384
$$ ##$NPSGU= 0
$$ ##$NRCU= 1
$$ ##$NROUT= 0
$$ ##$NSGU= 4
$$ ##$OrderNo= <10088890>
$$ ##$PAMPF1= (0..15)
$$ 75 56 96 64 0 0 0 0 0 0 0 0 0 0 0 0
$$ ##$PAMPF2= (0..15)
$$ 0 0 0 0 0 0 0 0 0 0 0 0 0 0 0 0
$$ ##$PAMPF3= (0..15)
$$ 0 0 0 0 0 0 0 0 0 0 0 0 0 0 0 0
$$ ##$PAMPF4= (0..15)
$$ 0 0 0 0 0 0 0 0 0 0 0 0 0 0 0 0
$$ ##$PAMPF5= (0..15)
$$ 0 0 0 0 0 0 0 0 0 0 0 0 0 0 0 0
$$ ##$PAMPF6= (0..15)
$$ 0 0 0 0 0 0 0 0 0 0 0 0 0 0 0 0
$$ ##$PAMPF7= (0..15)
$$ 0 0 0 0 0 0 0 0 0 0 0 0 0 0 0 0
$$ ##$PAMPF8= (0..15)
$$ 0 0 0 0 0 0 0 0 0 0 0 0 0 0 0 0
$$ ##$PH4= 0
$$ ##$PHF4TY= <no>
$$ ##$POWCHK= yes
$$ ##$PRAMD1= (0..7)
$$ 6 0 0 1610612736 0 0 0 0
$$ ##$PRAMD10= (0..7)
$$ 0 0 0 0 0 0 0 0
$$ ##$PRAMD11= (0..7)
$$ 0 0 0 0 0 0 0 0
$$ ##$PRAMD12= (0..7)
$$ 0 0 0 0 0 0 0 0
$$ ##$PRAMD13= (0..7)
$$ 0 0 0 0 0 0 0 0
$$ ##$PRAMD14= (0..7)
$$ 0 0 0 0 0 0 0 0
$$ ##$PRAMD15= (0..7)
$$ 0 0 0 0 0 0 0 0
$$ ##$PRAMD16= (0..7)
$$ 0 0 0 0 0 0 0 0
$$ ##$PRAMD17= (0..7)
$$ 0 0 0 0 0 0 0 0
$$ ##$PRAMD18= (0..7)
$$ 0 0 0 0 0 0 0 0
$$ ##$PRAMD19= (0..7)
$$ 0 0 0 0 0 0 0 0
$$ ##$PRAMD2= (0..7)
$$ 0 1048576 0 536870912 0 1048576 0 536870912
$$ ##$PRAMD20= (0..7)
$$ 0 0 0 0 0 0 0 0
$$ ##$PRAMD21= (0..7)
$$ 0 0 0 0 0 0 0 0
$$ ##$PRAMD3= (0..7)
$$ 2147483644 2147483647 2147483647 603979775 0 0 0 0
$$ ##$PRAMD4= (0..7)
$$ 0 0 0 0 0 0 0 0
$$ ##$PRAMD5= (0..7)
$$ 0 0 0 0 0 0 0 0
$$ ##$PRAMD6= (0..7)
$$ 0 0 0 0 0 0 0 0
$$ ##$PRAMD7= (0..7)
$$ 0 0 0 0 0 0 0 0
$$ ##$PRAMD8= (0..7)
$$ 0 0 0 0 0 0 0 0
$$ ##$PRAMD9= (0..7)
$$ 0 0 0 0 0 0 0 0
$$ ##$PRAMLED= (0..1)
$$ 0 0
$$ ##$PRAMP= (0..9)
$$ <> <tty10> <no> <no> <no> <no> <no> <no> <no> <>
$$ ##$PRAMPTP= 1
$$ ##$PREEMPTYPE= 0
$$ ##$PREPTY= <no>
$$ ##$PREREC= (0..15)
$$ 0 1 1 1 0 0 0 0 0 0 0 0 0 0 0 0
$$ ##$PRESHLD= 0
$$ ##$PTS160= -1
$$ ##$PTSA2X= (0..7)
$$ 0 0 0 0 0 0 0 0
$$ ##$PTSF2X= (0..7)
$$ 0 0 0 0 0 0 0 0
$$ ##$PTSFMX= (0..19)
$$ 649.9 649.9 649.9 649.9 0 0 0 0 0 0 0 0 0 0 0 0 0 0 0 0
$$ ##$PULCHK= no
$$ ##$PerMagATempSens= no
$$ ##$PerMagEth= <no>
$$ ##$PerMagFluxSens= no
$$ ##$PerMagMTempSens= no
$$ ##$PramDutyCycPerc= (0..15)
$$ 4 2 2 0 0 0 0 0 0 0 0 0 0 0 0 0
$$ ##$PramPeakPowerW= (0..15)
$$ 4000 500 500 0 0 0 0 0 0 0 0 0 0 0 0 0
$$ ##$PramPowerSwitch= (0..15)
$$ 0 0 0 0 0 0 0 0 0 0 0 0 0 0 0 0
$$ ##$PramPulWidthMs= (0..15)
$$ 10 0.1 0.1 0 0 0 0 0 0 0 0 0 0 0 0 0
$$ ##$PreampMod01PN= <Z103204>
$$ ##$PreampMod01SN= <00273>
$$ ##$PreampMod02PN= <Z003472>
$$ ##$PreampMod02SN= <01157>
$$ ##$PreampMod03PN= <Z102026>
$$ ##$PreampMod03SN= <00013>
$$ ##$PreampMod04PN= <>
$$ ##$PreampMod04SN= <>
$$ ##$PreampMod05PN= <>
$$ ##$PreampMod05SN= <>
$$ ##$PreampMod06PN= <>
$$ ##$PreampMod06SN= <>
$$ ##$PreampMod07PN= <>
$$ ##$PreampMod07SN= <>
$$ ##$PreampMod08PN= <>
$$ ##$PreampMod08SN= <>
$$ ##$PreampMod09PN= <>
$$ ##$PreampMod09SN= <>
$$ ##$PreampMod10PN= <>
$$ ##$PreampMod10SN= <>
$$ ##$PreampMod11PN= <>
$$ ##$PreampMod11SN= <>
$$ ##$PreampMod12PN= <>
$$ ##$PreampMod12SN= <>
$$ ##$PreampMod13PN= <>
$$ ##$PreampMod13SN= <>
$$ ##$PreampMod14PN= <>
$$ ##$PreampMod14SN= <>
$$ ##$PreampMod15PN= <>
$$ ##$PreampMod15SN= <>
$$ ##$PreampMod16PN= <>
$$ ##$PreampMod16SN= <>
$$ ##$PreampModBisDat= (0..15)
$$ 20130502 20130412 20130626 0 0 0 0 0 0 0 0 0 0 0 0 0
$$ ##$PreampModPN= (0..17)
$$ <Z103204> <Z003472> <Z102026> <> <> <> <> <> <> <> <> <> <> <> <> <> <>
$$ <>
$$ ##$PreampModSN= (0..17)
$$ <00273> <01157> <00013> <> <> <> <> <> <> <> <> <> <> <> <> <> <> <>
$$ ##$ProdigyEth= <no>
$$ ##$RCUCDS= (0..7)
$$ 0 0 0 0 0 0 0 0
$$ ##$RCUCFS= (0..7)
$$ 0 0 0 0 0 0 0 0
$$ ##$RCUCSS= (0..7)
$$ 0 0 0 0 0 0 0 0
$$ ##$RCUI2C1= (0..7)
$$ 0 0 0 0 0 0 0 0
$$ ##$RCUI2C2= (0..7)
$$ 0 0 0 0 0 0 0 0
$$ ##$RCUI2C3= (0..7)
$$ 0 0 0 0 0 0 0 0
$$ ##$RCUI2C4= (0..7)
$$ 0 0 0 0 0 0 0 0
$$ ##$RCUI2C5= (0..7)
$$ 0 0 0 0 0 0 0 0
$$ ##$RCUI2C6= (0..7)
$$ 0 0 0 0 0 0 0 0
$$ ##$RCUI2C7= (0..7)
$$ 0 0 0 0 0 0 0 0
$$ ##$RCUI2C8= (0..7)
$$ 0 0 0 0 0 0 0 0
$$ ##$RDCU= 0
$$ ##$RFSINPUT= (0..1)
$$ 0 0
$$ ##$RFSVTY= <no>
$$ ##$RGTYPE= (0..31)
$$ 9 0 0 0 0 0 0 0 0 0 0 0 0 0 0 0 0 0 0 0 0 0 0 0 0 0 0 0 0 0 0 0
$$ ##$RG_max= (0..31)
$$ 203 -1 -1 -1 -1 -1 -1 -1 -1 -1 -1 -1 -1 -1 -1 -1 -1 -1 -1 -1 -1 -1 -1 -1
$$ -1 -1 -1 -1 -1 -1 -1 -1
$$ ##$RG_min= (0..31)
$$ 0.25 -1 -1 -1 -1 -1 -1 -1 -1 -1 -1 -1 -1 -1 -1 -1 -1 -1 -1 -1 -1 -1 -1
$$ -1 -1 -1 -1 -1 -1 -1 -1 -1
$$ ##$RG_tab1= (0..255)
$$ 0.25 0.28 0.32 0.35 0.4 0.44 0.5 0.56 0.64 0.7 0.8 0.89 1 1.12 1.28 1.4
$$ 1.6 1.78 2 2.25 2.56 2.8 3.2 3.56 4 4.5 5 5.6 6.35 7.12 8 9 10 11.3 12.7
$$ 14.2 16 18 20.2 22.6 25.4 28.5 32 36 40.3 45.2 50.8 57 64 71.8 80.6 90.5
$$ 101 114 128 144 161 181 203 -1 -1 -1 -1 -1 -1 -1 -1 -1 -1 -1 -1 -1 -1 -1
$$ -1 -1 -1 -1 -1 -1 -1 -1 -1 -1 -1 -1 -1 -1 -1 -1 -1 -1 -1 -1 -1 -1 -1 -1
$$ -1 -1 -1 -1 -1 -1 -1 -1 -1 -1 -1 -1 -1 -1 -1 -1 -1 -1 -1 -1 -1 -1 -1 -1
$$ -1 -1 -1 -1 -1 -1 -1 -1 -1 -1 -1 -1 -1 -1 -1 -1 -1 -1 -1 -1 -1 -1 -1 -1
$$ -1 -1 -1 -1 -1 -1 -1 -1 -1 -1 -1 -1 -1 -1 -1 -1 -1 -1 -1 -1 -1 -1 -1 -1
$$ -1 -1 -1 -1 -1 -1 -1 -1 -1 -1 -1 -1 -1 -1 -1 -1 -1 -1 -1 -1 -1 -1 -1 -1
$$ -1 -1 -1 -1 -1 -1 -1 -1 -1 -1 -1 -1 -1 -1 -1 -1 -1 -1 -1 -1 -1 -1 -1 -1
$$ -1 -1 -1 -1 -1 -1 -1 -1 -1 -1 -1 -1 -1 -1 -1 -1 -1 -1 -1 -1 -1 -1 -1 -1
$$ -1 -1 -1 -1 -1 -1 -1 -1 -1 -1 -1 -1 -1 -1
$$ ##$RG_tab2= (0..255)
$$ -1 -1 -1 -1 -1 -1 -1 -1 -1 -1 -1 -1 -1 -1 -1 -1 -1 -1 -1 -1 -1 -1 -1 -1
$$ -1 -1 -1 -1 -1 -1 -1 -1 -1 -1 -1 -1 -1 -1 -1 -1 -1 -1 -1 -1 -1 -1 -1 -1
$$ -1 -1 -1 -1 -1 -1 -1 -1 -1 -1 -1 -1 -1 -1 -1 -1 -1 -1 -1 -1 -1 -1 -1 -1
$$ -1 -1 -1 -1 -1 -1 -1 -1 -1 -1 -1 -1 -1 -1 -1 -1 -1 -1 -1 -1 -1 -1 -1 -1
$$ -1 -1 -1 -1 -1 -1 -1 -1 -1 -1 -1 -1 -1 -1 -1 -1 -1 -1 -1 -1 -1 -1 -1 -1
$$ -1 -1 -1 -1 -1 -1 -1 -1 -1 -1 -1 -1 -1 -1 -1 -1 -1 -1 -1 -1 -1 -1 -1 -1
$$ -1 -1 -1 -1 -1 -1 -1 -1 -1 -1 -1 -1 -1 -1 -1 -1 -1 -1 -1 -1 -1 -1 -1 -1
$$ -1 -1 -1 -1 -1 -1 -1 -1 -1 -1 -1 -1 -1 -1 -1 -1 -1 -1 -1 -1 -1 -1 -1 -1
$$ -1 -1 -1 -1 -1 -1 -1 -1 -1 -1 -1 -1 -1 -1 -1 -1 -1 -1 -1 -1 -1 -1 -1 -1
$$ -1 -1 -1 -1 -1 -1 -1 -1 -1 -1 -1 -1 -1 -1 -1 -1 -1 -1 -1 -1 -1 -1 -1 -1
$$ -1 -1 -1 -1 -1 -1 -1 -1 -1 -1 -1 -1 -1 -1 -1 -1
$$ ##$RG_tab3= (0..255)
$$ -1 -1 -1 -1 -1 -1 -1 -1 -1 -1 -1 -1 -1 -1 -1 -1 -1 -1 -1 -1 -1 -1 -1 -1
$$ -1 -1 -1 -1 -1 -1 -1 -1 -1 -1 -1 -1 -1 -1 -1 -1 -1 -1 -1 -1 -1 -1 -1 -1
$$ -1 -1 -1 -1 -1 -1 -1 -1 -1 -1 -1 -1 -1 -1 -1 -1 -1 -1 -1 -1 -1 -1 -1 -1
$$ -1 -1 -1 -1 -1 -1 -1 -1 -1 -1 -1 -1 -1 -1 -1 -1 -1 -1 -1 -1 -1 -1 -1 -1
$$ -1 -1 -1 -1 -1 -1 -1 -1 -1 -1 -1 -1 -1 -1 -1 -1 -1 -1 -1 -1 -1 -1 -1 -1
$$ -1 -1 -1 -1 -1 -1 -1 -1 -1 -1 -1 -1 -1 -1 -1 -1 -1 -1 -1 -1 -1 -1 -1 -1
$$ -1 -1 -1 -1 -1 -1 -1 -1 -1 -1 -1 -1 -1 -1 -1 -1 -1 -1 -1 -1 -1 -1 -1 -1
$$ -1 -1 -1 -1 -1 -1 -1 -1 -1 -1 -1 -1 -1 -1 -1 -1 -1 -1 -1 -1 -1 -1 -1 -1
$$ -1 -1 -1 -1 -1 -1 -1 -1 -1 -1 -1 -1 -1 -1 -1 -1 -1 -1 -1 -1 -1 -1 -1 -1
$$ -1 -1 -1 -1 -1 -1 -1 -1 -1 -1 -1 -1 -1 -1 -1 -1 -1 -1 -1 -1 -1 -1 -1 -1
$$ -1 -1 -1 -1 -1 -1 -1 -1 -1 -1 -1 -1 -1 -1 -1 -1
$$ ##$RG_tab4= (0..255)
$$ -1 -1 -1 -1 -1 -1 -1 -1 -1 -1 -1 -1 -1 -1 -1 -1 -1 -1 -1 -1 -1 -1 -1 -1
$$ -1 -1 -1 -1 -1 -1 -1 -1 -1 -1 -1 -1 -1 -1 -1 -1 -1 -1 -1 -1 -1 -1 -1 -1
$$ -1 -1 -1 -1 -1 -1 -1 -1 -1 -1 -1 -1 -1 -1 -1 -1 -1 -1 -1 -1 -1 -1 -1 -1
$$ -1 -1 -1 -1 -1 -1 -1 -1 -1 -1 -1 -1 -1 -1 -1 -1 -1 -1 -1 -1 -1 -1 -1 -1
$$ -1 -1 -1 -1 -1 -1 -1 -1 -1 -1 -1 -1 -1 -1 -1 -1 -1 -1 -1 -1 -1 -1 -1 -1
$$ -1 -1 -1 -1 -1 -1 -1 -1 -1 -1 -1 -1 -1 -1 -1 -1 -1 -1 -1 -1 -1 -1 -1 -1
$$ -1 -1 -1 -1 -1 -1 -1 -1 -1 -1 -1 -1 -1 -1 -1 -1 -1 -1 -1 -1 -1 -1 -1 -1
$$ -1 -1 -1 -1 -1 -1 -1 -1 -1 -1 -1 -1 -1 -1 -1 -1 -1 -1 -1 -1 -1 -1 -1 -1
$$ -1 -1 -1 -1 -1 -1 -1 -1 -1 -1 -1 -1 -1 -1 -1 -1 -1 -1 -1 -1 -1 -1 -1 -1
$$ -1 -1 -1 -1 -1 -1 -1 -1 -1 -1 -1 -1 -1 -1 -1 -1 -1 -1 -1 -1 -1 -1 -1 -1
$$ -1 -1 -1 -1 -1 -1 -1 -1 -1 -1 -1 -1 -1 -1 -1 -1
$$ ##$RG_tab5= (0..255)
$$ -1 -1 -1 -1 -1 -1 -1 -1 -1 -1 -1 -1 -1 -1 -1 -1 -1 -1 -1 -1 -1 -1 -1 -1
$$ -1 -1 -1 -1 -1 -1 -1 -1 -1 -1 -1 -1 -1 -1 -1 -1 -1 -1 -1 -1 -1 -1 -1 -1
$$ -1 -1 -1 -1 -1 -1 -1 -1 -1 -1 -1 -1 -1 -1 -1 -1 -1 -1 -1 -1 -1 -1 -1 -1
$$ -1 -1 -1 -1 -1 -1 -1 -1 -1 -1 -1 -1 -1 -1 -1 -1 -1 -1 -1 -1 -1 -1 -1 -1
$$ -1 -1 -1 -1 -1 -1 -1 -1 -1 -1 -1 -1 -1 -1 -1 -1 -1 -1 -1 -1 -1 -1 -1 -1
$$ -1 -1 -1 -1 -1 -1 -1 -1 -1 -1 -1 -1 -1 -1 -1 -1 -1 -1 -1 -1 -1 -1 -1 -1
$$ -1 -1 -1 -1 -1 -1 -1 -1 -1 -1 -1 -1 -1 -1 -1 -1 -1 -1 -1 -1 -1 -1 -1 -1
$$ -1 -1 -1 -1 -1 -1 -1 -1 -1 -1 -1 -1 -1 -1 -1 -1 -1 -1 -1 -1 -1 -1 -1 -1
$$ -1 -1 -1 -1 -1 -1 -1 -1 -1 -1 -1 -1 -1 -1 -1 -1 -1 -1 -1 -1 -1 -1 -1 -1
$$ -1 -1 -1 -1 -1 -1 -1 -1 -1 -1 -1 -1 -1 -1 -1 -1 -1 -1 -1 -1 -1 -1 -1 -1
$$ -1 -1 -1 -1 -1 -1 -1 -1 -1 -1 -1 -1 -1 -1 -1 -1
$$ ##$RG_tab6= (0..255)
$$ -1 -1 -1 -1 -1 -1 -1 -1 -1 -1 -1 -1 -1 -1 -1 -1 -1 -1 -1 -1 -1 -1 -1 -1
$$ -1 -1 -1 -1 -1 -1 -1 -1 -1 -1 -1 -1 -1 -1 -1 -1 -1 -1 -1 -1 -1 -1 -1 -1
$$ -1 -1 -1 -1 -1 -1 -1 -1 -1 -1 -1 -1 -1 -1 -1 -1 -1 -1 -1 -1 -1 -1 -1 -1
$$ -1 -1 -1 -1 -1 -1 -1 -1 -1 -1 -1 -1 -1 -1 -1 -1 -1 -1 -1 -1 -1 -1 -1 -1
$$ -1 -1 -1 -1 -1 -1 -1 -1 -1 -1 -1 -1 -1 -1 -1 -1 -1 -1 -1 -1 -1 -1 -1 -1
$$ -1 -1 -1 -1 -1 -1 -1 -1 -1 -1 -1 -1 -1 -1 -1 -1 -1 -1 -1 -1 -1 -1 -1 -1
$$ -1 -1 -1 -1 -1 -1 -1 -1 -1 -1 -1 -1 -1 -1 -1 -1 -1 -1 -1 -1 -1 -1 -1 -1
$$ -1 -1 -1 -1 -1 -1 -1 -1 -1 -1 -1 -1 -1 -1 -1 -1 -1 -1 -1 -1 -1 -1 -1 -1
$$ -1 -1 -1 -1 -1 -1 -1 -1 -1 -1 -1 -1 -1 -1 -1 -1 -1 -1 -1 -1 -1 -1 -1 -1
$$ -1 -1 -1 -1 -1 -1 -1 -1 -1 -1 -1 -1 -1 -1 -1 -1 -1 -1 -1 -1 -1 -1 -1 -1
$$ -1 -1 -1 -1 -1 -1 -1 -1 -1 -1 -1 -1 -1 -1 -1 -1
$$ ##$RG_tab7= (0..255)
$$ -1 -1 -1 -1 -1 -1 -1 -1 -1 -1 -1 -1 -1 -1 -1 -1 -1 -1 -1 -1 -1 -1 -1 -1
$$ -1 -1 -1 -1 -1 -1 -1 -1 -1 -1 -1 -1 -1 -1 -1 -1 -1 -1 -1 -1 -1 -1 -1 -1
$$ -1 -1 -1 -1 -1 -1 -1 -1 -1 -1 -1 -1 -1 -1 -1 -1 -1 -1 -1 -1 -1 -1 -1 -1
$$ -1 -1 -1 -1 -1 -1 -1 -1 -1 -1 -1 -1 -1 -1 -1 -1 -1 -1 -1 -1 -1 -1 -1 -1
$$ -1 -1 -1 -1 -1 -1 -1 -1 -1 -1 -1 -1 -1 -1 -1 -1 -1 -1 -1 -1 -1 -1 -1 -1
$$ -1 -1 -1 -1 -1 -1 -1 -1 -1 -1 -1 -1 -1 -1 -1 -1 -1 -1 -1 -1 -1 -1 -1 -1
$$ -1 -1 -1 -1 -1 -1 -1 -1 -1 -1 -1 -1 -1 -1 -1 -1 -1 -1 -1 -1 -1 -1 -1 -1
$$ -1 -1 -1 -1 -1 -1 -1 -1 -1 -1 -1 -1 -1 -1 -1 -1 -1 -1 -1 -1 -1 -1 -1 -1
$$ -1 -1 -1 -1 -1 -1 -1 -1 -1 -1 -1 -1 -1 -1 -1 -1 -1 -1 -1 -1 -1 -1 -1 -1
$$ -1 -1 -1 -1 -1 -1 -1 -1 -1 -1 -1 -1 -1 -1 -1 -1 -1 -1 -1 -1 -1 -1 -1 -1
$$ -1 -1 -1 -1 -1 -1 -1 -1 -1 -1 -1 -1 -1 -1 -1 -1
$$ ##$RG_tab8= (0..255)
$$ -1 -1 -1 -1 -1 -1 -1 -1 -1 -1 -1 -1 -1 -1 -1 -1 -1 -1 -1 -1 -1 -1 -1 -1
$$ -1 -1 -1 -1 -1 -1 -1 -1 -1 -1 -1 -1 -1 -1 -1 -1 -1 -1 -1 -1 -1 -1 -1 -1
$$ -1 -1 -1 -1 -1 -1 -1 -1 -1 -1 -1 -1 -1 -1 -1 -1 -1 -1 -1 -1 -1 -1 -1 -1
$$ -1 -1 -1 -1 -1 -1 -1 -1 -1 -1 -1 -1 -1 -1 -1 -1 -1 -1 -1 -1 -1 -1 -1 -1
$$ -1 -1 -1 -1 -1 -1 -1 -1 -1 -1 -1 -1 -1 -1 -1 -1 -1 -1 -1 -1 -1 -1 -1 -1
$$ -1 -1 -1 -1 -1 -1 -1 -1 -1 -1 -1 -1 -1 -1 -1 -1 -1 -1 -1 -1 -1 -1 -1 -1
$$ -1 -1 -1 -1 -1 -1 -1 -1 -1 -1 -1 -1 -1 -1 -1 -1 -1 -1 -1 -1 -1 -1 -1 -1
$$ -1 -1 -1 -1 -1 -1 -1 -1 -1 -1 -1 -1 -1 -1 -1 -1 -1 -1 -1 -1 -1 -1 -1 -1
$$ -1 -1 -1 -1 -1 -1 -1 -1 -1 -1 -1 -1 -1 -1 -1 -1 -1 -1 -1 -1 -1 -1 -1 -1
$$ -1 -1 -1 -1 -1 -1 -1 -1 -1 -1 -1 -1 -1 -1 -1 -1 -1 -1 -1 -1 -1 -1 -1 -1
$$ -1 -1 -1 -1 -1 -1 -1 -1 -1 -1 -1 -1 -1 -1 -1 -1
$$ ##$RG_tabA= (0..255)
$$ 0.25 0.28 0.32 0.35 0.4 0.44 0.5 0.56 0.64 0.7 0.8 0.89 1 1.12 1.28 1.4
$$ 1.6 1.78 2 2.25 2.56 2.8 3.2 3.56 4 4.5 5 5.6 6.35 7.12 8 9 10 11.3 12.7
$$ 14.2 16 18 20.2 22.6 25.4 28.5 32 36 40.3 45.2 50.8 57 64 71.8 80.6 90.5
$$ 101 114 128 144 161 181 203 -1 -1 -1 -1 -1 -1 -1 -1 -1 -1 -1 -1 -1 -1 -1
$$ -1 -1 -1 -1 -1 -1 -1 -1 -1 -1 -1 -1 -1 -1 -1 -1 -1 -1 -1 -1 -1 -1 -1 -1
$$ -1 -1 -1 -1 -1 -1 -1 -1 -1 -1 -1 -1 -1 -1 -1 -1 -1 -1 -1 -1 -1 -1 -1 -1
$$ -1 -1 -1 -1 -1 -1 -1 -1 -1 -1 -1 -1 -1 -1 -1 -1 -1 -1 -1 -1 -1 -1 -1 -1
$$ -1 -1 -1 -1 -1 -1 -1 -1 -1 -1 -1 -1 -1 -1 -1 -1 -1 -1 -1 -1 -1 -1 -1 -1
$$ -1 -1 -1 -1 -1 -1 -1 -1 -1 -1 -1 -1 -1 -1 -1 -1 -1 -1 -1 -1 -1 -1 -1 -1
$$ -1 -1 -1 -1 -1 -1 -1 -1 -1 -1 -1 -1 -1 -1 -1 -1 -1 -1 -1 -1 -1 -1 -1 -1
$$ -1 -1 -1 -1 -1 -1 -1 -1 -1 -1 -1 -1 -1 -1 -1 -1 -1 -1 -1 -1 -1 -1 -1 -1
$$ -1 -1 -1 -1 -1 -1 -1 -1 -1 -1 -1 -1 -1 -1
$$ ##$ROBOTTY= <no>
$$ ##$ROUT14= (0..7)
$$ 0 0 0 0 0 0 0 0
$$ ##$ROUTER= -1
$$ ##$RX22TY= <no>
$$ ##$RXFMAX= (0..7)
$$ 647.5 -1 -1 -1 -1 -1 -1 -1
$$ ##$RXFMIN= (0..7)
$$ 5 -1 -1 -1 -1 -1 -1 -1
$$ ##$RXINTLV= (0..7)
$$ 1 0 0 0 0 0 0 0
$$ ##$RXMSTY= <no>
$$ ##$RockSwitchEth= <no>
$$ ##$SCMTY= <no>
$$ ##$SGUC1= (0..15)
$$ 17 20 19 0 0 0 0 0 0 0 0 0 0 0 0 0
$$ ##$SGUC2= (0..15)
$$ 0 256 18 0 0 0 0 0 0 0 0 0 0 0 0 0
$$ ##$SLCBCONF= <SHNV>
$$ ##$SPECTR= 10
$$ ##$SY2FLAG= 0
$$ ##$SYNCTRIG= 11
$$ ##$SamChgEth= (0..3)
$$ <no> <no> <no> <no>
$$ ##$ServiceNo= <>
$$ ##$Sgu1PowerLevels= (0..7)
$$ 90 74 58 42 26 10 0 0
$$ ##$Sgu2PowerLevels= (0..7)
$$ 90 74 58 42 26 10 0 0
$$ ##$Sgu3PowerLevels= (0..7)
$$ 90 74 58 42 26 10 0 0
$$ ##$Sgu4PowerLevels= (0..7)
$$ 90 74 58 42 26 10 0 0
$$ ##$Sgu5PowerLevels= (0..7)
$$ 0 0 0 0 0 0 0 0
$$ ##$Sgu6PowerLevels= (0..7)
$$ 0 0 0 0 0 0 0 0
$$ ##$Sgu7PowerLevels= (0..7)
$$ 0 0 0 0 0 0 0 0
$$ ##$Sgu8PowerLevels= (0..7)
$$ 0 0 0 0 0 0 0 0
$$ ##$SguType= 3
$$ ##$ShimMaxVal= 32760
$$ ##$ShimPow1Ch2Sh= (0..38)
$$ 0 0 0 0 0 0 0 0 0 0 0 0 0 0 0 0 0 0 0 0 0 0 0 0 0 0 0 0 0 0 0 0 0 0 0 0
$$ 0 0 0
$$ ##$ShimPow1Imax= (0..38)
$$ 0 0 0 0 0 0 0 0 0 0 0 0 0 0 0 0 0 0 0 0 0 0 0 0 0 0 0 0 0 0 0 0 0 0 0 0
$$ 0 0 0
$$ ##$ShimPow1NChan= 0
$$ ##$ShimPow1TotIMax= 0
$$ ##$ShimPow1Vmax= (0..38)
$$ 0 0 0 0 0 0 0 0 0 0 0 0 0 0 0 0 0 0 0 0 0 0 0 0 0 0 0 0 0 0 0 0 0 0 0 0
$$ 0 0 0
$$ ##$ShimPow2Ch2Sh= (0..38)
$$ 0 0 0 0 0 0 0 0 0 0 0 0 0 0 0 0 0 0 0 0 0 0 0 0 0 0 0 0 0 0 0 0 0 0 0 0
$$ 0 0 0
$$ ##$ShimPow2Imax= (0..38)
$$ 0 0 0 0 0 0 0 0 0 0 0 0 0 0 0 0 0 0 0 0 0 0 0 0 0 0 0 0 0 0 0 0 0 0 0 0
$$ 0 0 0
$$ ##$ShimPow2NChan= 0
$$ ##$ShimPow2TotIMax= 0
$$ ##$ShimPow2Vmax= (0..38)
$$ 0 0 0 0 0 0 0 0 0 0 0 0 0 0 0 0 0 0 0 0 0 0 0 0 0 0 0 0 0 0 0 0 0 0 0 0
$$ 0 0 0
$$ ##$ShimPow3Ch2Sh= (0..38)
$$ 0 0 0 0 0 0 0 0 0 0 0 0 0 0 0 0 0 0 0 0 0 0 0 0 0 0 0 0 0 0 0 0 0 0 0 0
$$ 0 0 0
$$ ##$ShimPow3Imax= (0..38)
$$ 0 0 0 0 0 0 0 0 0 0 0 0 0 0 0 0 0 0 0 0 0 0 0 0 0 0 0 0 0 0 0 0 0 0 0 0
$$ 0 0 0
$$ ##$ShimPow3NChan= 0
$$ ##$ShimPow3TotIMax= 0
$$ ##$ShimPow3Vmax= (0..38)
$$ 0 0 0 0 0 0 0 0 0 0 0 0 0 0 0 0 0 0 0 0 0 0 0 0 0 0 0 0 0 0 0 0 0 0 0 0
$$ 0 0 0
$$ ##$ShimPow4Ch2Sh= (0..38)
$$ 0 0 0 0 0 0 0 0 0 0 0 0 0 0 0 0 0 0 0 0 0 0 0 0 0 0 0 0 0 0 0 0 0 0 0 0
$$ 0 0 0
$$ ##$ShimPow4Imax= (0..38)
$$ 0 0 0 0 0 0 0 0 0 0 0 0 0 0 0 0 0 0 0 0 0 0 0 0 0 0 0 0 0 0 0 0 0 0 0 0
$$ 0 0 0
$$ ##$ShimPow4NChan= 0
$$ ##$ShimPow4TotIMax= 0
$$ ##$ShimPow4Vmax= (0..38)
$$ 0 0 0 0 0 0 0 0 0 0 0 0 0 0 0 0 0 0 0 0 0 0 0 0 0 0 0 0 0 0 0 0 0 0 0 0
$$ 0 0 0
$$ ##$ShimPowMaxUA= (0..63)
$$ 130000 130000 130000 130000 130000 130000 130000 130000 130000 130000 130000
$$ 130000 130000 130000 130000 130000 130000 130000 130000 130000 130000 130000
$$ 130000 130000 130000 130000 130000 130000 130000 130000 130000 130000 130000
$$ 130000 130000 130000 130000 130000 130000 130000 0 0 0 0 0 0 0 0 0 0 0
$$ 0 0 0 0 0 0 0 0 0 0 0 0 0
$$ ##$ShimPowMaxUC= (0..63)
$$ 130000 130000 130000 130000 130000 130000 130000 130000 130000 130000 130000
$$ 130000 130000 130000 130000 130000 130000 130000 130000 130000 130000 130000
$$ 130000 130000 130000 130000 130000 130000 130000 130000 130000 130000 130000
$$ 130000 130000 130000 130000 130000 130000 130000 0 0 0 0 0 0 0 0 0 0 0
$$ 0 0 0 0 0 0 0 0 0 0 0 0 0
$$ ##$ShimPowMaxUG= (0..63)
$$ 1000000 1000000 1000000 1000000 1000000 1000000 1000000 1000000 1000000
$$ 1000000 1000000 1000000 1000000 1000000 1000000 1000000 1000000 1000000
$$ 1000000 1000000 1000000 1000000 1000000 1000000 1000000 1000000 1000000
$$ 1000000 1000000 1000000 1000000 1000000 1000000 1000000 1000000 1000000
$$ 1000000 1000000 1000000 0 0 0 0 0 0 0 0 0 0 0 0 0 0 0 0 0 0 0 0 0 0 0 0
$$ 0
$$ ##$ShimPowNum= 0
$$ ##$ShimPowRcbType= 3
$$ ##$ShimPowRes= (0..63)
$$ 1e-20 1e-20 1e-20 1e-20 1e-20 1e-20 1e-20 1e-20 1e-20 1e-20 1e-20 1e-20
$$ 1e-20 1e-20 1e-20 1e-20 1e-20 1e-20 1e-20 1e-20 1e-20 1e-20 1e-20 1e-20
$$ 1e-20 1e-20 1e-20 1e-20 1e-20 1e-20 1e-20 1e-20 1e-20 1e-20 1e-20 1e-20
$$ 1e-20 1e-20 1e-20 1e-20 0 0 0 0 0 0 0 0 0 0 0 0 0 0 0 0 0 0 0 0 0 0 0 0
$$ ##$ShimPowRng0= (0..63)
$$ 1 1 1 1 1 1 1 1 1 1 1 1 1 1 1 1 1 1 1 1 1 1 1 1 1 1 1 1 1 1 1 1 1 1 1 1
$$ 1 1 1 1 0 0 0 0 0 0 0 0 0 0 0 0 0 0 0 0 0 0 0 0 0 0 0 0
$$ ##$ShimPowRng1= (0..63)
$$ 1 1 1 1 1 1 1 1 1 1 1 1 1 1 1 1 1 1 1 1 1 1 1 1 1 1 1 1 1 1 1 1 1 1 1 1
$$ 1 1 1 1 0 0 0 0 0 0 0 0 0 0 0 0 0 0 0 0 0 0 0 0 0 0 0 0
$$ ##$ShimPowRng2= (0..63)
$$ 1 1 1 1 1 1 1 1 1 1 1 1 1 1 1 1 1 1 1 1 1 1 1 1 1 1 1 1 1 1 1 1 1 1 1 1
$$ 1 1 1 1 0 0 0 0 0 0 0 0 0 0 0 0 0 0 0 0 0 0 0 0 0 0 0 0
$$ ##$ShimPowRng3= (0..63)
$$ 1 1 1 1 1 1 1 1 1 1 1 1 1 1 1 1 1 1 1 1 1 1 1 1 1 1 1 1 1 1 1 1 1 1 1 1
$$ 1 1 1 1 0 0 0 0 0 0 0 0 0 0 0 0 0 0 0 0 0 0 0 0 0 0 0 0
$$ ##$ShimPowType1= 0
$$ ##$ShimPowType2= 0
$$ ##$ShimPowType3= 0
$$ ##$ShimPowType4= 0
$$ ##$ShimSysAngle= <>
$$ ##$ShimSysFunc= (0..63)
$$ 1 2 3 4 5 6 7 8 9 10 0 37 38 35 16 15 14 13 12 11 28 27 26 25 24 23 36
$$ 22 30 29 20 21 34 33 32 31 17 18 19 0 0 0 0 0 0 0 0 0 0 0 0 0 0 0 0 0 0
$$ 0 0 0 0 0 0 0
$$ ##$ShimSysMatId= <no>
$$ ##$ShimSysMatrix= 1
$$ ##$ShimSysOffset= <56mm>
$$ ##$ShimSysType= 4
$$ ##$ShimUnit= 0
$$ ##$TFXNUM= 0
$$ ##$TOSITY= <no>
$$ ##$TRIPLO2= 0
$$ ##$VTU= 2
$$ ##$VTUETH= <149.236.99.20>
$$ ##$VTUTY= <no>
$$ ##$WBREFAM= (0..15)
$$ 100 100 100 100 100 100 100 100 100 100 100 100 100 100 100 100
$$ ##$WBREFLM= (0..15)
$$ 1 0 0 0 0 0 0 0 0 0 0 0 0 0 0 0
$$ ##$WBREFPH= (0..15)
$$ 0.07 0 0 0 0 0 0 0 0 0 0 0 0 0 0 0
$$ ##$WBSGU= (0..15)
$$ 0 0 0 0 0 0 0 0 0 0 0 0 0 0 0 0
$$ ##$XFAC= 2
$$ ##END=
##$RELAX= 
$$ Bruker specific parameters
$$ --------------------------
##$DATPATH= </Users/matthias/Documents/NMR/NMR Spectra/Data Stuff>
##$EXPNO= 11
##$NAME= <Guvacine>
##$PROCNO= 1
##$ACQT0= -3.15126050420168
##$AMP= (0..31)
100 100 100 100 100 100 100 100 100 100 100 100 100 100 100 100 100 100
100 100 100 100 100 100 100 100 100 100 100 100 100 100
##$AMPCOIL= (0..32)
0 0 0 0 0 0 0 0 0 0 0 0 0 0 0 0 0 0 0 0 0 0 0 0 0 0 0 0 0 0 0 0 0
##$AQSEQ= 0
##$AQ_mod= 3
##$AUNM= <au_zg>
##$AUTOPOS= <>
##$BF1= 500.25
##$BF2= 500.25
##$BF3= 500.25
##$BF4= 500.25
##$BF5= 500.25
##$BF6= 500.25
##$BF7= 500.25
##$BF8= 500.25
##$BWFAC= (0..63)
0 0 0 0 0 0 0 0 0 0 0 0 0 0 0 0 0 0 0 0 0 0 0 0 0 0 0 0 0 0 0 0 0 0 0 0
0 0 0 0 0 0 0 0 0 0 0 0 0 0 0 0 0 0 0 0 0 0 0 0 0 0 0 0
##$BYTORDA= 0
##$CHANFCU= (0..24)
0 0 0 0 0 0 0 0 0 0 0 0 0 0 0 0 0 0 0 0 0 0 0 0 0
##$CHANREC= (0..24)
0 0 0 0 0 0 0 0 0 0 0 0 0 0 0 0 0 0 0 0 0 0 0 0 0
##$CHEMSTR= <none>
##$CNST= (0..63)
1 1 1 1 1 1 1 1 1 1 1 1 1 1 1 1 1 1 1 1 1 1 1 1 1 1 1 1 1 1 1 1 1 1 1 1
1 1 1 1 1 1 1 1 1 1 1 1 1 1 1 1 1 1 1 1 1 1 1 1 1 1 1 1
##$CPDPRG= (0..8)
<> <> <> <> <> <> <> <> <>
##$D= (0..63)
0 1 0 0 0 0 0 0 0 0 0 0 0 0 0 0 0.0002 0 0 0 0 0 0 0 0 0 0 0 0 0 0 0 0
0 0 0 0 0 0 0 0 0 0 0 0 0 0 0 0 0 0 0 0 0 0 0 0 0 0 0 0 0 0 0
##$DATE= 1747654843
##$DATE_START= 0
##$DE= 8
##$DECIM= 2496
##$DIGMOD= 1
##$DIGTYP= 12
##$DR= 22
##$DS= 2
##$DSPFIRM= 0
##$DSPFVS= 20
##$DTYPA= 0
##$EXP= <1_IfC_1H>
##$ExpStatus= 0
##$FCUCHAN= (0..9)
0 1 0 0 0 0 0 0 0 0
##$FILCOR= 0
##$FL1= 90
##$FL2= 90
##$FL3= 90
##$FL4= 90
##$FN_INDIRECT= (0..7)
0 0 0 0 0 0 0 0
##$FOV= 20
##$FQ1LIST= <>
##$FQ2LIST= <>
##$FQ3LIST= <>
##$FQ4LIST= <>
##$FQ5LIST= <>
##$FQ6LIST= <>
##$FQ7LIST= <>
##$FQ8LIST= <>
##$FS= (0..7)
83 83 83 83 83 83 83 83
##$FW= 4032000
##$FnILOOP= 0
##$FnMODE= 0
##$FnTYPE= 0
##$GPNAM= (0..31)
<> <> <> <> <> <> <> <> <> <> <> <> <> <> <> <> <> <> <> <> <> <> <> <>
<> <> <> <> <> <> <> <>
##$GPX= (0..31)
0 0 0 0 0 0 0 0 0 0 0 0 0 0 0 0 0 0 0 0 0 0 0 0 0 0 0 0 0 0 0 0
##$GPY= (0..31)
0 0 0 0 0 0 0 0 0 0 0 0 0 0 0 0 0 0 0 0 0 0 0 0 0 0 0 0 0 0 0 0
##$GPZ= (0..31)
0 0 0 0 0 0 0 0 0 0 0 0 0 0 0 0 0 0 0 0 0 0 0 0 0 0 0 0 0 0 0 0
##$GRPDLY= 67.9842376708984
##$GrpdlyHandling= 0
##$HDDUTY= 20
##$HDRATE= 1
##$HOLDER= 0
##$HPMOD= (0..32)
0 0 0 0 0 0 0 0 0 0 0 0 0 0 0 0 0 0 0 0 0 0 0 0 0 0 0 0 0 0 0 0 0
##$IN= (0..63)
0 0 0 0 0 0 0 0 0 0 0 0 0 0 0 0 0 0 0 0 0 0 0 0 0 0 0 0 0 0 0 0 0 0 0 0
0 0 0 0 0 0 0 0 0 0 0 0 0 0 0 0 0 0 0 0 0 0 0 0 0 0 0 0
##$INF= (0..7)
0 0 0 0 0 0 0 0
##$INP= (0..63)
0 0 0 0 0 0 0 0 0 0 0 0 0 0 0 0 0 0 0 0 0 0 0 0 0 0 0 0 0 0 0 0 0 0 0 0
0 0 0 0 0 0 0 0 0 0 0 0 0 0 0 0 0 0 0 0 0 0 0 0 0 0 0 0
##$INSTRUM= <spect>
##$INTEGFAC= (0..63)
0 0 0 0 0 0 0 0 0 0 0 0 0 0 0 0 0 0 0 0 0 0 0 0 0 0 0 0 0 0 0 0 0 0 0 0
0 0 0 0 0 0 0 0 0 0 0 0 0 0 0 0 0 0 0 0 0 0 0 0 0 0 0 0
##$L= (0..31)
1 1 1 1 1 1 1 1 1 1 1 1 1 1 1 1 1 1 1 1 1 1 1 1 1 1 1 1 1 1 1 1
##$LFILTER= 500
##$LGAIN= 5
##$LINPSTP= 0
##$LOCKED= yes
##$LOCKFLD= 5540
##$LOCKGN= 118.199996948242
##$LOCKPOW= -39
##$LOCKPPM= 4.69999980926514
##$LOCNUC= <2H>
##$LOCPHAS= 8.269753
##$LOCSHFT= yes
##$LOCSW= 0
##$LTIME= 0.25
##$MASR= 4200
##$MULEXPNO= (0..15)
0 0 0 0 0 0 0 0 0 0 0 0 0 0 0 0
##$NBL= 1
##$NC= -6
##$NLOGCH= 3
##$NOVFLW= 0
##$NS= 4
##$NUC1= <1H>
##$NUC2= <off>
##$NUC3= <off>
##$NUC4= <off>
##$NUC5= <off>
##$NUC6= <off>
##$NUC7= <off>
##$NUC8= <off>
##$NUCLEUS= <off>
##$NUSLIST= <automatic>
##$NusAMOUNT= 25
##$NusFPNZ= no
##$NusJSP= 0
##$NusSEED= 54321
##$NusSPTYPE= 0
##$NusT2= 1
##$NusTD= 0
##$O1= 3562.76000002254
##$O2= 3089.25
##$O3= 3089.25
##$O4= 3089.25
##$O5= 3089.25
##$O6= 3089.25
##$O7= 3089.25
##$O8= 3089.25
##$OVERFLW= 0
##$P= (0..63)
15 15 30 0 0 19.8 30 60 20000 0 0 80000 80000 1000 0 0 1000 2500 100000
600 0 0 0 0 0 216 100000 15 0.1 1000 0 0 20000 0 0 0 0 0 0 0 2000 0 0 0
240 0 80000 46600 10000 0 80000 0 0 0 0 0 0 0 0 0 0 0 0 0
##$PACOIL= (0..32)
0 0 0 0 0 0 0 0 0 0 0 0 0 0 0 0 0 0 0 0 0 0 0 0 0 0 0 0 0 0 0 0 0
##$PARMODE= 0
##$PCPD= (0..9)
0 80 0 0 0 0 0 0 0 0
##$PEXSEL= (0..9)
1 1 1 1 1 1 1 1 1 1
##$PHCOR= (0..31)
0 0 0 0 0 0 0 0 0 0 0 0 0 0 0 0 0 0 0 0 0 0 0 0 0 0 0 0 0 0 0 0
##$PHLIST= <>
##$PH_ref= 0
##$PL= (0..63)
120 120 120 120 120 120 120 120 120 120 120 120 120 120 120 120 120 120
120 120 120 120 120 120 120 120 120 120 120 120 120 120 120 120 120 120
120 120 120 120 120 120 120 120 120 120 120 120 120 120 120 120 120 120
120 120 120 120 120 120 120 120 120 120
##$PLSTEP= 0.1
##$PLSTRT= -6
##$PLW= (0..63)
0 13.91 0 0 0 0 0 0 0 0.00012519 3.4776 0.25867 0 0 0 0 0 0 13.91 0.48904
0 0 0 0 0 0 0 0.26833 0 3.4776 0 0 5.0078e-06 0 0 0 0 0 0 0 0 0 0 0 0 0
0 0 0 0 0 0 0 0 0 0 0 0 0 0 0 0 0 0
##$PLWMAX= (0..7)
102.4 0 0 0 0 0 0 0
##$PR= 1
##$PRECHAN= (0..32)
-1 2 -1 0 -1 1 -1 -1 -1 -1 -1 -1 -1 -1 -1 -1 -1 -1 -1 -1 -1 -1 -1 -1 -1
-1 -1 -1 -1 -1 -1 -1 -1
##$PROBHD= <Z800701_0081 (PA BBO 500S2 BB-H-D-05 Z)>
##$PROBINPUTS= (0..15)
<> <> <> <> <> <> <> <> <> <> <> <> <> <> <> <>
##$PULPROG= <zg30>
##$PW= 0
##$PYNM= <>
##$ProbeDescription= <>
##$ProjAngle= 0
##$RECCHAN= (0..9)
0 1 0 0 0 0 0 0 0 0
##$RECPH= 0
##$RECPRE= (0..24)
-1 0 -1 -1 -1 -1 -1 -1 -1 -1 -1 -1 -1 -1 -1 -1 -1 -1 -1 -1 -1 -1 -1 -1
-1
##$RECPRFX= (0..32)
1 0 0 0 0 0 0 0 0 0 0 0 0 0 0 0 -1 -1 -1 -1 -1 -1 -1 -1 -1 -1 -1 -1 -1
-1 -1 -1 -1
##$RG= 32
##$RO= 0
##$RSEL= (0..24)
0 2 0 0 0 0 0 0 0 0 0 0 0 0 0 0 0 0 0 0 0 0 0 0 0
##$SAMPLEID= <>
##$SFO1= 500.25356276
##$SFO2= 500.25308925
##$SFO3= 500.25308925
##$SFO4= 500.25308925
##$SFO5= 500.25308925
##$SFO6= 500.25308925
##$SFO7= 500.25308925
##$SFO8= 500.25308925
##$SOLVENT= <D2O>
##$SOLVOLD= <off>
##$SP= (0..63)
120 120 120 120 120 120 120 120 120 120 120 120 120 120 120 120 120 120
120 120 120 120 120 120 120 120 120 120 120 120 120 120 120 120 120 120
120 120 120 120 120 120 120 120 120 120 120 120 120 120 120 120 120 120
120 120 120 120 120 120 120 120 120 120
##$SPECTR= 0
##$SPINCNT= 0
##$SPNAM= (0..63)
<> <Gaus1_270.1000> <Gaus1_180r.1000> <> <> <Sinc1.1000> <Squa100.1000>
<> <Squa100.1000> <> <Sinc1.1000> <Sinc1.1000> <> <> <> <> <> <> <> <Sinc1.1000>
<Sinc1.1000> <Sinc1.1000> <Sinc1.1000> <> <> <> <> <> <> <Crp60,20,20.10>
<Bip720,50,20.1> <> <> <> <Rsnob.1000> <Gaus1_180r.1000> <Gaus1_180r.1000>
<> <> <> <Gaus1_180r.1000> <Squa100.1000> <> <> <> <> <> <> <> <> <> <>
<> <> <> <> <> <> <> <> <> <> <> <>
##$SPOAL= (0..63)
0.5 1 0.5 0.5 0.5 0.5 0.5 0.5 0.5 0.5 0.5 0.5 0.5 0.5 0.5 0.5 0.5 0.5 0.5
1 1 1 1 0.5 0.5 0.5 0.5 0.5 0.5 0.5 0.5 0.5 0.5 0.5 0.5 0.5 0.5 0.5 0.5
0.5 0.5 0.5 0.5 0.5 0.5 0.5 0.5 0.5 0.5 0.5 0.5 0.5 0.5 0.5 0.5 0.5 0.5
0.5 0.5 0.5 0.5 0.5 0.5 0.5
##$SPOFFS= (0..63)
0 0 0 0 0 0 0 0 0 0 0 0 0 0 0 0 0 0 0 0 0 0 0 0 0 0 0 0 0 0 0 0 0 0 0 0
0 0 0 0 0 0 0 0 0 0 0 0 0 0 0 0 0 0 0 0 0 0 0 0 0 0 0 0
##$SPPEX= (0..63)
0 0 0 0 0 0 0 0 0 0 0 0 0 0 0 0 0 0 0 0 0 0 0 0 0 0 0 0 0 0 0 0 0 0 0 0
0 0 0 0 0 0 0 0 0 0 0 0 0 0 0 0 0 0 0 0 0 0 0 0 0 0 0 0
##$SPW= (0..63)
0 2.5983e-05 1.1548e-05 0 0 0.0090249 0.00012519 0 3.1298e-07 0 0.0090249
0.0090249 0 0 0 0 0 0 0 1.843315e-05 2.865374e-05 1.337927e-05 7.215328e-05
0 0 0 0 0 0 0.11955 3.4776 0 0 0 0.00012625 1.1548e-05 0.00073906 0 0 0
1.1548e-05 3.1298e-07 0 0 0 0 0 0 0 0 0 0 0 0 0 0 0 0 0 0 0 0 0 0
##$SUBNAM= (0..9)
<> <> <> <> <> <> <> <> <> <>
##$SW= 16.0175181334285
##$SWIBOX= (0..32)
0 0 3 0 0 0 0 0 0 0 0 0 0 0 0 0 0 0 0 0 0 0 0 0 0 0 0 0 0 0 0 0 0
##$SW_h= 8012.82051282051
##$SWfinal= 0
##$SigLockShift= 0
##$TD= 64100
##$TD0= 1
##$TD_INDIRECT= (0..7)
0 0 0 0 0 0 0 0
##$TDav= 1
##$TE= 298.0001
##$TE1= 298.0001
##$TE2= 0
##$TE3= 0
##$TE4= 0
##$TEG= 300
##$TE_MAGNET= 0
##$TE_PIDX= 1
##$TE_RAW= 300
##$TE_STAB= (0..9)
2 2 0 0 0 0 0 0 0 0
##$TOTROT= (0..63)
0 0 0 0 0 0 0 0 0 0 0 0 0 0 0 0 0 0 0 0 0 0 0 0 0 0 0 0 0 0 0 0 0 0 0 0
0 0 0 0 0 0 0 0 0 0 0 0 0 0 0 0 0 0 0 0 0 0 0 0 0 0 0 0
##$TUBE_TYPE= <>
##$USERA1= <>
##$USERA10= <>
##$USERA2= <>
##$USERA3= <>
##$USERA4= <>
##$USERA5= <>
##$USERA6= <>
##$USERA7= <>
##$USERA8= <>
##$USERA9= <>
##$UUID= <>
##$VALIDCODE= -1
##$VALIST= <>
##$VCLIST= <>
##$VDLIST= <>
##$VPLIST= <>
##$VTLIST= <>
##$VtChillPowType= 0
##$VtChillPowVal= 0
##$VtChillType= 0
##$VtGasFlow= 0
##$WAVEMAKER= (0..7)
<> <> <> <> <> <> <> <>
##$WBST= 1024
##$WBSW= (0..7)
4 10 10 10 10 10 10 10
##$XL= 0
##$YL= 0
##$YMAX_a= 450149
##$YMIN_a= -682756
##$ZGOPTNS= <>
##$scaledByNS= no
##$scaledByRG= no
##$shimCoilTempK= 300
##$ABSF1= 15.2326107034891
##$ABSF2= -0.785023137187311
##$ABSG= 5
##$ABSL= 3
##$ALPHA= 0
##$AQORDER= 0
##$ASSFAC= 0
##$ASSFACI= 0
##$ASSFACX= 0
##$ASSWID= 0
##$AUNMP= <proc_1d>
##$AXLEFT= 0
##$AXNAME= <>
##$AXNUC= <1H>
##$AXRIGHT= 0
##$AXTYPE= 0
##$AXUNIT= <>
##$AZFE= 0.1
##$AZFW= 0.1
##$BCFW= 0
##$BC_mod= 0
##$BYTORDP= 0
##$COROFFS= 0
##$CY= 15
##$DATMOD= 1
##$DC= 0
##$DFILT= <>
##$DTYPP= 0
##$ERETIC= no
##$F1P= 0
##$F2P= 0
##$FCOR= 1
##$FTSIZE= 65536
##$FT_mod= 6
##$GAMMA= 0
##$GB= 0
##$INTBC= 1
##$INTSCL= 1
##$ISEN= 128
##$LB= 0.1
##$LEV0= 0
##$LPBIN= 0
##$MAXI= 10000
##$MC2= 0
##$MEAN= 0
##$ME_mod= 0
##$MI= 0
##$MddCEXP= no
##$MddCT_SP= no
##$MddF180= no
##$MddLAMBDA= 0
##$MddMEMORY= 0
##$MddMERGE= 0
##$MddNCOMP= 0
##$MddNITER= 0
##$MddNOISE= 0
##$MddPHASE= 0
##$MddSEED= 0
##$MddSRSIZE= 0
##$Mdd_CsALG= 0
##$Mdd_CsLAMBDA= 0
##$Mdd_CsNITER= 0
##$Mdd_CsNORM= 0
##$Mdd_CsVE= no
##$Mdd_CsZF= 0
##$Mdd_LrLAMBDA= 0
##$Mdd_LrNITER= 0
##$Mdd_LrRANK= 0
##$Mdd_LrZF= 0
##$Mdd_mod= 0
##$NCOEF= 0
##$NC_proc= -6
##$NLEV= 6
##$NOISF1= 0
##$NOISF2= 0
##$NSP= 0
##$NTH_PI= 0
##$NZP= 0
##$OFFSET= 15.1307751253029
##$PC= 1
##$PHC0= 27.3545335113537
##$PHC1= -26.7789831901537
##$PH_mod= 1
##$PKNL= yes
##$PPARMOD= 0
##$PPDIAG= 0
##$PPIPTYP= 0
##$PPMPNUM= 2147483647
##$PPRESOL= 1
##$PSCAL= 4
##$PSIGN= 0
##$PYNMP= <proc.py>
##$RDF1= 0
##$RDF2= 0
##$RDFWHM= 0
##$RDINT= 0
##$RDPOS= 0
##$REVERSE= no
##$SF= 500.25
##$SI= 65536
##$SIGF1= 0
##$SIGF2= 0
##$SINO= 0
##$SIOLD= 65536
##$SPECTYP= <>
##$SREF_mod= 1
##$SREGLST= <1H.CDCl3>
##$SSB= 0
##$STSI= 65536
##$STSR= 0
##$SW_p= 8012.82051282051
##$SYMM= 0
##$S_DEV= 0
##$TDeff= 64100
##$TDoff= 0
##$TI= <>
##$TILT= no
##$TM1= 0
##$TM2= 0
##$TOPLEV= 0
##$USERP1= <>
##$USERP10= <>
##$USERP2= <>
##$USERP3= <>
##$USERP4= <>
##$USERP5= <>
##$USERP6= <>
##$USERP7= <>
##$USERP8= <>
##$USERP9= <>
##$WDW= 1
##$XDIM= 65536
##$YMAX_p= 339060667
##$YMIN_p= -217367
##$CURPLOT= <C280>
##$CURPRIN= <$C280>
##$DFORMAT= <normdp>
##$LAYOUT= <+/1D_H.xwp>
##$LFORMAT= <normlp>
##$PFORMAT= <normpl>
$$ End of Bruker specific parameters
$$ ---------------------------------
##XUNITS= HZ
##YUNITS= ARBITRARY UNITS
##XFACTOR= 0.122265938000801
##YFACTOR= 1
##DELTAX= -0.122265938000801
##NPOINTS= 65536
##FIRSTX= 8012.69824688251
##FIRSTY= 11020
##LASTX= 0
##MAXY= 339060667
##MINY= -217367
##XYDATA= (X++(Y..Y))
65535A1020B888a049f2A1640j111L533m944L231l145d393C904R04J297j433j369
65520C303j250b294l402B723J405N251d34p776A499b35E819K915j354k863j006
65505C511N566M886m346j649n76A557M21M993d370l444D333L670a65C739O129
65490I868D908P04j135n90M27D55P351j67d091a450p973L852r68E487N735C878
65473f635L177r44B267J0180o060c222I481p41b863C717K640N628A409K495A941
65457H036l224N953m906J70J428k572N3B48g832K492b223F418n67K787k678e7
65440B156a581G607L889K706l087K512N6J425j404N54m387l157N212C716L127
65425F843R477p417l642e388E781O552D496k070l58A19J0636k09a416f21C829
65409C709P712J487D692a231G905L531P28j423K167j213l010K122A109O119K985
65394A0213P439H097R42k715J212N165o253J516h6l315B519J3372j03l656p31
65379A1401a822B779L464J206l485N570l532L145J90C790N152o53D073j692K90
65364B671A07M133j34j97O908L302F960L248A092e627m23g0F543k571f071a303
65347A426P240l082b849A76N150j334j991c048j70a27l153I552k450M213K864
65332A4179n083J228P8J218l153k743K029k499P970G98d469A618R07O013a197
65316a94I40M733p63r0J995L736j337j904O707o731L727K432k609A6P581l659
65300C938c42A0799J623k635e715a934E813F06c418A560h15m589J312A0454J662
65285A2116l781K748C507b322l13A687N853K848l901p89a156A795o10R48L552
65270E685J264K164O82Q649o736a515b38G558L851L372p169C013J733J2365K173
65255A9284a258B005k8f982B773F31O368l68k013O01j898P229m207j936J939M584
65239A0930C29d316E373L961D380J1678M893n878L467p013k959K61j694k886P006
65224A1255M769J416a667l269H230B508J0479m547C967O393k485B350b93F87g149
65208A47c301L67I584J825j793m625B231r39K217E18g41j0308B658A29a0318B724
65191B879J1747n526n45O595G460L080B777K13I3a360d56G316J0912H061c171
65175D643P519D196Q00M917J265k300k160n8M605L455E451g025B225j44i016J910
65159g106C252J820N308l641q8N520k620m126J567F18R73R733n366j83k811B9
65142B598M630A529M012Q222I18b865l066Q89D048H7K700J966i0C25c70j488C260
65124B223J0001C589c253o707j005B256H18K304M763c273c02E301B456M189B601
65108G992C211N949K544B526j146c047B396J2128j009l803k793L913C336h992
65093C862K049M955r79k180j02C640pa911f85j0579K419K22K416C165k13G5O739
65076F814k691P48Q652F245j616L088M025j747C997L753N23K29C808g269L271
65061c998I910a224o917b888j2380f151F22J521e393H147P152p345M294Q39l285
65046I802m28N805n122l616K25K975k798B82J377J3187l328m351M222K512l397
65031A0504e641J738n494L088b963n84j96d30A784f322a524E211j799b738B884
65015B715b669k229F690J0585q23E380e224B589K231L939M059A094b063j730G441
64999G581B188K45r29h91j3454O875A2961n494a578C102M755J062j971A031c349
64983G411J9829p455C530C01O83N211K514J809N060K458d071k87B602b580A940
64967B626O228B118a179G29L662P560D317M069d936K138F188k195e128A1351E570
64951C411M786B562L344k709A419a0439D897K445K69b493c47E925a855A127L543
64936D670O5j68c814K45A755Q667C929J786P779n129n96J851J101D698k303L751
64920F146d070K40H051N78j266F38J5315o865f732E028O0r62J955d868l890H016
64903I736j233A583O745o70b481A025f352b102A0521O337n729l726B933g584K607
64888d977E517B16J2937c202j0905c669A696d634b122E349J2099R140A1959A690
64873B332j014K188K055f058R57C918p00O132N190K330m476d032a910i45m852
64858e797F299J998l806N653a0725B181a654A1668J203j914j342f00m219H072
64843F574c132j105n041l01K500E170c30H173M439j92A107J4107O808l454l851
64828A4717J237A332R763N711M680r499l639J868A505L787j497a175C353a030
64813f308G98e103I683m36Q592q715L996R994E760j2a466E887P688B598a945A1421
64796I618B373R653C985O906B336K102j133R292k318m333j150n9J733k610l36
64781C524b245C177a362I502C919O524A30d170J663C859P229k918L859K745j767
64766A3007B565K209Q123P943r019B159c748j882a434k476m099d49o221J197D5
64750a1558M379N78E060M389m96c294A297R482A378L817c838a085A66J1823l958
64735H031l099M356d403a571A1251L91d299J254D718O136J539n942K332b131D22
64719A3938o319c005D201j768h793p624h86G319k161J009j157A680i522L42k230
64704a1410a776j642A5524E722c363I200G76L971L506A421M663b574F219P841
64690A4060o163c39m453j651k32e49l290G262M342k90B015J5288j681N03o26Q93
64674A6392H98b905H0Q45N730J78K445L769C934d13A1463N86L219o918N63d137
64657I75J629f056E27J0600H77L458o32g257F088P619J920j555D408f850J487
64642e363C601M52L799c106A0255M776l226m351g00F030M424J763C339P617m267
64627F689D58c761p97b7H68i108c001A728L959N48j429J0186L991N957l183j0343
64611A1414n004l202I12b004C886b194J03F815B145d244k813K165E98g109c554
64595I542B832K349g40l099A419J3338F563L325c06r926D246O560l350a183A0276
64579I603J502c311B729N16e917K746C917O458l465M388j610M269l346j102L280
64564A2789o105k217L820J726K361E150N898J756C973K161L135K857G95J062O604
64549H461m218j899O04d5o140F224L65J7615J584k576K633r448k352P201k081
64534A9165m465J223b459I623L926o018f132I206L271e462G2J7874H489e286F143
64518H710B347P943C948d40F489A798Q896m251Q100Q538j0829C445O679m650P70
64503F244L163C375N174J723a0457d320A4264f49n508J259E496P502B439J092
64489C531J2085l66m02f850j0795FK121g159k584L641L031A0623e39r307D83J3513
64473A3996F979B872k42J0288J1826C957a3750C530J0377B815a7331l404e391
64459d072g12k237a2B961N300j817A912c625l526Q86O21m985L350D495J2056F466
64442e972B735P202A743b775G39P109A854N889l279A887e043A348J1617e784b433
64426b509g1G051l132O495N584o050J129e48H883a293q219H205C15M53J4721m621
64410A0868k744h672m168J154c369B976M551l568a708A349a17E555b472a122G952
64394B234d088j171B157o81d015G325J434j147c332C018i83j151A177J564K296
64379E037K354j406l33H05h856c078A2538j433M304b903j4764c992E805P049J387
64364A4241F720b566A5202A860R238N939B006i49j2764M958A1760P535K222q217
64350A3300D704K58a948L85G2P48L159f438r56A649e992J286A2139E482b493E71
64333e340K366p00q229e022a139H336J044K249K099l511M891c433J91D174Q481
64318A2655j759J388k469h135E365J543j727d05C459Q097a72A996f957j0133A124
64302G895oJ864d481F9a819o940B229R690m341e393d50A755e27D370Q284m474
64286H180C623Q871m528k007J064O586e46n0A1071J2814K819A3158B600J0620
64272A3220P809H143K215B237J5286r95h432K902A9743M209E090N43M012f345
64257d099A3611n960j207R764p460j976O08d829E020J2987o668m345B668O327
64243H995B859d952C878j341h700A2374m653B399L367c462m954j660c098J545
64229a553n666n886f437j8251i441L709q102D007O836K757E726N116L108f411
64214I987A779b730j689m06B860j17d982j2530d088K03A587J374j38b897o541
64199i438L008B149N340K102C153G36i727K274C596c936H507r19C218L495h260
64183b806c93o109K13k069k178D43M846i79G724n74l163R70a101a19j62q567A280
64165D837B226N355B568g9r004a313o75L98j352j01G608c410l882L500B671P801
64149A0472l978j744k326c328l403n534K491d546I709o93O016o284p26l282A01
64133A4035l50j590l297M146J010D423e25B826J71a1252c217H609J0204r268f037
64117h62q024B501Q365D044j283K174J520g047n742O163K30D258K269q86k095
64102C546K112A744P735M029B360d618F702j956L711K930M627l875m407J0895
64088A8627p763J2576j1546L313F569k447O652D980A924J787J0494R21n689L943
64074A3380P31N0L702f90O4l413j87E743B229e408A4010m308k250a961p728G834
64057H570A00J0045n36c200D556D34J953m31R132D865A317g597k789d753B357
64041H647L398B696J7385b461j2485H509A653P622N269N591G533M094C403g967
64026f219J121A3251J2944n827p303E156J429Q401o384i958A1359k628l056N92
64012F267d257j4350n467c645A497k69h254p691e78F233c522a282F209N124N371
63997A6704J227m783k498h18F039K473J1445J3671A0500A492K839c355N47D358
63982A2638P491k707F084d809m487M640a601O41m962n42o56A0653M311D531N807
63967A0338N141l138j190d968B953O501l295M686d157m487K160a924p072p952
63953a6948N230C314c998l383H498B42a2311e230j858B834L441A619J386f102
63938C355n27M524M367m464k317B04J1369m903m16b996B571M204K612g58k322
63923c080j550D032J1704k917k004c191B896Q775A87P86R658k729d372m920L716
63908e576J645H787A38N153a0185M124P88B205R378K285l552m991A078R89O90
63893B757j294p03a0144l485L290E37M566a934q92A6341o609g81G84a276I259
63877B0610n498D805j740P164B434L975k146A072a470A4918M55E545M086m241
63863E390P900m606e817F619k729i526a977B507P523O555I96b375j195A1935B915
63847A4082C459a7924i20q388B042L313d135j285n740L618A4257p092B939b539
63832C805o92L653c80k020A1612M341j101K115b502p12o09r76j1088P251M020
63817d616j539k617A333J1152D021R522a61I103J1421j981p071K194g061A144
63802G060K369d205J596B835d647J558D424i13H38J2441F250h316o658n764Q789
63787a1949b323O78L98b19A6429m284r52L163F708d694o683q533B124Q236k969
63772G391J2118I368b733A3104K780r63q47E547e392A0508B107r56L608P626R401
63757B1786j0543j860m546J0713G311a012p150A603e181E168J7548j028p735k216
63743A1737K554D551j851R74M915d248a311l159C656J0232E794j177J877K012
63729H506O848j047F39P371R941j678B916K593d9j276A046i407j0600i819n90
63714a0409l760J525d394C439C60a6134O355H211l306d92r200a224M15A718M59
63699B177J523N0M020M282N365d907A525Q359j710r84j46B006f009i45q032K021
63683f956K312C890a722k898K303r062k205D604P349L019E272b349A6499K366
63669A8865G42d986F555K542g025D289Q938N694m092o128J2496r678m941d352
63654c34C047j235R057C757g283a451A8518o721G09K855J0058M176o743j913l634
63639E508B009h446j314k282d580B349a1255c621C389j616M982J491e85k643C028
63623F471P185F502K312L760D668J0391N086k759L179o364K79m080j405R728n644
63608A3079C520f47k589k600k581b098j706j3954B775Q963m313P473a602m924
63594f526h44D705Q858C569J875N131j592A434K008d677k422A890a16B536a687
63578e917n876i79F998N372B45J0105N266k13l982b214D344j701R326P972p159
63563A2782f593I908j503A808d509D610N969A944J671L710C397a7501c63C954
63548E412M844c82q780o10g51I689l569c467r504F316Q26g709c044C309d308A749
63531A6111k684m103a2707c288B699A175J210J156P231n076K675R20J051K88A521
63515G787N698H92J0107O43B501N096k48M835n259J729C679N079C911f886F531
63499I80g564j1101g802E529a631A7036j733m003L810k5C238a186G933P90J149
63484I872h325E03H8a0941b979m294k563B540L742g39j141C462i355r518K818
63469a6055c211j716p544f049k708k077N376q460c64A5299D216a3586f577A030
63454G247k579g825B793b123G352B793M1c720E570L625N35m095a819o94D267J2584
63438A6851E768n95J672R414k344G19L099J857J032J833f831K866p115J269F356
63422A7283J5088C706a0369B635g394D016L549e234G46Q060P495j448i159B029
63407a345D07O800a0489b651F5J0714C157r15L286j920i434qc840k796G495a1920
63390a6171D163J589B333d62A1539M11e56C918J554L428B168i092D178N333A153
63374b143o01a113F34f174m590f10p145l587G27M619A548P98J462l10R48c585
63357a9G832r37k311O39i68B9K214a0H591b364j7708O894J108p419O94M193a785
63339h298b067B580a2018C978K595F13a0620j982B285i35j188F15d039m30I71
63323D266j08f810r320a325l97B45L428a453J18o505D480R979A729K86a722A57
63306A7851j97D249h75D263j636L244c409H750J3264D953J532R29B108K284f233
63290b896n382I474a482n374G291B704f955j0621j739K043f353b2B49a1318E419
63274G287c304j747G607j444L635B464J551N644d969K072I428h3G841B316D78
63258d43I594O723n300J3691A0491E082m5A342f481g62l417l224K193K262r702
63243a2650I39N349d727g92A1339K335n765K876K96C862M189J1136E738h763J
63228h762j512l736c097j95J010A2187C468A23J76c93D60Q830B962K582j425L390
63212G509P746j120M173G038C260J2117K833k622l947b726p951j0660d120k091
63198f211P43D988a029j4487b634c22A3913F706l315N268A449O561k367A714O837
63183H551b769q755A324h06cp538a990f85B411h559g1n455B822J1836j37m657
63167I864d211J082k033J14D451N234K898K748C276q27n52H53K0136p552D8a059
63150F005B499d003A0132l827P84p95d388d62H570b259p153a301e7H406k68M718
63134A2856k936m279B731b0738H423f31j988E378k506N226j742P42b624C523p49
63119B774K3049o854d019R50j0155b636J162j9n610q93J352J476r474J841G189
63103g386B538J110a649E187K956J73J5861H007c847e61A0384M305A13J2188A983
63087i885B040O012b614A570K847a753c00n38F0Q895h49P4D6f986c131A978K749
63070D727a107E63N601R9I97K916c438j391l539o681e428l352N24p68k772A1528
63053E286i747I289C620G48O541h462CJ3205Q733p633D543a370B336M399r15J0242
63037A6062r27m946N52a455l312A0718a927A587d567f52E017J0354J206m048E328
63021a1358L919b64k762B3793J216I96c809k387b495o950O28K69a920l529D999
63005H171o0b73D86g066a986j185l985Q25a343A0219e671G247p21b094k912B058
62988G677B094a276o022A778O774l552N728L090f278N18B036R205n011g317L373
62973c944B211c790A065h171N93J380a879A2342D891Q346E857a060G94K0594A996
62957a0195J91F296b908D615K243M56O03k717P486d163F366A867N425I01m3m27
62941D31f745A492J1343C854L49j900a1262d595q227n891E824d929l672D559M23
62926D982b3k167n89j1093a687I739C632N453F73e79E942A838e088k396J216b686
62909A0408k026G5e14p693f55A0926b996R39J25m696c35n312B469L34A303K118
62893C421c414F570B889h781K309F283J562K058i369J749j038M134G309r48J3986
62878B0347j06j0116N445E078I99N746a117D361P253n064J591a08C869L630B285
62862A1324j362K980D65Q629k806A98c61A565N095j661b704D739N101J574b775
62846D048J839g467c505G234a743j1780C36M504E07J20Q654e851a393H599A639
62830e981C462L896P498A197a3628A32J6590O93p379A697O096J591l344R352n447
62815I945B455f517j0299M009J700b894l494q660A663K385b026j630E999j921
62801D078h501q99A754J0455l072f80A951k15a1200K223A349K048F68f316b576
62785G300M268K176F490k459M009b121B619P094m140a979m689J099A1586j44b705
62769F259K029M969o246N070P445n954M621j766R38A918g808K35B54J588O303
62754H145j200a0140B21i122j1012P744M827p778N020c843F808k27L520L277B080
62738i684d412E075a961j766D926j320l21N910A723J255J978J1619p282k256Q658
62723A5695o943C556A449J643a732p968b306C471K269M846K738C769M466o41B203
62707A688a3396N054A0553c29J56A1787j516l915f426J775b118A657J165N704
62693H526i93H55R584C098a3798c888G496C371J181g790g11j839C318a1450j1397
62678b2847b623H043M496E100J158K459N036B783M08h201c898E633a53j061p358
62663h572B3493p805m302M104D792J72C00M524j284J027J2262k077p297J939O14
62648A0008l377R55Q468F236q0N498B745A00c640j683a674k844I67J5424j477
62633A4914F923C443I3c920M08k639R60a971p6j673p934L440K069p56q35A225
62616C396A161Q730L470a155p174E523c038r608d983I88c683p122c152d38I146
62600G566h208a52j921k905l086l94k951L695I381l324e497b340j701e7A2034
62584F207J905O19A94a1940k472L983D712Q917M015g88o456B24i576b207G260
62568B641j231c984C268R828A788J0205c448g79C725N700P529E472N084Q516F890
62552H771B101c065C44e401b82n903A679J393A396a0071a728A0121A998h935L79
62537h556A410g528l30c782m508J715p320e970j0256f993G747C380j535p87R01
62522A959J1961Q004g556a376l561l086E030a14p746r73F559H38h041E098d1o371
62506f412j654K40p495g598E992g525a29A4940E08h852G09b86k196p325a056E22
62489a0134B391a3888l027c089C781c812p926k445e870F99f074m890A694L449
62475E143h601d170o616d37B819a0330n769f521k896p69L901D048N353D97b820
62459A0460D510a870E655L347L319p95o79l674a262I59J7139k661e106j6982R060
62444a3028j1538N008C858J4660k028D839J432l08e87B101N318P573l230d315
62429F92c430k633b052j0279L090P05D256M615g990l946b418B449c687R55o74
62414c406I062A817K398J5176F21h380n76L689G050j172k535c213q503M548L283
62399c885k377B677d597k616a15p288A108l35a1732K573F98N364N404M535i70
62383B874L478B594M207R164k724B796a358E543B01f300I59a525A0401M68L119
62368A3988B167R719A710L49c423j3212a219j566j1830e048j59K384R71j975G504
62352b652j05o775B099b639O00F653B362c937n228k133A957a259I818H69d49E666
62335G350B833a3653e787J244N61j772A0489D619j665d762j1209c960j68j442
62321e570b142j4839N338i69B622L786k502d539J087p187b220B978a5745g007
62306C88i829h35C103J017O990j623l689A086M635A483k27c476B186O34b221D65
62289b854J98E904a284m615j3702K723Q354Q6L200B439J659e833a087m673G970
62273I825C713e443n930J289K143D418J4668q506H73d516C181J046b314A2431
62258H056K565a3520K140B864J919L947h335c890J585B397o3e561J092k569L465
62243c573l3E825Q52K969f600k143A2012h56l941A571L074e09A616J579K973k611
62227C557a220k480A437O32J0090k300L486L849D331L298P488h2p984E834J4271
62212B0105o133m014D363a0931k328l603k795M525a978D327N011l452Q239l732
62198A0393l294k701P354J190E340B136J0743L45c689A054J4356l942Q305q522
62184A1251k924O941n535D469e306J229A2274L179n693h25I512k938a2634B989
62169a598F490b714J196j5963P177B030c75p273A1787j50n088N900k558k859c955
62153h699J915A5993l215A517c834B99f195K912H567l505a0820e80C072N471C200
62137b679b62D222a71r198c983A1186l538i39j734g91G789j929l50A544c355j9076
62121b2431a0214C764d102a748k664n147m795N129k870n75M342F795c552k1021
62107b4573i705b986F561O900E245c069b38C469K339A519n10L118d489K044j3653
62092a6098J960C048d167A2370J873E730D55h81k914A0955K298o18C715a4134
62077h499r924k55O321N194A238f928j067n620j1597C458C15d841A062e512b579
62061b143g32p339n025Q92g08o927j1198c810A523J580c159k081C607N826E5a3748
62044a2187D21L303mA232g704K980a481A776J402c203k655j4899L016f421B042
62028e984a168A2962F347j314b508l853H007M870C89f750a457o354L177A1893
62013a066M1J13C467f831b842D33M576K831k157J159d59D347r13b553D033a3886
61996a0497M162C382M418e652E925P82B796p0J603J646J2867B491E83K922K158
61981E663N257j872B618J806B154b310l884G731f360h22n835L272A2222a289H601
61965A4028B125a3750A466c186j976a375F562j256J990o47b626j212q013K094
61951i757b681o137J292L011n429L862H166B515a1710A907L239A381J3945F266
61936h431b964q4q710j868d755C343b100G642a706B068N13f955k374a36G931a309
61919E34d049q755d391g79n797H6f677C96a3656N252B219J978b645r109d939E489
61902C213J730P666C719a869l635m687K993C949J687d976k973a738k207n237L765
61887e417q915b717I316d484A875P773D571D62L603B91e28D75J526q09N172K768
61871I132l197A232N891A036b095F34J111g787I555g545r474g413b162l053m258
61856i473H052j502J218h102j036r975Q429d898C3d620i14n898l460B704M224
61841F928k044f462K840a788k83j046n311l063M658E997a1642A704J1025d109
61826A0161C310a0906A919J6650B962f550K388A2214N945G668g47A9155o810A59
61811A0270A894h198b976o740B638J3989r01n749k670P720l551E565a128B829
61796C577J371e710l41J032G567A608P35b91k541A662b012j958j0583e238b79
61780c89n778m416j455N780F798n91k974m15O857C760d475a457l71C19f731K107
61764d624C295d738A0990m770h6I756h118K56d82D925b397o229c086H515h14r92
61748a806E019N783B103h871L790k850K59b618G598I54L912L595d037H275n04
61733G771J694j279J396k455g394q59J548I802K263l075B885l67E23N284Q233
61718A4040K258p816O908L811j734b478J60B078c716D399J647k600a052o134c22
61702c34E722O883h331c582p148L187a176A614a612D169N558D748M143B974a501
61686e955A58J722Q678l458A178J8361H828m205b729P7k934I124d555b39B7455
61670A0512a493E995K076c955p393c765f44F145j528C0J1481b740J56p789c313
61654c061G517K392D19a0627E528j455b345k381J68a615j0735E170J0174n54l650
61639A1140b698k679a144j014j1517j147f336o803F135f16K09j471B45a832m709
61624f541a982q917C772M447j9J025a0888B933O07b47E579N262j435h323k59L101
61608e481D513M41P206L026A163b362I28a356j2392J931a229D492K362A536f252
61592c624A382b159A1163J2464F523a438b65j2392f316C411a629A017K022a447
61577F545L171K596b717D285Q350A641R08M163A072a0401a630E0K356L174b709
61561D142F81M747A600J0358D024j230J1255E77J3132c226k518A886k57d543F810
61545I2M478l66L032P355F081c555n699B065d302L66o242f9j921k376d5I07a857
61527h499F723J2057m331a307n945m662J969j793M516A498f483j641i95B333M732
61512G065L812D451M53f926b041A3768d811J144F08J885R053f098m283C665J216
61497D881d16k191B675H24b237B200e057k260g09A5771c814o54m442m515c00G187
61480a56G347L899j877N415m375N412p515G05a2012M770l4B224A033R223J682
61465A1938O607A556q2N327a36j207D182J5307o623c331G130N215l753k723e345
61449G068d730b56m05A174K199k25j550a432o041j513C069D06a386K51k082B913
61432b984I809l282a596j0766l363d079l627L851a567B942K744F79h385L066I233
61416d4p118I923l497M399m618B705e235j361G040M323m544d020j077a985C624
61400D693a0336L178b575h71A4732o392D147A774A42J5772B246d335F434a131
61385C832k31m16e079C423J187a1319a570B793a5019r105i291a814A660B83R933
61370A0216R04m759L614B169R34i60n584a338j0722i36F772a3492c673r37p288
61355a1898d546k531b300B277f65G234A236h116A3496m178c040j0645m686E87
61340a9550i237c955r555O667M28H908D313f620H41R632m213c80A188c47H376
61324G396d246Q29g57a21q250j076c048l110K159f86j455H926C961j368E67C6
61307B428O692A445a5442j292M249N499C096d600K215G481B937d603h48A3228
61292c269a578k91n297b120j887k984G447K288B707a0952J23C90Q336J6207A1297
61276G328P698E337F37j10f365k820d107c49n481j0658a848D245K23A01e110D601
61259a5980J001q2k592b40j723r281c157Q84l334l39D789Q967A816O490j75e757
61242d505C006i757J018N00E054B114a9877k373a0077g77l717j67L58D102j688
61227B414i07j071A1321b444D591K894H37c879i95A233J009B66a4616C200H48
61211G316M045B527f150C754c15n225k432j0980a438o147R91n12j0899K651e130
61195b247j9647e940b762l429a13B3a0656c19H803F06b504l079D869K406b768
61179c843A761d095L16J428H071k743A090c931B153P071n56K530P447o207E916
61163A2436n776B60a769G724b745j0339A134b603n072j2871c869I327e324b077
61148a0580j2217g793i62j4747M542d393C781d875A2656F083c391H544c924b25
61133a556N97F191M240C126f669B438J1890m205p02c666o053L275k093c875o438
61118a0313a280I572F28L954N024h277a81n861c4A3280E536a1651c220H438a1373
61102d950B185b112p26I211A987L759O86e831j019C448A000g170p974i78j3295
61087a4273M587M361l094D332b439j5526g586A385a180C799b298A2782e912A4719
61072A3090C005c623k254A521L313d124a242A8118p82b686j258a323m510a513
61057h551d139A858M284a110p084m546A987a638F268j16e464m016o20o003L987
61042a2116m693C947M052B871J645a0930c168B119L69a783l127K210B905J4J1293
61027A4212A391i85H145j233a942C492e071j76C935b385c6n654B106J7216m812
61012A4510l343m916A553J585a1498N514C512h430L528A778J708a422j0592l924
60998a5938a2F553g721C631A276Q330m741a1540I29c175D13Q412k505A789R90
60983B779j027f741B319a739k024EM082e770j089A1482D121Q83B462a6026A674
60967H086l353A338K645J6215e577l578b654n248K757A287M146A822c937k075
60953f012l135F07b018m591a156C853J3125b422l955B876Q677M571F034k762b0028
60937d0A2399e972j1726p70b713j96H30a325K15r508p379Q513q167e139l978r682
60921a8799D456E00L703e143j0315J083C265N061i7j0139B30a522j4501E217K758
60906G975Q438k508PO079F920k646Q211j000k171m081J00i964L226K379j1400
60891a5759o43B113L084L31g89r27C291b908B211D03b194j3254A388a2202e342
60875c592L69N41k05A3940l929F91b16e8F35N185h865j527j545b233n603a829
60858e238r073K002e711p080q15b662H52b903l164h58l318A799A40g319o36D087
60841A2018g17D98J0384B478e921K375a160CJ466b102I558K361c350k50C583a276
60824E88g091F10N736A377J323a017l923D582K299Q7E30M170L863b659F92N56
60808A248J674L172L549k889i945b909F179f045a945j00A4285P074o352H60P34
60793A594M786B104a739D927e476F662P669D282a044j622B038a3861f339F094
60778d23a58A0086D288b532H204C560A114R397D345q77O97Q789D238Q231l555
60763H914P749n162i661a971A801e155C162J647q37d074l309c260k759A733a4598
60747a5265j191K861c851C934j015M397h817H083J425e010A0339F39b895m871
60733g766l448B608J8942I770J1324D004e05j010r685N286m972A863e895N02K661
60718b732I872l180f669n471e723j0945L293a602G10a674R3G965L892e606K170
60703c436E997e59C546A39a555a47l2k848G006a6519J61O232a001C550M8Q228
60687A1826n423o42O646C355N618J988C752b068p075J787b608A49a0688a135K36
60672h99n977F362c975l808A1234A835Q261J458D946O323E146A291D55b2294R722
60657a2572d070E432B52i011F409c490j277C673L227D42M819k57g633a408D022
60641c540k388m019l701d010I211k75g652M08m18j600A240g751q20K38L143m29
60625e619L73r00F36P709B744O903B563e136F943a465K55l790m886r50D048A120
60608i893A977g968C645P277N666E413J912O389o664J5043A0975c77C376G25a129
60592F228N66i232d64G591O90b681o696c359D33J1747n874j602i56L20k021q052
60576a0709c854q036b561G77K991A94f101D828e186E353A117d247F040k370e601
60560a2086d474M92D138R65b458D900b14H18M653d590J850J160j338p28k16p07
60544d569j033l47a387G287A240g021d21A782a522A939J5326n84A50K227e751
60528f32m206A1873m924f982O49l270A329K35f23j0262d717m54b20k701I678J052
60512A0730L050D291b009F191j224a827m360n280l111D00J028K425N282M760d589
60496b425C890N00R165J409A451K075q0B56J399b809B200d069p009J070M894n85
60480e699D85N345j169a3480b428H010e204m026j916c663m439a501m12N09C509
60464D211k87f099h54D744c29q038h75H113g12F013J383k985P948m66c184m616
60448g800q707L126a559H613O981G785c250a545H210m072a2163n591e725n662
60434a1387D495d595m82J321m919k483J017L404G198C571a6353O164k232N662
60420f759A976O863a12p845P84j122l869A471K994O199%a134p093K746g60n181
60404e941l001C66J456a302C486O372d300q60J439A455o47i331A2303f343m028
60389a0371K210m549c147k503K576A137M104J018Q316A16b108G621c499n673n40
60374i712a476j2134j162b590A162d057a60o295j623e09A1305I66e183A301b310
60358e257a456b14j2854d428F180K178i788E606f807m803b257F298L492b243D634
60342b567J46i44I291A794D8J66J111N682b20o115b099A034P515k450c649F686
60325D737a2533l967A1152E004a1222L134m89a241G309k576b729r753r638a0113
60310b950G94J4506G310F16a364D006b503p890D622L539b09o909K717k092d90
60294d993J865k011p407k286K746c044D281l94j672r4J4796K320k892M62E401
60278I709d604j041j715n61B968K119e305B629N382E07J298e434D177b373j2332
60263a4705b259B398g228k303a746l822A255N520d539k575b247I500n34C412a1797
60247B795J6206P047j2483a561n619o379q38j662N753J069G589d134A2944m115
60233H829c34D829H97J2122K293p177P270D687f320a264j18n580J685N25h33F201
60216h220L666q273d409B160N047b584j413C0c022B65K590j99N074C162e357A117
60199I861c233P95G653j555a623D845Q911A551K11e024k25l441A630J2074E952
60183a9262M622d535F462R227o202l300Q04A459c237q604N869K066A862Q563J367
60168A1792Q646G400K216i35B274d009r305N678D435K195a0865c160j558A650
60153C929L649f5r785o230O589K084j5490a1150C485b606j7264R833d840a032
60138g52F211g158o414N876b455F415B443A188K555a16B804K537d97l834q080
60123a2411b767E853a588D099N752j558J559a581H919j15a507p457D429a99k854
60108c053D715e016C556f287q970q43A2668j810f642I574b513j485D717o55f426
60092g702F161J181a746n403j166P3R99r170L58M056m680Q314F016K96J289j817
60076E784A467e34j3201A438C90i957a840c84k892k637k736K538D160b01D785
60060a3460N027E843b583M03c04A937M144J0210C183R09O226r77d180q196d618
60044h673k02q19B980R01j482P312j421O05p35h502r189J879O438K152C796m06
60028C390c522D095b99o713C460F57e571k705b396D833j711Q867c376D146R78
60013E124J3232m123j932g65o694E998q63d405a28E118a2958k997K070A3708L842
59998A7550A622g089B697O410B192i911d258E237M281K918m173O331L966n491
59984A3069m625j028j36f744j434q73B409e088q071J518q038M124O666c218j15
59969c333k038j3069A026g977j0456Q853a215C611n08o18B28a266j3133a448j00
59954a548L26A378a829j0751m873N259N458E775q44O307D700O546J172j539M194
59939A5073h65j2763e537a005n684j457E02b243B2N372a0763K005B918P00a616
59923I165j701A567J16K815A179a0915o337e482o455m920M757l79a076j4231c312
59907F978a707j63l860J620j0264L98O280b776C371j573e187F567l088d688a785
59891d750E721a382F44b3401P291B498b821m013k101K913n089A659K282a462j3917
59876a5379M305M209k833K82A036M103P381B535a2777f189m680J046L872A55J2837
59861A2992M432n521O7k488d904E759o62I25a629C734j389a597A1877B372f975
59845h238E735b162N7D166Q514d602H371J6242I302h63C535I81c445j823n646
59830a0914e86q232J707a66C480a980n481A1357k057b109D270N85A88f467o12
59815g079r699d117m401D537J050a6463N45d604A417k29g744o784M661O8L428
59800f371F92b886E281a378j1967f310A861f642J169F902d561G788P100J1621
59786B6509j1093C578M487N028e906n520K358K340n864N116a405j785o439l151
59772a2780e76j1608J026b09D972a654C857a0958k835H344e111n468k479l160
59758a6218F96a0047G896L97b543O14q476g65G342j993h37F67d771c03j648j293
59742c244k460p95D221P972l852b201m8H925j919d05G556r84J138c991p208m756
59726a5955K499a455B590L083a690A941G93K035O65N852J559e37j3355M036a872
59710f25I249D254J02f552L72a6j894E583d678j2878b368l545n465C419b47r35
59694a182I324A593a436A045J252M264i16F2L289d1n066C19e242k483E176J244
59678F420g695m644J184e37o689a066C10L590b353p661b14p737p310L83N816J77
59662h885c646j763o993c100A3726A953c572a393G220e568a869C177M049j944
59648E282H26K071b063k157A026D1g523R36q060L074b835E187N111J97k437g122
59631a2157A260a123l465b237F130k472L417q97B527c696p299m544O457K220q439
59616a5301K746m22O058k066A096L0e647D290L058C146f238K335m154a415o21
59601b036b10A185c151k266J843j253B173J3340F493B428Q3P02A557a0883M772
59586f111b85j5943C514F14d89A2788D612k127e936b71G96b162G226d758r374
59571a4132O120j820a512C647g730J233k485K539L104F328N207b133A887J2865
59557A4752c121k359a055A495O134D11h409K857q75a982k750G562l523i099G500
59541C741L407A79N868J978J798b477B56c703F466b394n95E050k392g5p142A1972
59524I112C248a124j4606K811Q80L30e207k706c885m195l050M528a571E52K748
59509C300e642A3000K35E322j230j698K29M623e791k61A706a3864K94f014J632
59494d382n188L761C222c866A146i42j0282o173N797K1b468E972a154r81H457
59478D139c363A2943b809q053L225A1625B795p65K430A276f23A0542M045h650
59463D419O80Q053L772A174M137d721A773m32J0530f199l465K11l75C142b326
59447d390m953d442A060N001k933J371K367K450a4348G47i603F869J876H07A59
59431B365K244i096b790A770Q236d669o100F768K458j55M752a469A2708m25E255
59415A17a045o840j930A492L451C04J219a032p567D147f313P8B576f855K716p64
59399d903J735E110j362b013e09A098J744c802p955j6534K858b203I996J3726
59385B3722B989c764J215h60A4670b526l989l237l455r833J260c947k187d09j1965
59370a2374l946F72d168a214n538M2a66p306B788m57q88N79e073mH382c071F119
59352A4891o025l457J906j544e058J922n962H73h846l531M651K04K446j187k075
59337h338i42I084k949b94o705c01q47C006K329c231A0565l739d196i53o492a940
59320D232M149N010h564j529L701A866J3141b005j2589o045b630B419j08L209
59306E520J861c216a595j7065j779F520a0367l076M423p287l333C340g726D024
59291A4024o790A337c889J715g25I722A416l55j83b033B015N545a122G806b443
59275f860A19a710n003j091n16I01J4407i27F647k733l45L539c168L64C195R919
59259A3114n75D239L31h825c988G481j964R00i396a10B124c255A0982J156H99
59243e089j0254G39f296J266C398O208m679J316N327L122M292H53J750h722l832
59228a2554e272H883c812D676A979d324k669d17A0633D529f36C150N15I72a003
59212a2354K783k00m378a554m959k138A3235m438A385J128a183p231J754l564
59198a0224p2m111f612Q10b533A133J1323E712b748C554b487B151d225j4534M861
59183a3898H49L337a988k696D314O0K800L007d24l664a15A4148R71B447R188J885
59167A3520D767O27B468J695qe311n460D037i871q808D788A596N743k104n62a967
59150a0884C68Q730a1498A713a252p312b813a329D064a0547M376C523N051N21
59136I095N294A574d970G843d158o413b596E050R557E06f071j004D133L312g643
59120a948C768a3228J502J560L128j2277h620i20l781o292M036E204a956E240
59105F987M093r48j553C711J534a195k843j1377a548A379g965c183m859L239D128
59089E590O31G44h663c106j661A897R585D19a0856o108M721L907E335J680k988
59074D027q21e534l981j184c36E123J1140n537B892l27M13b020E541r20c950E135
59057I209l075M638c05A848K5569I301a968E418j860N293e75B364O142l908f35
59041e335C357P92B30R084a657r175L965o666N413b022D701L00N417D854J836
59026F690e144H66J332b88A277J565o20K562J40j143J4364n141q76E152O087b221
59009A350K262K93l70f35H964M008E286K404C667K77e145a990o34A952L431q14
58993D569j845c736E302e997J247n936D400a0095j925o98N90d298p018m510N231
58978a0595c082A0438O14m562h105J116A581f307a585K31G81d276D727C8b737
58962G135M64j079m50K07J105b973G728k038d993n81k050o483k032O649k83B902
58945A2874A166h375n130b790j246B238e736n83K633a419q974j133A4303o690
58931G613M227O526B507a5016d002I614N350c65m837o949b191l12C383M530r88
58916F925J800b588I999m003c038D307f655E75a216E70B41h771b733A1480j114
58901A0366A702c025j0037b604I19J562g179E729j554A810o49b567o07N16j404
58886d062B251d006D874L84J968N499i343d277a862q570j032c371m000j28j402
58871h901q070b089q370K256G09h964L967m157A476O95d904r341b246l737E610
58855c665k212B52h757A649f47j419q819a617A79L808h943q563P824F52K063E98
58838D090f574j0849L819b281G680K1491n13j2347A784i134j209b605E14g099
58823B932A240d881l456L405A77c993k873b445a002j2388k997N12N907K372q30
58808h426o216j3d411m541c193n39l940K711h19o782k76m493c987j4249N518a181
58791d544I710d460B943O83J0506k727l92a385o412a20B184J06i55l071J624C206
58774a3617L531L581d24I82N574c349L30E955f102E915B90f915m272H15a42n977
58758f119l782o151A0159k899N813F491a0869G46J2897m260A433a2172M669A0964
58743F467J0652L055n039b911m079I07h239C764O511B702a1198h22j568p619M955
58728e054k157e17j989n300r561c459f29l222J559m727D77M354e049K101l770
58713f718l259M867n664A0474M243e83l744C330K118l94O620A919q08J1582F243
58697b345o140L262N30q514b099B993K788G47N868B556J2000J4712A1685J400
58683A3085f735J766D556c889C864N872C341J458k031M857A528a540D348A96e146
58667a3309k113N294M87k115N290n474J355a003A2395O302D261J608n49a481G100
58651D683N903j263O451l843e260j9920J2581d387J810o41a54n633r637C21J2025
58636A2346d696n788C169e255q832M21f39K26A1429A841b105j1352c433k514A004
58620B22a585o081m198c759j171A1082j168l329Q622k533a68l415m908E082N820
58605A0902R26m802j405a7373P123I715K62d576a599o987K443G059d961a039B065
58589h828q779h761m737j161J572O247m947j589A883c713k81g96k471j410C664
58573b278o139E025b205H787K130a7994l176P665b42p79r918B298e730A013b969
58557a4316H82L544F45O746d72C838c634r575H850e990j1522g524B928h227o9
58542h296A1763m473a6351L58J091L692d410h54H28b702k441j4463b193k100C731
58526I452A925a340n811b301A1028I94a4122o619j662A934b935m915L731G894
58511D326P434b042l317A118d600a306A0011j740L120k760a5611C230h204L472
58497d732I235a0161j4522a0904a574j929i13k42A5241K545q276A308M592K447
58483H347Q737o787i01D713c019o106M159A3305C512L824b526j8240C409J0195
58469A3604l534P55M635k259f161A632d042o120J057O15D047A844e920j57K471
58454c606j505a311A912e665p574c927n83A1928Q69d216q76d26A1604J375D452
58438B747c781a373A998b03r142Q97P17K784o190b197A7712p685m596d808j209
58423f017m219L025I717l806i582b085e40l473n118f92A43g789K532R9a543C32
58406b312k033C136R3P033K295E833B654A115K782Q41c550I848C762g219J237
58391e982C246q01e258A371A79K627a2158n655e662A2735A259a2607N114j382
58377h875j679K500r461h631B209K573a14j7260j261f410F61a4743K304E137C0
58361b197q012f35B400a561p303R00L504N26A0452m892N708m939pk315a048o808
58345g856b857r798d931C359h500M187j501j324B360i71F810k619a3062L682F478
58329F993J1195K674l215A010J330n92a4168b471F283l53b618n24j0165A462g005
58313g310J683A608a2496C869Q925C771L505B977j415h485j7724J0023D712J783
58299F495k794M707a66j0531j6204K249A870M076N009c940A457K255O99b807L15
58284b492n897j522B151N195J985J1679p217b036j1537d692k463H995j978a0503
58269i285L300e8H096Q346D616K868K140L152H52M576P332B09f313b894i35B493
58252A2452k086d289A4860J066A123L056D81p2P881K217d521k118K123f38A78
58236f385b67o819J726a727A1709l969R39K608D143K445k748b797j2077O660l70
58221h584J491m973L879A567K296J0310A663b145n519m88K611k567n559M09b89
58205H60k39L26O584n21g540n80C907a243l432l059A0460e475O80A6586j011n554
58189A0021C710h246i31j0365j0217c369A947J084a0310d309D425a942n203J548
58175e597J039k431I605C877a619K9o812c92j4342f637F293J595a522m486a40
58159D416h9H91a1402a991Q50H139l794a39I70j10J3743I24a037A2169n666d374
58142C554b99m671E440N72d435G328F8e559p461m9d947J477C226j363g671J119
58126f552r229Q67p45d994R91B304P135d949K358A0091i388j2156g363o899f652
58110f429K417b08B955L37d975m405J31m026b51A165c160A115K3g762j2950B533
58093a474A550B53a1418B998F55M61f39A5922k056l967l714B999I84b249l403
58078e652J43G891A53b819K5a052C259r51o23g333C644A635g602H113k634f705
58061B616h7p728l812L230A2966o160d178m297i13F20k70Q825L225A925e793F692
58044A5719c274j534N86p435K510D061C35h034b647j233P58l430J039q18K58K292
58028c781q98j90D135Q450a125j4540N347h10A2893C176i757j188j342h90a03
58012B909Q896l853B264g040p38a290I357a0951b905G090h32F018b862N54A051
57996h947L816l541m688N796H015N649B673R286j706O916c744k530B344J13f066
57980d711k633J71o36l541C115a0407b871k470p37I028i834l55c954j0745O155
57965h544m562e492I56J608e270J963a081D181e665a489I14a76B151a9918N623
57950a4295N618L110m473A876J303N41F58L718J463j30b624a194k534j0982d166
57934d468J708f13A1520E113J0707j978e265J425r481L773a060A522P720a325
57919a2310M252A3272J363c364j84A390K087a1437e412B888Qf200o129a578n591
57904g169a504J92B154e73k244E204h692k773L010L271f79p73G718j858a1324
57888C544J1417B087Q015l311m57e95G67R333e737F581N038E315J136f311j3359
57873a9670f199K344j877G231f276l589a425j570E134r71i384L731I716D792c523
57857E180a537l650Q40p810J094E153a146q086b954p118q884f225F341B43e771
57841b996A8906l990n390f851L76A018Q072M741m193L032E947N170E24b628F81
57825g281c305k188l490m829f572H453l470O334A65g005K199n159q537K700o72
57810a6474J38f996k343j3308J0418a763L5A119e685p670A431c110H360R853I032
57794A5187C986Q536A974R067L75a422m264o510M023l616M154B558d132m573A438
57778d387D310Q752l358j528a14D842J09g86j2862d765l754j0300N411D142O374
57763A0516M830o316C05a0070o71A2141E208j205j254M053i205C196J510f19A007
57747d516C076a3109n969d818l931D31J7400m809k565b271k3B979e210A174c380
57731a2012a476c70A244K014J822B163a2787e542J471k592p666E669Q125F192
57716D710i553C388g555A94O793N041n072e431j1163o172N958m754c04F820C36
57700e210O92A346n83e12J21I378K501e81o221c199k211l744c047D291e554L80
57684e174r241J573k389M920D170M820m304a1569a608j1667N303E165a805C044
57669a6461K001f386F887L061c332h45j8661h580D175J237e141A243f233A101
57654F332N296B048c827O40m358E043B368K813b971l813b554B556g937k69b596
57638C952h319J350b8E728A732f77H791d346P74H140g286n551q71e662f79G853
57621b889i42C149a0092A965M414c875A147J4328A479J806g593J114C482R440
57607A2922h4m610l752L58A341a7854O747A519a438j2348m325h008C558h348c524
57591a123l173A817K915j281a2416L570m66B6R441@f214H18J0559D483d308H67
57574e49m280R6E56J125O674l094Q42k447i169b042j671J104C913K952A266g937
57557f259K031m626P52k3510a2864I03M337K879k326N67a439E061g714b451R07
57542a544r149c569n451m673A081L50J2447o708N16A321f804A940J062P828J288
57527A2118l758C263K12a229G600C349j164O437k920J6389j0535A077K743A159
57512A3160k312N031o247a3610j106J766j883k800q776P655Q030L165j974c347
57497C398i712j62A964e628n747M832A463L649J369B37d757n1a252E2d170J1k601
57480f760a366I82a0986N328I166O678a028j6223F600a1500J964l283k24j279
57466a4322N405c088A234L211a1373l549J516L076j251J763b041C111P399m644
57452E866a3261L338j1331b883C354e654n056j848K564B546a3216G147Q64a2465
57437e022E719M53j565r83F49N183k569R557D980a960m471m575L348c037j2533
57422a5570g771A038M779l71k717n0K131d676B660L255a226I310B103c065H124
57406D402b17r996b791B73d428A168o3O280h12K16B824d29I233A299i14n872j065
57389g851a394I68a2737j159d540A699J3189B801f182o829C634e074d26B82K022
57374B304g377c293j184j3547M697a35A62f048H576k9l944k36J971g211C956L61
57358D317j094D30i836r268f191I666i010n494b718C691d626j701n404n135M470
57343a2396b471I140A779L322M375A551J651A103d24n955k039A0599l529j741
57329E329O861l469A79a1181L306j0976L345C369n23a0305m121e781j4306h356
57314e900C435A435b841m216r847D748A026d153r738M715B808b993G670N953M954
57299A8577q765a0905C5P881g277a905m325q157A089J042J490a1461b540j170
57285c710p349m933e580l06b316p68P08H17A96a569N88n851m729F015A236a1740
57268i245l666N822H074f567F98L356B88g121F916l127M625d961j633m212K596
57253h210F66h701K235A349c684q652j211c720B281a0821J752d168i14k167m388
57238g469j4974h581r571K826L726r273R149a201p956L285G057c071m364K188
57224e247C843Q095M907A522J979j377a1555n723K826N043J833a096l204G70c671
57208F97a313k019k624J151p263j091e666j241j690j625C332Q425A504e752A122
57192d645j099J189K015M80j2532O924A684K178R726C823e378j4936P748f084
57177f652A0645j750k929d700n596d326q11D172a500J93p810c856H524M179f400
57161c479G437e882j918j5433R965i87A497p25N875i607n372j90L674d471B553
57145A753e434C4f93E517a797m38C12J3770n289g11F338O102E134b470I143J769
57129A0912B295f70H099e495E616O180j554L782o031H68e963N07B447M531e835
57113g545L486J571k073E281R79g162j148q44H507r99j354j314g078D381J589
57098E970b739p486o714g894j0975l473J0653m450e368K436A037P215J072D046
57083E711B445N169j894e530C061Q969d558I134K970C1e787j0398o010P002J684
57068a3509J852D379r81a439I514d054C182A263i668E37K865N014B477L505a1866
57052c483l442A2805A963O021R186C087f662j0085G358C135A18K80e523I658a0167
57036a1647d390I78J0M828c249o934E717A551F05a8078P041N303A51g061b195
57020A190P75B88K303O447b277m265H422c902l777d33B775M304P97A488O623j168
57004F943l120q96A39M067i8q310B624N66g064K597D180f184J226d77qE167b176
56986B571d20D123a2531b877o268l36K853Q97b607D403k021P317k72P264m383
56971A2308J3632j1479E251J800a1441J52j700L213j4529d794A8J3393C53e189
56956b789l667F529d998C076e259K553A4827k226%a286A8315l435m95j913H45
56940d35A6911b99F7N606A324N728e890F585K051k330q90b546l45C192k55q56
56924B081K545J943i19m944r505d700r07a010C056f717J096q74J313J150J828
56909b204i64A979e734l989A125f110h39D271J2689q340J818B364a3909M721l249
56894a2437p082P281A231O168C021J500A891a229k715j1354c007A18a213j0067
56880a1280o933M740O220j5499a1006L094F258N7n50L653c197C128L034a952j1917
56865a3869j4300i876C577q29a0223A573K607d640B729c760A2793C868J335g153
56850e847A0093N01G93O216M959J1756p023p084B433l5j97d5n382C098O919f607
56833C92J0629N009b553n242L824B043q61L160i557E69P52O53Q140m931K592b388
56816a0716m13I561J180n223C57h416J81l365d399j882k458A096R003k521J824
56801I402f923b369J55o960a003C713J3395H2b259j0997f479L00J933c72l151
56786c523m444p601N399D4g613j4023J580M748N968J514c017R98m163D27K106
56771B533g917b161o047A074d20j679r52j325o524N106m372b26C841c105A1772
56755G831l402b880l24q738L414K805q802K968A043e237m335c699q265L735L608
56740d621L5A629a5205L616M799J772N44k81d31A92P71a92m893D941e522f50G648
56722A694J486d466D08d166A800e517k594c447r593r61O474o059I207A554R80
56707B534K091j385n52e231K398o745C273P329A485a3716O307A348N169d873m095
56692h968f69j0449p538e033A0204b834n105A526e941r99M33p501M38d794r171
56677a3965e995K518G721C37g570D395h535g18j087k269R39j3959a446F972l76
56662F596j926j187g18q703e47C170O155N163J049p434e319n402B748N461p07
56647G502A397N291d639J842N84k705D690h583j0017P755K704i70M47I501C809
56631a2158J017m5F791O133D854c033A0903j729p80C81N761a732j1571A170K138
56616C308b450J100q63j6309P540a710r66l430p566c156j427l541A730m99K655
56601C886N691f353k948E754r19j161p86i931j22K863A989P197m176P325q38A334
56584D939J5503J594I976A846K125M289O2h346I60J0254K80J255D309g325b253
56568G21J1385l382C051M117k137c57j0375o98P07K557b431l072C32d203l163
56553g366A292c686A1399K768L628C617b471K30g24F097e515q11D650e504p99
56538f303E318d103I36J1205E362J2642j179p543D23R154D538g036o534e698a3
56522E737N735i59q52o355a947l759B890b514E510k059A280P649M015m945c093
56506a2376J785N008m572d786D480P5R851g823q35D515i996n477O573L761D269
56490b293q700L960C297J227f602C382a2298D015J084h135d037A258b693B300
56475b036m990j883D158N345J168h204J781A0375k719a298j391D91e350A4142
56460I658l78O111F949N2L32C476J231b987P08o821b951F507a0234c200I865b80
56443d794j34j888k4226J0323a0062J316c408o942j662e858A22L857a637A1909
56428E724c694r975r827b125E277A975a0445a7j0609R82N84l503b04m548l618
56413h370b291j853l111K199r244m603Q481b258j070r859a984k177l629j980J124
56398h646l68L341H658Q017a746D788F8g186l238J647K805p999A411f817C515
56382C265O352e731m13j501B838D66K763J1640K992l871g549C638K035P367F56
56366a4828e562A854g869m788K004c487n99j6939R837a814F800M209C295a092
56351h31m638k041b487q20F929J182j717C035N52i49A461M508J8047j1155f656
56335h484E223a997k623F433c115o76D387N370B134L94N097L856i457c022B733
56319A2104D452A515e338p299A0000D892j035A606f534K920G004L192k406e124
56304h059L825R70D962B066a245n280A2106n393a0048M727k9E094L574B414d671
56288g145n822a545F672J80L474b617j693o359n020O077c498A76e083H884f389
56272i104K742j2699d900a866q799L004N09A247J349e937m611L07D185M23c184
56256g743F474P251B646n52K480h820b023A5717m207J181O20o60B47d328L4Q18
56240c476E290N974M882F588R15c501j0033f457j486a053q931r443g398n131N185
56225g344q169K234L038O28a834o20DL95a822o600L180A837P110r3n4N695f06
56207a1612L763m40L73M68a732j2795j47n692Q454L528a821k807j346D105g342
56191E400O256B697f38F615M303a085o639g84A6161n285A538O729O453j512C315
56175E405B399J528J459a4779l544d945M02a377q340b3l019j3876K144M885A977
56159A0965C240c549F106b777j5807d825j58k351A1503O733G6a0067K590G880
56144a860m10H99O12b292j2987d38j2002b848m04a479o155b042n734o212b597
56128A180b441n802J434b019g97b84A894a2218L165k1526J0542B843a1981e636
56113c276i32A0633d276J973E021j510a045e6E076g999J816f63j1648q808R371
56098a1748N232J705p067e79A086a5689e595A3274N53C363d350r84j787j0461
56084a7582P108d988m314c11D849c493B509c723F455Q241l848l608l287b557m710
56069g267D934B235e05k375l633e16n676j718c847F032B295f378j1211K488d064
56053a4079M681n781R82l984L185f631q560J127A4130J818a571j799B016L049
56039E065A574a0520A191b406p064a413n489r44c513E893d46A493b505B189L517
56024E706i857D284M840C313f966c473k701k489H246q57J3597F980l31N623A73
56008a7870a050A113O129k562h123c863r955e530O70n01p913e782C48J0757j668
55993I437a18C607j046c743D320O914k701c924J096m304J70C585c36o353n717
55978a2406e579a826Q38j1382J764A24O853e945E980G45e785k219J402j992K857
55963e737K648p333a22A024J0557b220D086d459a999o866k616m181J680a39I350
55947B0435n572F324m04Q83D59c752H79P26L061K724f114q075K115e315m672m79
55931a0466A684C51c250q20j025B508a763G501f479K35a595I608j259B039d654
55915F964q18J469k502O34K135h27B185i004J821A2094k436l886B152g241A852
55899g840J029n982e981K970F839c231J154m767j2728M158P037k347j384p75M567
55884h316C099P987c182A325J1427n816f965b064E023d057D058n10i035B772A7
55868a0853j121k389a65q639D079j361b845q39C974L679J050f88A1426m195I33
55852a3175A302M819h89A967d824A055J468c844d73k165k355A325a4035i0n225
55837e315J987B401M311L362O675m881J271d471o420d791F706O637F287f587l978
55822a0565J122k04A129R186K534A454b500o890L308A715b699j1142i40q04A0083
55806A0536C321J1077k724n270a329o75j271A8016o587a321D652i44B302e503
55791a2267J598E387O139e987a480A3357l934b462n913Jc136A140a1983K23A42
55775B494b019A957c757m584j460f80k87k025m64l194c037r554M774J659p39j8234
55759b5131J336d441F875a4347L223d648A539N005B118P600B077M257h373A84
55744i021L390l557j878G441M036L747B727a448I021K306p75P354F296k86J571
55729G581C25e526A546i767l423B008Q66A133a1190j88j427j337a763j2722m057
55714a8542L044N029j317N272F998B124J2383m154i489b777j981J992q265A914
55699A9717H793J4961o113p534j431d46q383c445B80c753L82A324J1241L068B993
55683e927D127K280e772b729k286J135l636A2746h444j3310N329o425f108l314
55669i422k397c058j409n376b607l920m012k998a043m786a481j3644A687E32d369
55653E326j04c817k533b947k929G425b805m167A907O32H5i40k972A1428D318R25
55637E243h107J12c679j0203o02K394b517k601j3324h902M033o442M404L432H244
55621a4334j716f942r934a410q766m995e610K550C233c496n231p989f261b77D442
55605d703k042A1112a0641R49G380R257C779n76A303L873j331g449j918L1L329
55590f007J556l37a121H010h809D060h745n768M807b33I790k802g564E201L930
55575I131b957I063f1j2150F402M866A663e199DJ5819D665N938i928C751b782
55559g149D941J5500k424A776P420l929f251p838e651A094L613R341E822a1213
55544I47e280C509d230j689j854o90p086p326d582a446q324p757J062k773L006
55529a6232P887j802m237d840o912L190A534e384l853L972R68k670e8r447a144
55513A4973C499K472B627g107n934D091m51f570B785J237d457F343M916c499J624
55498a875h38j751r309B833I71a4j36k184H025a018o906K045a319B453L733A033
55481D879L678n28a359r014d616l779C987b413k586p128e258A4702B813K82M660
55466G755i440n331A3654E980P221o489b530m014R06K121D211j343I90N673j975
55451D688K257B456r0a1577K261O00A392Q33G71J23h43E862K87A543d685l603
55435h288A157Q20L102A987M011k413b049j0218M829k902l167B053e093A008K23
55420A231a343c40B954K965J73A031O210f829a897r637J115b837a1D688e198J911
55404c287l009r23a110C459A605a386l951K420j7812e032J001M60F511Q628D930
55388D114K67a991A1917A16e20k269A4248o263l425D17c354j507A708J28L642
55373E478J75f236G884K513m666k751L347A708L468h322a540D104N678J798J228
55358A2808J056j505b003N98A407e135A59e154k835O56J483k81b926k437r57J28
55342f192A1870B466g896L025a917j0996a932D229e731B208d145l818A776J55
55328A931J516a75l362k046K695o964j0716P476J520K192A575f599o10A3347k891
55313A0456A149a1587K107l070J234b336k934q289C940L940r08o43c808G039N949
55298A2988F247J87c298D919f36l277D330d422i09E42c317p718b858D292E27d431
55281a374p606B85e829j1698Q639J503b482E73H7a9342q635c423o168g72A731
55265B736g740j3744h935L785i46j029H536D183O16J065d822j0896c931B894e443
55249g495r658d800B998a0493F20P258n79f87k556l082j719D587Q278D028P236
55234A1264B977E99h06j4474c910j4467Q704a345C281P129B835K427R36f05E510
55218A5588c913j0053a32l086e47C194J532r21K516J477B168g316n213f92d8B700
55201C2L101c037j7377D92R571l853E84h351m08j177d780j04l929c212I164Q569
55185A7733m761f305p494f532D647A681D04a0426B427R317n667k001J611K863
55171H550k828k302K435J0492a704B98h082K227k325m044N628k900a65F626R910
55156A6536A960h163p24b240j149R78o290J747c147p799M244o457Kj2494i647
55140E331A924a4471D531J3311C758b151p965q676Q898E353E22M60A72N798e717
55124G032M703N43A844e799F499J486b436q600l312L902C70J2515C668O35C25
55108B00N63R44K481i469p22J96d881j1754l157J374L717f739C462a5697d452
55092E185M836f328o188b826B151O56h404K778b768A487i170J789K21a0p117B615
55075A221L733g540i37A3131l850C952g970c972J929A0868k72j837e780B245J810
55060D055L557J388K460O652o014l568A097M586J722e886E28O2b581k656o679
55045a1916d402J42J745j3496E244L261g841b682C041L905g68B627L496b43A895
55029f594r606P894A1478J3731o335D780L068m54j432N664C152p70J207r45f513
55013e785j036o15l716e309a311j0012I474e43r224A175a242p543m731N000l621
54998a2137b954a97I08R683M081l236j197m618a352j884G88M15N887c313O72n176
54982g817J916q114l574P391K320B124J220N100E26K901b657a147j372D994K692
54967G686l575A320J0891D11h90B014J974J449m44L207j808L128C020b211r248
54952a1459K054o352M858P4l448I896a742f81j004j3934i6j1111K832L99j1906
54937a9882R068K413L094n14j137n853j958c03n371G283f488K095b052q088o930
54922a7070B388h616j009c374q894L699H07N190C28J0329f623b783F695l217a4661
54906E491k012M272f931P50j215j0350O188N501k29l886a72j6452f823K054k729
54891g498K935r553n194m255h618D567E56c473o901j151D18Q759j127C971G32
54875i681j0020M780e87B413b265n357a725B508a059D521f854I475d088O10l371
54860f849j3031O805B004M116e60A634b584B057K981i502M447A7134p205D495
54845A201a0853J092A2460j674L044n562B146B11M488m27G25O414o73J869J0476
54830A8811n194C008b208m805c293J632o79A3446i20L42A943h409K464r355d070
54814b214A1073m096f35r513L226a301j1050A007l75a0981a374l792j344b825
54799A0603A413c080B062a2007A968H25P52m31c970A377M655m74k328a0840j1179
54784b2019J150R08O372I111j22l983q95Q69a111q944c925m683A447M033d982
54768a3223N821E215k230g441l808J182G618A231J2743L16m7o124c855D969b36
54752E850d00A0634J1694m073o366M925m007k558C1e938k84k004b412C139a0950
54736a4068E89R108l381a139N35j0832k720M42a522F854f384a769B085o24P924
54721I385P502L492l965F722c079o319f93F170J818O444D471e643n767B780b349
54705a5133L376F425A230a291m519C910h8H993P913C604a813l808H731C328e235
54689a5913g821p64D660c668k142b193k10p95C968N111d073I84N210k974a771
54673b281A4346e68F843L916A062b886k98D654h685g31o01o449l033L375j0226
54658a7665B013K1065C095D36J1892D220i63G11J0806k011N369R90j867h605M223
54643d382A114i134I33b384A814O186A662N708O086B191A95a3571N903G92g288
54627b905I187e269B172L221f938o18G86i221j135m347L658B426i843o051O590
54612i304B519m13P823B49d981G118b143O81l471j1422c315D501A375k32A35J3509
54596A3644J923c685a7k715k840b232G7K583d682q131K783K227E964J25N650Q373
54580B0112o536E607A19N932J492P818l856m826c999l761c641G019C189b369A1793
54564H380K605J359n782b119A657a662o275c915J031a348l35F472J187j247e18
54548e693l05O12a321l241A642N458A401K441e355l897D697A228a235o430R69
54533f696A1097B161b475f04o772P02b611b37F478d650a943I269G53e084j3172
54518a8256n247O063d504m225j5159J1115B055f218L35K532e86G913A888F5d836
54502a3309r13L065N354G994l218j525K506O707E420c509D995B110b096m154A684
54486d784A329K572J960d257j171h46o603a472f02n482o372J242a60m666a408
54470A922b410j1092J417l290J202E991c551r02l502i45F550B340g150l085k180
54455a2415d28r964D042K114g502L440p651a399A0628K19R32e509a686p347L605
54440e428P25a220H607b702F315j121J0498C690m77g244H983o21C917d513p079
54425a1592b692A110g565c529I254b828F518K330A852a493M07A0007H20a1065
54410c46l208a657E392h410J58B857N901B146e734H615g630j220M403D947c044
54394B08J3172b03n876j606A737C51a1361d796A5010G378a329l612n596M543K391
54379c603b15D558c349l831b037l926p341L108k649a108H351B87e412p402M54
54364a2360p805h240a400B676J890J672d386q018e574B299M730a886H30d504O74
54349c830a162l774L60k601k671A0628Q25O706K337n253N91F575Q212K512j367
54334A5932C260d863D115K453K686g521j1191L274d285m11p08a88m343q288O013
54319f806k360o221c91n170A145M120j932I45f875A33d16l224c64A960h461K821
54303e640F36c414m30j4003g122o55dj4838k722Q387K680D868k213L914a15j0874
54287a0989K226c055q181N471A0784K40J335D537g751D56N072q80A52K139L048
54272E339a322l066f99j1357d315n407L699q402O667E002j539d442j713b659A0209
54256F928c041A1216e806n97J538j988p905m71P316I17e589A614d634j095I7a0204
54239A82e737B545L986e412K183p055d512F941K06k905j002j421M776C268a4638
54223a8150h965b532j858F238N100r05D760A772d396n567m050m412j93N840M474
54208h304n92b003E89R527D946a840k1111O547g881J21k302p01I990L156n480
54193G666d070p926E985K073a3621k139N57K406b978m471L333H583J144P932B925
54177C861h047b011C04h192j727I113M576A290g266E68O187a701o685k746C358
54161A788B45e065k432o96d32r371e82p083b065E71g235d00F425A133i299p509
54145a6808f976P0q163e481c56G50L74J090J007J4975o048b81l113F23e305k347
54129g652i20l056A3J884L82K421a518P33B31K462L64a929D993k151h758j163
54113i921j533o105h002E965N38c179k459m085n062I457K313E631D18J1572n277
54098F713a385m81A2270d59D953A022b7292h995J672b364R56q085l039C492a4338
54082a4931M542N068J450h78C989K55e175C15P952A795L975P994D067d644D528
54066i021A871N530M294c14r281O65m083d405l844i7p553B080h831j327f68j2490
54050a3158E050B295p56f822j137E012N754C623M291e83m518j4909N195E627A265
54034a1446l406B614h60j486k475m954M752E446k205L485B423N12d665q604a737
54018d184j425K446c70B628j297h120j1285N148M888B979e602p06o954C047J201
54003D248e091H768f237D026a0880n656b894B533b185R86j653H030K139J1042
53989B1211j522F110K592J0082L68n317m517E66K636j4K747g06J28A497K941a776
53972G743a0556K455K350G09d079r803C911c938j4235o91P707K604n95a84k12
53957c96F985A779h053J238r670a608l231A2029j877o03m308B151M901B020b530
53941C323J048M881a81B68i753m701d388m587e37j0272J935C883R268j986k247
53926H918G13c230j462D674I05O654j311j256b608F653a3193c113D232h287a17
53910a0530A512B29J003d252o301k261a326p547j579a943K10o548n039K224A067
53894B067K763j188Q74A345c610a566m032f63C423J853M248G59b394r32l741L484
53878c583E452J680k935J2231M794D445c981B180M356K788a0008J379A381J0405
53864A1786l148L566M73J76e796K010A1528c557P83B238J5239o399e118d67k949
53849c416l483A12P158h36r15j840j5278P25k260c674A833J088O201R903l738
53834A5287c666n11l459P04D09R76J1163o208d869n852n975l305d087E612a881
53818A428c734k765m530J073a608F48a85l283k313a951j919j409b407G762Q195
53803A5957d148a729E720a0835G268L759C230L073m22a455m828J362n321m921
53789a5163a624l175b31H072A273M97J054k39R197k788a947C030J286O2e01k442
53773b943A322R656m964A110d986d24j0401j714d469B09d019m212B4d109n886
53758i995d763j287i81k500j489B169c663A0085n39K147d298j2555O102j98j0226
53743b1175Q683C810N170a804j0413a124q122a357C11f361B03c086r811j130N95
53728a3432f331K479b85B38M09M412K084B175a528L40l384I099k387M94C330L543
53712F873K827D802k233L125j266C9J6515p80H90M789L76j795L435e784j22B141
53695a729G433P867D067N114a268c83A0659D854M15a754q894c132l436a391I085
53679F133p78d893l44M26j263j222A884g516B369J3005L68B03h511J174J911A785
53662d781K53r738A176K166b926j4104e259b070l704H761A13a1241L258h71C936
53646a0019K030r859O635a767B544L370a3026F396j045b051p873B075J108M134
53632G317l498Q517n821i88k232r56h80l74d9k283G556P366K094a442l529A2320
53615A0875F03g862e33A4177A771m47R628L458A806d261j075m537F196O23b627
53599D814j579a1344m995b989j1593q85e622H492k180d257j5653b360B720R100
53585A1820j991j124l521c531F184h48I364e993C83a368J7A1953m685l167L013
53570G114a1667e352a41k375j5228P763a998B781J766g438K078g83A0981D67e636
53554H418J517j446A648e553M58C19K815b183m263K823a695l569k787m941G70
53538a1344c246r003L113a011k381G616J382M568m988j21k89a1383p145a676A753
53522B072j42K786N24a251E384Q477D765d40l650l042A3466L102B633K546A527
53506a507j1458k179J336b712E592k405b733K59A842M927k619d769l967m044a127
53490a237A3256A336i234Q46J949H51M20Q486D637g51j173j728o9C005g794b080
53473e988k299b551m178M06K44C274h873j247d086J619C576L631P29I71O981l030
53457D922P823R87l374J018E50b209E219e312C14O040k826d087p303K268a061
53441A1191c019A634l75n94a19A4532n700l407M41J5210k343K274D272L682P709
53426A5663d170k270b769E729b006A0861a176n74F31L809c639A2349I17i407D91
53410g676q163l616i177A0737M494A822O780H89a4540L837M841b194k441B752
53395G425A020j19K506K305c162Q83D935L004M074D134E84e016b456O33b39o572
53379f811J564A255d193a930j6543i34o328n98L72E25e650r289A879J415i195
53363g494c175L80B493O2a4392j35a277n340B556a3965a014A9237K05n000A312
53347a1503E447J57L616j254a697G332O13L392l403j423K165B982a0915L810a834
53331d949l246j738L962n520l333m625c695C195h1C676c104A1813j004m713k623
53316C473j171b611j466a95j3839p156M918Q024N80J686A1068b97E528b590k134
53301d724A7521b773n20p891b341C176J975N71P29J4159r533m870J638N54I32
53285A261f206k701L180d22r431K788b738a026F102j807K937k255A49J866c219
53269a3375g7j4597p03K567f310L10n160j192N404k067r602P450c330E048d27
53253b577I422N040a505j4364q56O738m67b814B920R131B548j147N64d804G429
53237b29m602b114j0013A194f876p698c337C604j493D82J2848j867K013D377j563
53222B814J845j876J296f898B232A011i875E079j606b291A0428R910a0481m810
53208a5291J683E449Gd415A2541a2935p888Q14e297n196c392J410j324l29r09
53193d544b45A1902C174a0900M147C98R992B844b969D518N773a016C798F76J0278
53178A0954O488C756f657i80A6356g95l467P77K28C198g115j161K136A595J1264
53163A2859J0229r104J3727H507e920H950c888J933j796c72m526a999C109p77
53149B332h023q23K874n206c869j192Q52D797J0477O177I696N363c720j2126J403
53134a4443L06e752r2q06m292k112Q44R23A46K746g475e30n106H016B05g422K745
53117d677J868q227a655p834p775d399l804K217j32D064b343L54A5821G68a1614
53101F891b251m883c281D500M593A849N920k373r85A393g541c047D796O935e909
53085a025H619j963B593A108P556P345o989I80d208A401Q759g811m582f097j0629
53070a6726N08N327n83A40L89Q551a429n310D940g638K116f32p260D765a447o019
53054g466A752R801D290A293a196k436A2754b229j636j753o981e261J259j675
53040e677J43C271a2265o162Q244j032o928f471B52e438j320n13K426G000L412
53025A0412f48n383e96C015i653D008j120A245L441A586L125L084Q08a26G490
53009D768b989A0352a678j360A534Q408k5A943g613P73L240l974D59h632k130
52994a0762H5P597J341I50b454A619K809a046k764j794B11P119f312k449o127
52979a4888e239J551I794O441k804J907C55N239m62d712o523J839g46q571f22
52963C29Q1e407J747L65I44P782A735B96Q530L851A67K134a1576A0245m413i457
52946f584n325B376e367l910H46l34O335d135N91D917A757i688j644B997J050
52931D047g71G625R84A796D6J261h247b593A1394J214M18M591K98o228l872K342
52915A0157q56k545K931K596a390j1546c827l711I099C727e649K256G876l119
52901D757M256M860r17A551n38e821K831Q73j236G33N335d329n824A5127E877
52885A0324B295N104h450a732A4044J4764l751G125k590e521k076j852C575C85
52870b918D913i176c064C687a0766B85N504c200l276F516f262l584a737c80E81
52854a937E179h040I69b906I99J402a1456K253G590Q65k344k850n04J2234B362
52838A0127A085i941L468B080M118d848a704n84j4106A1314N467H098h598R82
52824g616a9B979L890K620J873D863J681a377B17g581k197m294n350R696D973
52808B208O664c053B616K512b647N34E618L760k555l282A070O692J980J1459m75
52793B0726I685D383d312f78E282R23N260e444A878a183C467J500A044d264J206
52778c058C686a3072J972i43A061d295j2411h295a631p535L357D685J665F36R774
52763A0410l962E23R54O390b475n400n67A258a3977j667O726L143H390c867q21
52748d688j125F019A106g715E928L210a12k78A00M677R53M349j585M740N576q965
52732I845k351c82I153N232F061f36n010C575a2792d976a125p304F160A403b626
52716f9I556J050b19p087M75j66C311A313c425D024P86M203N337N5m684r07j979
52699F835k070P495j499B629i993L257D909J180J650d020p477L312l458C500N992
52684I492R891J751k769F636a4873M953F42b059J16F206J178C385f435I335R838
52669A9173j966G390N332n874b370D96j20L597g26k28F017A537d91A0196e071
52653a6525P312L079n512k187M994L924D050O922B972h414N09G649O100m443K345
52638A1651b4642J22a1270m621m04a300m594r052e715d8G786B747K410d486I811
52622b239q5D728a966j459A8940q763C432c678G024K629E23J235J290Q791C743
52606H752h15l751q392O52j487d345j986F329L092B712e533a430k4k03C492K833
52590F325A916J410d447p64D954P149B981f267i81F686J2089C558d342D263L663
52575G926d280F397M207A250d121A0604l920N672D268c113o401a637A887J2150
52561A4037J1030k845G144A435a27q985c853j5157P636M293C708M943J1564B887
52546a127n287P61o289j2961N253J097M627b558q2D26d34G30J193a3819d064J939
52530b125e72A677O559h18n77L52C77J874a792k209a93k10k371g54r168j029H230
52512G920b255m238K635I879q20o60d278P89G096a2905a640A640c750A6173l633
52497A2540D897d624a102j16n765E415P018l309l485P462L526c945N5b61A340
52481D460R827A907e48j643q222M097e1A2376o53N065j78e889q937N114m562A514
52464H73J2406E697a2180p286n845L147e332E966N433j776c51r749g34A0902a2364
52448i643F177B182O290L374n288O37j006Q843o758A952h960j543a910j0469M315
52433h064L090q379c170r779M80B047O664A772d807C241J53k47q01q4a745l635
52417e380E013A241h618a723k514J172G44M106c892j402A722h896D718b916k883
52402e799G487E81N216N566H83b774A4282F220H20b38G102l271B87M348O740l737
52386G638B566N757B193h96I389O673o032J451m790L27i247a597H443a582p188
52371h770R29b395g59E092h897n967m936N238O723k552J054j52E009J6186F926
52355i73A1185n010q23q81h173C081N258g82D994k255d34B872J433e56B60b871
52338i456j957B676Q011m009d420A145e552J998K0p680d102p917f47n539E915
52322A7109E672d548r348d78A1031K840D329b386K63d39A954a071I675K384n600
52307F459iG836b800O77B014L627O194A709J110J0058J69D742c13j42A1060Q631
52291A9691H728m96N12b460l169F19J3250E203P26i032D887J683a1056G510K524
52276A0034h257j0642R136d796i77A3888H46c418E085j935e12E666k761L71M636
52261G912J66a07j4204e509l210j324a347r955m244D312a2986j953D0M596d790
52245h983N1J34b301A0908B812a4463e980J004J969m338D86M929e08A6069e827
52229E1K2062G410I98L894J2223B676M931A750a4312N009c812k327l048k296j029
52214a2512N820H190k486j210e19r95I804L494n999a072I822b180H156K434m73
52199A0117M438o733L802D131d973B701J4728C342g865L94I471L563O51B299J0091
52184A2390j12m077M224d550Q40j1965a605B607g711k851M776J158G406N168b833
52168e220B435f792l429M976a452r534m50C113b280D892a824G525P503a76D019
52152A0118a1600k055L797j1h61o537g55C228J519L428k113a325k529n832b943
52136b648l353G689A18g444d37l906j226B994N37L59A920e734F438Q42f808l002
52120i810d352C20J91J3218J179B06a8479J052L911K039C95c579o085J147h33
52104E398bH207l933j616R50J920p57N620C485c580B2746A0324a549H751I24O431
52088G355O10c068o017J130G97Q29O605Q363l063j004d733F265J2030A20O1a3450
52071D362I06L189a489o900C152J7171I355B688Q737e684K053A1302k793l735
52057D774k084f601K721A65P286J569B112b129n41l971G267J975O0B960N062A900
52040E892J5834K805o166n276D08d250f31A4651E683k516O196h862j5087h936
52025a5168e685D836a1076c362B894R584E120M168h866K851D314R954J569N388
52011B1225A521i032j025q931F88c116c71C193a5900c834o553b620A2333a895
51996c612A495A33L1M108d430m14m91E633Q789m554D322K206J531a2272I981P218
51980A7199A482c588N57I782a2238K165L128B867l10l35P12b139l342n638b03
51964G873d097H257b663p563A220J053a421D638Q038E990c70j042C278b514Q18
51949a696A4989K220q020b764n302F833A57R48d729Q71q309a823E275J472M450
51934A1197L863n993c431A726P307C753J1344a856j1160d768n424A166c72D831
51919E617h177c961j910m621c211n743d262o424b087j84j769m303J839A589b585
51903f997K147C2e302a466I975J415b245L34B164j23i33j5379K659f316A0860
51887C166i964M182q03J395r11l881b697I949L858l914b069C095g62a63j478A4139
51870A6496D725c011n955L093C318N670p6d851l070l204l795A0240l584a589o11
51855b200A0784b41m237j0979O148C843h155K563H17J976P769J944l938k0c50
51839D016e370b34n477E081a2309q790f694m07M61k592L55F472N146g802B552
51823a9m089C16Q345C405P602l982h167a659H267p13a91A727c450a673A610e547
51806H617N534C410J0930m600B381k2c644l596j241J990p919O923A3932F860l069
51791C791a719o756E692a1801b281p342b491@g006A137a087i3F821A187L641R018
51775A3846A516J0297D593j472b956F990d241j432r55C466N882m648h972k835
51761a1807D098J096M425C847f840p795k215L112f191D869j589g550j852J349
51747h053G495K517B323J927d57m540a022j703n160l291C837d221a013m879b203
51731G416A061e41B114Q00f87D811F93d155l551L116A0731B863g643N37a102l893
51715d995a435o221J952H6a6825e371I769j921B406K61J322j084a2775d441r02
51700e343B042P877b868p757e180k743o100d339D973B28J0583N519K027q302E14
51684b00j1436J466M571n496L967I851j647a451I514L228E313a807p929c979j866
51669e845B540j113f465k463a319p149c014j284J136c77j801A4596c77p672H860
51653G504M260D284A037c384D945Q287B876L271A982a734k488a643k656k647k0229
51638b7175f943b881q176D274Q663J0489F488A782d74l643B704K093G88a5781
51623b3814R033g125B702h862j0525P231K390b973e78A6068G761I86K720f254
51608a0934b091r270l995I103K089e030K029B108K975M366k744N891G3c384j0118
51593a3502a404A805d048A305R292m430A080i825q19D069f480j424o583f663E957
51577a654j0183K874K614J960B223K126E13d94j1363N501b971C190L40c156C279
51561c430A077N89b037E560K389L562m640c073B834J086h771E456J1400o855b123
51545A824a1182o707b007j1931f79F82g10n174j49C483K251L129J1475B823A308
51529a470j865G729l89Q486E469j841b355C455L476A467P862l999a8774f76k941
51514c617B076Q372l985c013r116C922O97Q400n143k961N17J385D04L820j814
51499B410g780E127O08N294J209D850K661J819a386j1073b165r469J24e156k73
51484e429b96m073k690J460i18A944O423L062f65I07Q939Q669m143E163A484g619
51467a914o900e20G035N216F043a07A0631e716k618m008A0M129a0254D74O416
51452F890k592c057B814M596j554L796C075a529A020b279J006A0318J655c609
51437d654A0326D816L44%i756c87p858l08H48c668j303L11j1297b040r44q183
51421a1167A330F46J4519B962B91O3a075D35K052J0723j401h290E915j465a773
51405G43f539b154k852D490a540j17C598c275E938O70n85I38e468A6263L576m215
51389A5624a6496B098a91l630B26K801J7143F284b94p994E659M041N322C278b867
51373a253A232e938p147f391D227A546M731l54L54k390l40j422a8211N959j439
51358a3691H8Q634l083J4154D998n40M241D291a412E133L57e448A4486o103F23
51342D508A040i86A625Q781K959D898j30A464R967j465A722P787a832j4799N302
51327a1329d354A1657l858e617b249A3270N920e656Q38J708m800j535c461o013
51313i474k621F632b744J206G657L403P484O62q957l216j172k851J14A56O043
51298F199P97J1800p772b233k21G741f050p162B737a1356N049C94i266F71L577
51283D248A388Q72b39G961C937c198A3655n019B946h318k464D46c718H211R14
51268I125c734a02G291O777J871G247k949J538K535A354L832d540m547k732b009
51252A407d268a403F248K875C216b844A1983H59J748K076a9906N145e238A4048
51237G189a849p500K274K109H10a6294p215c984j244j248b461A0298l186c729
51222d334j401D378I71J224O299N403f433l499B563b043L6j742D966m46f359l340
51206i699L956A0624j185H48b743j666B405e396C377A012J6P659C246j611G34
51190F60i086K390F20N796J1966C927M794B071f35H240C302J37L23b075j1265
51175a3340c151I737B940E84J957R593N700o522g19k93j952k896m031C428J0544
51160A3972C494R467D881b230m023A232P8d393B85J0561J31A626L189j514k41
51145C060r09d091p387d134B898b326F652A679c034o759C198R157I55a6818f969
51129h698G699J3364n601n620B664J6817E240J521K427C960J021e142r254f328
51114A408b230F81J9211q895C883f274l203k718F255O00d537O40K24j4747e331
51098G86O86f983j0346d145o249A37e851l283L795J960i38k814r039a2C950N889
51082I839A759K255a0741E3O105k82Q40a95A1648b899j338o605j740N445b889
51066G582b702k253D709a343m320p850A485P600N53N37h986C807j882a881p637
51051i518L664F698j644R120G19Q028I70J0566l909c040A0558D675f484p450O303
51036g631J367j0547K181O952l654M765J446f75A58d796H54R85O504j473O600
51021A3470A657P204Q323D89J1477k721k151l510M293D78e995J399E771GJ282
51006A289g274a230A0572D803N991J138B405g12I111b953a33C220c441j825g11
50990b069l320J875a318D05J6044o356l133B79a456n039b427H50f013G263J235
50975H498k484g279E275C45h964B991d200n393D981L073K515c156g67C138a0099
50959i899E042M861C158J011a065d47D738M797P937k760e79I263m629c842l988
50944g830o183M749b415k148f80D762j028B21O371j643j346R355J4239j0747A102
50928f19n648a359e88A9232k776E418K134J350m005B016N654J62A352R372J2844
50913B3568f90q429j2066L024g567l51C654o93a2057m20b828p813A0911a332C596
50897B650e108I19J49d827b085E865a5584O113M511p63B595K417g465K466k683
50882g682E832I91c237k556l353A4898c62B750M026B744E83k19N629J196j645
50867E544Q763r29i686b452A0242m560h96I615d64B459f590F249M556e161I506
50851D443g91E273J741f141m89A0200A773a0028H311l909A691O247k958B334K781
50836E115c842a731b94m101o034M212n0l967J399D583b682n508B411J936O775
50821A1122n193e078j0854e231I96K184c168E609J873M871o08B423K242N508N937
50806A6110l154M632E073k47M836K661N911q970j712N20k412j759g310m62D965
50790h90j400Q9A152e71D148A613G75c905p826e618k807p13L429i00n243a518
50773f052b64A544Q74A093b456F194J574C876K385O337P250l701E975B231M94
50758B725K683R314o441d928K322r790J476d49q817q35k680j035a418A2168J26
50743A2294a6415h76C304O549J354B036a428C075Q632L062o660i140a115q744
50729i859L677D677a393C390L539h251n039O243a604G772M489e157B216L401E99
50713G3M890c538q907N441C02P288g922M79o389n748f497a157A1278l176d671
50697a1913L017E12M93J315M285a183q29H66J2289J0618C327M179j619A242K285
50682C527J493A401Q222M936o942k954P648C964O822C788n94J118d12A3829D156
50666G548Q69O568l032I34a1988N224m878K92M012b588J064C747b197o866c328
50650a1449A120c239E980K48j713K489M500J1535i46c62D245E60e804k683C497
50634B640a0235m6A428L746d827B482i287L845A113d27j803j843a481j6929Q868
50619i542Q97D20J836J785e251l445m499F567J129J701M947C962c644m326p816
50604a5786J82K558M076I068a278A5283m453C991a635p055C674N912D443j325
50590C118c935G745C673j083i505c318A1367b684i02j518M23G629b953k356b24
50574h506K418m473I567m350c592p271I348A309a197D279h56F474a0666d050A246
50558a018o907n76j762L967e04A3337R563E98a0360I680R21a314o860B690N515
50543H205L283B032M632J109B528J902a2274N191p93c759n98r83c23j1153N323
50528f153A0718a997A104b871o566d197B567d335j4800j240O236a93k250j2010
50514a4453j73E296A223N53d247m882a881j364q332L496a465j816m288j00A282
50498b14D187e364b016B69J0719J5775o309B876A309a1052M734i58l363H289j137
50483G152c951r24I430e906a254c06n876N6C591i58o628K384a32o303m155A2194
50466B0985E026g822r157L527g6k217b81B371O773D346h80C616b294H062e77j0325
50450a0902g08A5691j487k193L784A259f215M60G283a7888h62C181a583j033n409
50435h025E463P56O321m261c127A1360j950g842D036e551J475C835f45A731k52
50420A479J584K013c566G573J0069G677a670F126J0249l266j094J686Q78o490
50406H089B532b246j390n875j699E084p81j085b438F73d654a005b22A0002k915
50391G087a2384j7609i553C962A015M422a076C77a524H216a6543b082G009G92
50376b267G700b832l824B603i67J07k039n710L438F089a0577M035k761k854E359
50360a0800j280e96m465A920N085A302d69A2579o128K93J511e643F546J002h875
50344B239h74j3957P13N538F229R94a5277b952M91r058k611j128f788m960q609
50329b0357Q122F000J8a559j800E936L6a566k610H964m8K724l001a436C487j6
50313C471j578g558J778A549i613m454e457k835I019K071a4090N951M61J284D717
50297H597f507j026G872a0095j084N510I955O498o070m37D446j428a1547L707
50283g840E207h20m449D085a61G854M600B628a375N76B256i545k875c819j0261
50268a4080j0330J0972Q01M093K469L029I016h70q581K550H701J394D275h194
50253a570G81J0662J248D979j692a4970c678n983b685j083q841K121q29c945B863
50237C19c55D36J5408D402e860D466q10H80L242j860d833k535j672n094N069M452
50221d613A320a484k61F73K002b61o021B751f268A1761c548o181O86H712p34a8592
50204a0285i0k114j716p13k020c206J270C16g869k706d981n525j762K746d81G492
50187D759i7r016A293K327a797o410p81e4A0940i73A409f742a999A0580K852K732
50171A6164p703Q60D371A18O210B893i358B795C73L242c24r26C443Q03c69C659
50154I596Q578o817f1A5319C990L114N346o17a443A0491m413c180F41f898B592
50138b517h64H074C602j800J086c479M56B863M601C493L303L994A843J766J520
50123E129a0786G343m19P43g614A311O30b368E23a3146e06q48A3224k864a661
50107f424b458j0959N926A86L05M267a2853l300b232j3139f062H225J001B862
50092C966Q046P603M685F733a0895j1289g366F30L986p1j536O999q88b757m359
50077g116A457K600c116f10B916M513r99g86m70D824L604k787c590j3465k870
50062a9925R756L301m945C17d451q508d173C649J778L622P307G283d807B56c222
50046a0961d833A6605j411H78Ma0827k371M325L41E48K042R146J428d784A0988
50030F305a1661b501n76D895J4128C589e559J621A232c247n583a3D88a800m84
50015b284p136G777l411a988o882b27A3471E010c965j0242O445m407a787F80J3442
50000A4122m306D719A811K704d832B136a483p080M111J461D435a1869L998c470
49985E909N336b988f99j822M66F931M065m699a367B836K237A884a1927c691j367
49970e058B581R821a293r812C101O819M474M848m290C270D73h468D45e22o803
49955g325b463D400K473g767J092IJ0150l759F28L333j084J706j287a3219q162
49940b1381Q005N921C50b709k860l55o257e726o228F401J59O031E986j057a503
49924E807l41g287I83b9A566b24n335k040E181A493c187n262k945G93a575r686
49908a1261m063e667E790e790D633e118A480b558k120a783q991p366M903D402
49893B566A085L603R068B112a2403P28E49J4115a271q60j1716k066O143n071j881
49878a6722P601K381J155A15h151i58m465j0157l3g609j241k509k165b140D440
49862A1014f31l528P51B017d06F63e973C050N998k430B321M24K114a800A0660
49846E173N908M615o280M417l992B343K905B603q45c990A544i245j564a299l435
49831d734a027A3710l815d812m993B114a0551B717g498q13C80a989C205f735I726
49815E502H53R17P99M894J2917H851h479C279K434c069A0011L681n689a145A1968
49799d884r040D22P995e496l820A381b909l515K237A1806D634O692H76c07m672
49784d979l8g5n969F324J400A309P594k888f997F737R030F41h164p405O59D733
49767A819A98K176K6122A0328b961g93p773l429d123G34b5B741a4225B212e609
49751g025J418D50a3396p872f296A1954j06D440h351m826N82D771M447D22L992
49736D414d70j921E816N860a1360m790O889G361j823J3279n875O934o757m951
49722H168P788b654D436E13J0411r20j64R502k869q217m021Q690B909d047J718
49707b329A0879B115I87b986l21C472f736a942D666j899a0573K806a736l804n65
49692f105J292c50A3640l65M114m605m744a544n051G632K902m858j371A295a0466
49676e100A6626G668d989C71A29c937l86r88q382A863R984N73k490D575J953c550
49659A5946G944a720n872m365e08l63E191j875d008j453b551A373M755h769B900
49643B2269r151D22J9787o794l178l429j802k231A339RM789A981a7012g574L743
49628c831B893h022E763L438B815J1797m227l534b064j504a56n35A2284c94k349
49613b743q80n961B369L830M46n48k89F33O867a684n512H276C506a070D004M78
49597D482D19J084Q31M920c197C323Q702e8k908q162K736D621L803j322g190j340
49581h530b341o386A0281H82a8874h721A431b85q754J036K313C842e213n281A598
49565B450c237j453E701j311J065c670a182J38C085a137C329d25l568a210l961
49550e171a422m549A4337H94g256A428P945K71C059a839j240J026m269B350J56
49535B506e95k092m117D082K412J1384j188B922j47J642L575a442k288k794m672
49520a1196N090D379O520M227o065M561o246A824K874a1252A2314H65k29L102
49506C738b319H086a983B986i824j82D827J677C90L922f48j870C194k88O17c265
49489c48j29p530D50d536A694K867a0339H680Q619B713j016m4d616q033N42A0208
49472A4572i6j2297l012e188j0869N097K83N322G994A119e556J407l227k335k678
49457a2389n255f471J91m457l169a343m404n623N402b09A130a7346a480A7996
49442D08e746A802O721G0c018k776J751E590J8723n664J190q257A727g044K579
49427d465A556F26M298a842H91b82F609O063Q530D862c427h17A4883E962B738
49411a0269D685A406c070A5141j638o636d225a700B833N668l713d67b05C661A647
49395I635H95d251n694b216I138r99Q586l053D936R893j352E550g475K686l693
49380h482L514b036j4730P804J173n999j484b817i24n649E926B512d201r70F530
49364i122k441d391j307K163J078B352K61K771e164a313p17F572M551E044P568
49349A2612L708A837h055L628b16A247O820b216j5620h092K455m601b600D367
49334A1886c101I514I97i283K621G753j929k41J3681H864J737l814b295a68C543
49318d31n801p985A896b618E075f557j040a818E803B576h663M39a947I896D332
49302D628P859b088R74B955d826D55a8525J09P415A09M975a2050L852j221A445
49286B0390C762i860c766A716c879m764b164L69c40q551A971L044a1645D191O960
49271A1151D892j813P562f123m015o674e137F053j670c7J3A729J2157l58m657
49256H871D004A29L351N615L845F84N584k545j371n03Q77Q035l20a1322k794f126
49239h08j767p161n774c053D110M336j623M458h823d7E309a4262m377D107p02
49224C405i826L028k244A388b074E19R60a632B678J2010I49P667C171d068j040
49209e108n063l681f531k637M325J326l084o025d951a990o69A1009M741n856d497
49193E950h441o501d759D969N434k974b159H569J7E46K180f859n545M911F061
49177c837r666B376J298m5L5f74D514A567J5092j906a259C568L174P595C024a1611
49160i945d651J884n882K591C595R016B899c916H258A822a2633A0308Q108d803
49145C628j258p61J2364J0478j0172A64J1213A693K233O439d060j862m889b851
49130A113O60N074A291P324j140A398M50J1242D712e642o04j228F034a79k31m994
49114e404A364N298J0551E318g687A4874H68N214L610L314Q372F379f495g75F781
49098A406a3475A689a927c82A4032l768l851A796N648J597B97J885g480j176G126
49082B3969A0977a0966A2416a885k329B803P929l766e199m082d419n89K374I620
49067D731k226e14l831j186a23E499N112B364D60N316i32A105L022Q006D046j391
49051B655R6f264H108L174C171j9d232K081j1537d552b213g14A0902D285b388
49035a1041A517g093r27k16K471b837J079k132F609Q438a721k1930h301c255A128
49019a2595N424A2J2647K114k62A294b710E360e880A2e448F383d942K084n757
49004h615E087J010N31l162Q80M103J645c752j600p160k545b101f07l93I977J027
48988A1004a227o611D61e45C066K868a140k912q753d544a521l43G506B727g285
48972B697c854E4a0950D78g423n061N879K968k317p466b98F221h708K342j910
48957h276j0597e104b517m704A845a012k015q46A325O548j662e877Q78C509f866
48941c022b75A7304O579D767O19J4184r612e829B159N863f177n969j656E224j000
48926D224b387j0319n507K470f863o061K426A3524E198c563n125J345K089M71
48912d783D85b263C992J192a82j2811e760l530j95L755K750f65C30Q910j030P803
48896A6013K245H350j300R28D86P595B887J2354C572J309P386l376L587p53m688
48881G037L964P004o824h758D615P88f009q73b349B998q75P192j666a0985n058
48866a6043c601M09p924e178q19a948p011l885A0520h596g67H365l56a1591e652
48850G256l94c13k394j131B732b577o96F114J07a910k161l259o055L119B979a737
48833i608C786e75n058C561M483a3946a719H571K800B258N650H25h114D645j83
48818D462A098e06m635G963L916A708J227d957b268G743a5822l577O460l236E99
48802E539I44a3025p81L696j2889L626N765b584n570K267a294k172g68j3014k388
48787a6170N514A6288A440L674P077E692k087J014L103c841A2895E566B669J3629
48773A6298p961J128C916j008f128p950b975l678b593o613b146D020e472A453
48758d23p197c525E755e302k013A2947m671l9P332o229C603d489I72P230k161
48743F041e035A5607k003D407j944c368j322n20a064q303C4a753M15G761o11f91
48726c226p332o854Q513F662D55i532o36J149J561a151A092a622G013e791j4790
48711b0581L429P217G763L251O568p033k841b109m351n748d898B503c217j191
48697d408E172O043d73A738J1583F135d149b39B116P780h737B683K343b244b55
48681E876K329K244e552J810H283R628h6B859f436B930K770b272G577K539L087
48666A3203E095M221k382b987J211A81a8940A029O41g61o488F19a0231g98A204
48650A5421F984g094J508j867j16j322K997J63D811d027l330N36C65O313f390
48634c802H441n06M043C61a0651k7K438C26K523J219L296J368L59m56O554K177
48618A7366p913a2988A6379J070C078k06e956j4234b780A6611m944D129J3435
48605A7564F801J476Q377m181J921h41F071G44a0273c888o675j8153a3884M250
48591i634b676H458J696M763o784a282F10e98A0603M196M299m853M050p712j32
48576A0451R177I494L900m283f041H890m341M305A884f295n011L381J337P72m516
48561a0332L275I869e316D736k97K622i778a018k590J32A976a1201A46c234o229
48546i463B38a1860G69K756M29P897K895O143q423D446F56g350J348r287e132
48530A1999a609L57D37J4014G135C061d387j1426G186P976d398G551M359j621
48516A0289C10K020N981b737j449n251c585a718b06A3707m209a58k844F011J0842
48501A6853n231n002K131P308F370C086J2104E476q40e526a044B923a8562Q519
48487a0043c954D076g917D273J0483m314m023f327K74b896A0307c340H3i59F66
48471E856L126M436i873r51j728J969D705a030k66C450a0976c150q458j3264O572
48456a8300Q274j0551J520M623M886B917d067D045R488A95d489k089l366a106
48441E871A017N159n23i654I194M329P113j0226D118a391H615M75N770N189a959
48425b062F563k120d225A277b226j5159J779E340j576f70j284P78l509O41B555
48409A779g843c050a455n363k670A948m12N981l758A569Q896C682K313o4A980
48393a364l933C278N256g410j4211f035D956B345b284o884A0218e106q7H15g973
48377E031K152f377l644k452f003F698A424O340R964B043M254J532O559L237n014
48362A2611l064e75r842q628i453j058J704L955H181M369B463c046q819e634m533
48347a0167j2397R670d067O4m491I06a0553k341d328r684e119A1945D003Q425
48333A2428m1B649o0J268J062R212J1627l979B104A52R341D055N870L924E177
48317a5407N010N020a724H568J943A736a062D932M712d400a255k391A0823N865
48303A6688E687D73g179K253o29A2165E453B400k88P738O7M043l999a3389M806
48288h583g78G575B040d612I334M569F836N541b498j0394o613J212k665P388e140
48272f920D47N040B613a7353F453k635J0003o57m954P230D105M26I14a221k690
48257c911j5992Q555B350a533q708c525A5122c945k114K725C421J4344D461g041
48242b761B289J1408F432A293J612J3007D301a2368d581k868j1879Q337K268j369
48228a0092a12m114C502J1317n888a678o161b474A39c844H859C679a888A755b68
48212a4865P127D16j48J2806n316Q260k958H14a234l130K17A184a62A2558k352
48197A0206a1476A0320r07O71j342L306l784d943A1942m065A496E57J0794p12
48183A0639a1028B645J0494j67l344D788e52n088A1423l977A632c565A4Q95i755
48167a7869L717b147H898M272a737H47K1895p325p100K51f183j682l09j646M754
48152e066a37k38A013L046J0131o036k150J566B924K714J578b878C711J3859A64
48136h794D471J112d134J165A260R40J773i745j146B63a1260J866n192L08L524
48121a0754I1O57a243m563H59M319A212b107C67P112J610C410d187A020a72m954
48105e126k851J254p299L229a771H520a3990j121M254b270A310F43h398E913N768
48090A1681E633j772c566L60k875C40M397c941o606G76C88N783d881n551M828
48075e604a510j007A1600C272K090A630J18N629B404J566K257A42f566J275n18
48060e809E864O040E294K72R01g16o734M76A1455B262C36J0429H06c341C129h73
48043d354o724o866d55A6273k440j775Q27M672M135J149G258K748L847g513l918
48028a1431A780a731p892G193O390h152A813M832b892c02l842H291e051K188F62
48012B664N600k696R264F7a71p528c189J067j3818L041l222f873b08A766J0858
47997A2624N946q466k726e48j2782i93A6534k923D873K753O86C150J856f437a022
47981E901f850D725L031c290F451l08O997k501K398J802k986P673o724a720B520
47965A0804k73P297J865o857k651b155D122N575i155b025A68M403k129A025i892
47949e64j901C152L417Q319A09L535J0885a3040a284D248e951A0467P298H15J2620
47934A3435j489j99k611n57k953i84p022H09d890E155L163c05A581J0712j618
47919A0675B809J528B001K143a7083J852L278B525N529e337m168c334C241L388
47905F629J576j68N578n580f948a540H032L250j108e48E294J846k414h20p075
47890g895E0P876A886O064P245m90c68j5404E728O403d283a050k523A976J3500
47875A5476F635Q942A467b201A5839M052m757E250a496n760q002N296J251L183
47861e528B515J969J2658C741d516l863A798J0245f411j0149K733f730K248E268
47846G37M335M876G90P57i032c565q906e355d7E902f805k879J010m014K316k154
47830a2526M827n108b814a061n023j17I909f921C6J0209D111c292e25m968F79
47814e087a796I140a813l634j4131J464Q78c747B78h969A81P556j880L97P770
47799A4024l20j433P197F697L279K625C539a0299J070J247J260m58C984J439d32
47783a4224B59J7151C811e220k489A7044p8p514d406L65A2115N27E559e013n317
47768a0330a878F903I36a1639L902h72B02K635M600J335J678j57e59k197G389
47752d06A2220M658o737j395A33aB167f081G684b708n106p910m727h149k697B28
47735i644k539K946G334j307k779e246m62J032D459c278i40C367j424K799Q719
47720A3461M628E854J517A645M562K43d215d49H823C672A465g5j441q259a364
47704g480b128A4859n121l759A108c048l17l686m334d576E40L33O869K617J261
47689A1620K564k930K196l071I96g264I17J1990n232B312F59L113J1565N581o917
47674A4001k031f846L324n432j596M281A009O004b27D526j444d137Q18I775c497
47658b75n119J646a809A1322P375E637A516M104a687o677G803C418D89c825k688
47643f513G827L108K386b94F379J0958F224B687A070J587b988G647A919K658K628
47628G205B764Q804B087n79e956p600B811N956j578j971a988c11C341N076J1011
47613A9428f870J412A3577f128j866j899H05L820O38Q251D500b367A090M634d174
47597f111o177O052I59N298a7o164K567D481B87P933P989b851p376k898N104P42
47581g279j934j364A2533D278a0087c296J368j3967O873A4000F724j706i68C477
47566D949K981q67l097M726D206P656b421p275Q65K853R71J574E088P074e075
47550a0567n861j149b267l069K481n71l904k581G040C135c202a197j2788f639
47535F161B221D60a3295e086j999a163B332Q478D008d340m6j1915E073e022D514
47519D377p95J3794G244k447j642L114k892Q734k959A873b028B805J7309B679
47504B358L747L448N430C721q23J012P951j228a408m628m895c615E779O381j999
47489A0161B702a271e30j5799J850a007j2403E38a111m504B754d568F754q10A131
47473C679f249m190b036E854i019n921E97J598b575k15q12J035l337J438b49k910
47457c159A1922K544D907c357I234k792N582J1744j0426l898c650I649L41A296
47442A2219J591F450M715D188k044j61J0527B686a2883k216b781F231Q492C275
47427f317C821a0694C98L813R973o779g763i15B591l63N158L149E41O65R977K576
47411A3759I27M930J30f352I361O488D438N306m49d714k509l188E381O667E140
47395I71M995A658g784k169M529B186M825h747N06l027M425A1111B99g117L151
47380c966A89J5932C469e628m141c112H771b0197P350L323E524B419L69J964A140
47364G566M409j844J236d322k88o957e153C432l51Q719O605B260h527B364h079
47348f540J662E92a0532c057q488C86A9M906j758e720D050n64P056M29E219P387
47332A2606l476A300a11E719K0790I990i39B656K069a0807J020a1A0976j569e508
47316A244b602D673O509D066K112Q258o599C70e196j4114Q202b160l51m47p369
47301a0327B529d528C610a1375I24Q755B70N937f281D229R960K717D183P031n043
47286F171M228l350d212r277c638A57M070J255B292c163A5855p497C933i796J881
47271g915E441a613I430l128K076b854A485B35e424R66c86n445D376q4J0074j042
47255A3324E661B4N314Q295k589E285p1k462M437g838b704a05r711L930j599E997
47238A2170k672L500A690h955A0058A452a869A2001n423a823D716c071A407d190
47223a0696g92j113j996j001n120A0692K79h709h48G235A551L813k228A494a860
47207h494K896G87a3300C26R142c566N4n00k639j050l787f30A853c853A4772B756
47190D031b296A1654A588a043A1899N092J184f30l844F315l011c400a691n242
47176f933o44b866B194d431B11b91G973l401K317N352f654J732A3348l316a6702
47160a3409O479m366k082L733M648j801b304B409M098A26c177K25p586K700A3667
47144G874d780D439K798B028P29k83a0811l439A2543f75I89J6190A20d847C027
47128c528q578F614A302c259j0252L242k621m7a118j0377a295C754d530A014P68
47113A782K152L443o41C22f007a494A1640l443a6049O912A414M411L15g33j0587
47098a1320M740a974D379O087k907b220p359d765A72R496K523A605O517R332B087
47082B93Q567a143D16J345c279H793a1057l743J120E070L838D394N176i65p578
47067h543B454J0992o001A668M102G23c287l076J409a485C660N565f203I935C723
47051A7723o779D295K498e708E201J4040B85e32A0868D253J462J5830k549D714
47036A1964a233j0925M834C887L724j753N917K378f697E122j190h0k924a101G121
47020gj7055K32l915h394A853a1926j926R62F500d795I764B110a1171A612F70
47004d62A1684C275p75K511A201P739C415o91a481o265K397D610b577C798e192
46988c072E307O124l596C17c092D114L621N052n359G80a1435K192B221a1620H812
46972F276K920J364k005Q602D546f188D729B133J0529D908j795R15A168d418k868
46957g286G607G8h057b357E553L028f191J018D75c462H969L220j330m079d037
46941b3258f407c01K0j0663k861O295C525J709k17J1112A772a3110c518G086A22
46925f374j3815N906d516D725O139O745J0574j3791F383P058C800c478i41C054
46910c269J624B161L575J7227l191p434n702O26J750L39g204c93A103h622K570
46895f052q839n025Q818C879d699B436K405N39d442N14a772A472k16J3030R913
46880B4199n583o068b472K59R88I972J3887G706e005B286l15J037R851F064B283
46864E390b770E68a6247O931J180b216g05B086O885k456k432a77l526k056C211
46848c351p503l116a620j930F031q03h571a771n235I691P30R79m189P20J0659
46833A8590I176J3401j0456J116k648B947Q706f820m443k853e391A114a1208K131
46819i077r40B789c654a699q38j117o223C223J0321d670q41E306P629l836J0455
46804A9554r478K38j06K052R816c173j2704f939J523G070B361L818g336B029M110
46789F139h243a894B44e255e18G067b843k569r36A3176o246k292E87R11L415O601
46773A1514A18b466A0481A52a3197O67F283k171f391k69K140l216G17a381A1656
46757F467F73R725N875M179o689M547a2775O36A3888P781M94A14J0595a0804K373
46742h431D089e411K678n734c454l529J183l587C106E94a1871k37b730m750K605
46727d875G94J317O423a768q56p4M92a004E83Q217j513G82Q373P771E046a0343
46710a8065f934D4O540K171g411m418K799L979I827L48b745I095A055N795Q785
46695A5635D44c140H899C638K87l0i967d621h65C71d068j0440O779A4521h09k2145
46679b2954R939F161K548a171I482R357G817B28J357d219J833H18a3359o83h31
46663B100a1217d790a750J30K27q986J50J512m860M501c379b21A0525l745l241
46648C539K09M350l238e161D685N648k592O202M977J298r398G85M670R03g21B267
46631G133C470h588F304p67i654b615A897M845C303j298Q043D263J264p04e346
46615i142C153Q099h06c17k297J196m111j168C76J3330p38K073n985g774J854
46600e920I422L358L579N340C905j736f568E59R268C095c827F370M741m698j348
46585E065a091D41P325J789N925M692E246M39a4348L550M342n339c468K64E445
46569g00j2935L193d016n080A869M109A796d493b203m091m219a728j4159o462
46555b2349b439H382J877A754b296Q76B879a780j2417d0D499N188k852k930g300
46539h185R72c196F775a891A007P935J1173G367c966o540f16n530B846a251q827
46524a0078A759M62K663M53k507a0728I069b428e94B348d783l161A306O96h121
46508A055N065P131B108P86L020K7c332r499p289f031H998B236P694b593m271
46493f864a261j1648B664L949f84n447k030b260C457j642M462j823q34M241h327
46477h263A951q88e123A120L026K33H70d25E997Q85A570a3415c815F097M215l546
46461F766h433E609Q3Q760D341b340I278D429J503B126m28Q071C338b839m043
46446f882k37A904c889D316o98g801j015A539a0546b135Q45l372k148j2817b290
46430f66l941B030R078N081F58f008j610b591A0455R135D600b748F207a3008C644
46414D547M457C523L001a598D114b272j0571C392d764j808c167A053a1568B682
46399b91o24F946Q43D40g981j70A282e913a903A1678E018a781I049l672b906F093
46382g328L105I659K43N468b275o547J522o996M622J025j966L477k727d429J1
46367d418n215a495k893b87A3538K410b203o72j2515N259E489J2866o872D525
46352F616q1b224A534a0177l106J725M024A154g576J518r58D696n62E75d105R67
46336c138o713A767e029h30C378L380e477r651L492F63M568I50J0848l148D7N862
46320E909N601d431A537K755L602B455j014J2707j586D227a600C696N177D328
46305g427b639J174E880K143c73D731b126g13j961j418j2801e525A572f05n095
46290e700j257B90J1223C89d385B317m42M071f708A740N400Q499Q49n766l15C547
46273A0078P253D955b022E223d660j2589C281a207C723a536B043J6052N772I772
46258a0581G625L773k692B392e98H55P455M812C234K111J1123o107a508B819L01
46243C120d358J923D508a042n330j16l921d730F185M811a265l576e69m817O72
46228d714F753B655N24b15n534I377B985l28Q87g148m61p571E57D8M795H88b955
46210g29n983a621D05M678c053N65n868A476Q725m792B34J1487n043k608M664
46195H734a020p230b870A302b346B006J2182R341F392E79R104k904H13b410k386
46180d796E364b036j0928C180L154d01D114c079A4526J2690A350c514G119J167
46166H286L515J1832H805K336O32M66J632J428F016g443G438e117B765b771m08
46151c179A0296K297D59M714J90d145J914A021J552f827o094O272I203A581P04
46136B285E84Q244J740E138J338J3278F372g023c7r831L347a571C450j313K465
46121D602N934k242C200M041G73e555E584J0891k505E210B373a0367a236B119
46106A0856L417l828j321c0E838K316N392n187J259O465l111m495l67i449K019
46091g430J449j0543g525J534l797D136b925j2174b988q933d954c8j605q187K500
46076g330l830q652c393F343a0051j1779f510H316M168E630o94A491B65c151A934
46060a178A41J0265K701f222J831A3373n479a104C192J0596j18F225k229L98f634
46044f22r45m6G941L183B75K477j166B92c141o45H293B743d451H491O211l766
46028A0936C894N522C967i078G10a693A276P846c000F058k225a524F175F61J8556
46013A9217n876A541a707l521R88A944e645B008f341B603J0177B530M528l007
45999D051d068E861j149m26A222h347d54o026b979j366E827a1032a421o255c310
45983c022n680m68p10G901Q600J0582F264d403B209M245J084n88g582C025J028
45968D053M660L965n656k985e926n24j159k599B509N925j659j408I12e541a897
45952c831a889B539a54A0321n144a248k183K1m57i67k866D223e126q8K280M09
45936b525G11b45C202P548k573l006A974A57c960J127B874b21F665b90B673e261
45919C489A402P223D218A320J279a130I80f190A728d913p63k063j423I59a1392
45903a5483b727E531a930n476n93n11K635M14B653k69J840N55L840K286E317k567
45887B750P43e447A39c117N19B008a001c97A2138k489J119d884j3759A2817N614
45872A8431E514k138b58A1291P112H264j753k859a2698i58j175l164A3333o265
45858G068N615l944J4877r689B373d135O04j321C228Q251J035m713g210q560j506
45843a7276e017A3793K344h934k59a106D933c532r96a482j215L0I314N251k326
45828A2239M46i0A613N407o38J459j849G12d49E069j818h374J815l534A746J7552
45812A9298o819L195E883r77b359G92g906C704L766f792d58l6k773B386K026a493
45795d29k736E297e002K088n519m552M598D615K458j173c783j0116F807b006k075
45780d081F630f504q173L496o58d705A0744A347f849l001I837O42F31i01B634
45764A2830l343k793k616M952k195J482P40j076n35A652K199m55c591C201J684
45749D885P73a233j736n484K568A126J3866n260L09o01J012J3018j0430l492a797
45733g236B527P061l161K125A821d895j08C60e560B491e669D812J2475o982a682
45717a9010b457j914J908r820L383A2704p90D638a202j0414I01J1257O236E139
45702b527I42c060l340b616d85I87J5756E359a820k050A1580D263f791c370m888
45687h258j852A237J279K973A217g197D862P183b767k391o815p083D448Q648d921
45671a7252h447b25j1591b672m651j2824f537o906e158E906N904a080A582a0823
45656A473c105k392A4889n72D45a3468J143L959d84o403F838N278E616A824K274
45641D098A940f648A337K797J469O647k732c162q333M378l748A165J400l32C56
45625a575k350F725k975J0786l95B103P487a3947O448H868k745n28A769J525A352
45609B890N845B435N029C113Q668k747e502A835a64A287E91h93I593k874Q736
45594A5455n115d548g76j035F326i803L279a256A00K798b463F765D87e297o097
45579a1394f93D26b280o88a016E347J156B223c794B924B23K489J4611G201B218
45563B140b445j977H21R270O526A269a2467c421A0105L889e628p835N061K900
45549e502K329l762B477J1570F332B98g005F352k681j701J2155j139l500k615
45535F871d422O01m019a867n720c468J605Q56D986Q360k795a319C561J6551M80
45520B0592H647J2078A238f20j260n493O87C247j522Q183m157O478k86l224r45
45505G774J154j253O194n601c5p265b655B2419B039c892a12F04g093G549P94c170
45488C538g508r111Q300n94B49a246K40H643Q809l379J17A48a5124j312a239G14
45471A835h180K960l508k1354i040J813A0022h15l506J497F4i474L999A3240f989
45455i572A462J2074F051M209Q096D060C60a0909c663I50Q27K530d020C063j140
45440A923O875g50l425m614L649A299b147O46n890n433l343k608n597e746j225
45425f971F534J0180A318c607j707J355n787O92b977l872j1927f663b42o596A0875
45409A5209A01R986c49r546G04b098A3533L362A43M932n43P606J1202r828C655
45393B908Q668d382F348J3972m230k442m460D070G51f15K82k758l020j030D265
45377F404b570C277M947J1694A681J543L122O539R080r10k560o626d664j0147
45363a4811O668F021L12N516J0273H462a1954M9c276a219E29h24B435c408p329
45348a0737j542F743a040k712n2B739K226P498a075q473a586g0q97r35n847F094
45331A7150g98j630B894E26a482r08r855B50N533N911a312A118h48F572E10i49
45314b73l38D972A816D45N641f722j1583A5464E564k553J1710o82K70l778k695
45299G836l789d240A1249O282F528l083K788k881K439K09j420J460k744Q429D493
45283F432M940e003a959I8c787A4745C264A66P736k16K749A120J146a138A477
45267I802j531f22k926D673j899b698N36A282a369l225j2162p30C645g788a573
45251B202a377m394l854n653g223E791c008A135J157a033b7A1978j466N921C765
45235C685a424G468L360b464m360L365A1583f059E372L004P483L018p885c96j14
45220e10G530b286o026Q43A0156C08J535J218d459q590c88E897f56p040k016c369
45203b951J102r090D856N468C879c435C036f905q72j055m863a766B725O222k674
45188F273B705J314e568a686B884b529G315a616j2858f841o154L836b796D331
45173B2550j0160j125n1k991J0075l561a579A155L090N232k17N877O554E988i116
45157b59l731A628M516d216J997A245P499c23E683J868A567f467E855q61b956
45141e975A57Q88a4027D983h503a915A5997D859O46L940l122b952N32A918K975
45126D893d971A9835k908a959B225D57a012M30J13m209D847a2300D12J1303I31
45110B321a0637c086A0624a1E06M58K94D52j46M242J573p79g56o813C640J084
45094D724K211k112H02O678c254H706H4b039c70k643j629D547O892m520A775b291
45077a2976e872J438D953m39g083g63j2740e506A2898J537e015J539B96d366p78
45062e144j518n297M734j0634n48d522b148n329C919Q42a53j0340L094E48J1348
45047A1896K252p71o047e098f57C851R334o541K18K355B222a33A4034E109p15
45032D394I29J1323B805b245k112m555a944r562a380F279P508P22C563J4531m743
45017A3351a963k14I26g848k66C721e965n668b920H545R58J5904p588A420c923
45001a838d0E219D12f162B634b225B085Q905k608b702j574j433J151I853C277
44985c145B077M888d521C423M468j740c326g16n495o966M850B853l93a9065b030
44969c150F00B16c93A155a5102f065c59p865Q3b512F975B53K932M720a821o488
44953h309E050He508A210e311j701a511F230J1042l984n870c849j051B959P641
44938A0600m720k485a2004r76b474A142K129M188K34h340A2956m724M506E030
44923i399a249e02p156l81A459P349e596K286H33h930j1768m048b383C968d632
44907F090C28f249l929G009a459j1283Q64j47b843A776R50B48N703i67A0308A348
44890I286K986j556m249P860B666a677C44c109q598N076I72N775J538l63j199
44875F723a3698D731N517A651o89f41A0465l38J30B948a3695L664B290G8b160
44859b219j4266L867p202a810j1859L102a756j215A2409m886C108b643a128p769
44845h897m402B255D01i490o852N265M474I11Q499C772d216C360K516f003A806
44829i002K812C10J012O592j064D25b49K7A172J87M098P273C163J833P961i620
44812a697A3253F095A485g744O18m261j772B162K397D85Q82f326j502F315k061
44797D254E0J2328M310A471Q96R734l054i73n622d59A005e794p086f16n523l613
44781i752n606m525d535D066h417K142G328K325C570e942a288l735b26B329f831
44765a486D972N733B010d29j1728H549J865D829d01j1675d315q934A354L317Q474
44750A3145k097K851F484e37p456B177b207n06H81d562A8514p833D363A513c747
44734A4144k241A247M020J262c069a213G278a606A3896k844k253C137M640K265
44720A0042m295a0701m934E479I50j03M149b501q14J019l816n123q293A564m27
44705A137e574k00A63b246k422E275J0229D905e469k121J569M07a852A7185m793
44690A2392A354c300A1133n288g130L556j487o729A120N694K974c972D646J0825
44676A5471E264N792k382c388q916D012M033K811b412m392A0483J562n598M286
44662A0733a521p106c750F760J4522a542l925m65K482B278a0606d701I164N584
44648A4748N06j469F419B814R909j221D135b244m42n67F870J2917J713F967d560
44632B0447n704k383o166e476l868k944C474R071n86n598e873G90Q493q11a331
44616B839K646h993K716r887f373b765q910K057J765J842K30e52A0303l522f636
44600f147H144p91j792M59a1792K088l516K863C741f060C693M36b21k824m934
44585g979a19C024c296B120K89K813K409N226b021l692a562j1130e213o582A046
44569D629O582J91m234k268A85a190B765A201R210l534P57K775D69K159Q63Q10
44553D301I13d353E947N588A499a893H35J0455m723L767k49n003a5027f098F056
44537A0134K270D997K637A376J179c350D81J0214Q949F763J362k442M59J1430
44523A7572m241O2n027C723b810o349n290O018k402L003o476R15M088B655L30
44508B985b71j737A741M692Q953l394C030O321a907A343K053M407N832K017o686
44493H966M735F069N84o58j259P281J6918n692H304J2214F983B342J5822B949
44478H69J060b614q249J822c627p524a697j169j54o687M067o62j1326e338D74
44462A905J0682B955A3a478D893B054n09M210d688a04j758Q50B569K43M874a583
44445f181b973A884c680l604R15k325A0323B435f722b979G361P2B25N413c488
44429B753N709K486G49N27P565M325j992C026P610j104c501F152M502d731k5j646
44413f402F389j690A735P941C517E67P555A908a1075a215G726k541K3823A1921
44398A924D5K173J7057A461b584B111d196p271c135C426a037m100G696K528M563
44383A4787o421A444M505b50p072b771F372L466k345k013Q13j710h703l091d454
44367e183B310O156j35R86e946j1377e993f64q840E65a030L08C610b16l172p413
44351a0801A430M198K254k54O094A618L391A815R81J4141l930n717C365P487l769
44336G083N41C742h199J145G324o46L266d915G338R204D109K700a542m46r494
44321a1482d773C440a352k055b90j396k018A525L853L777M141n753R12k148R465
44306A5772m151C581D2c029M09A173J489h334l180M954E067M129J2803j0062g520
44290i912A0033M404C588a2146K806D728L352r28J2372n287o258o34A354Q013
44276I367B993a2548e460H826f010G522k64k421A850f278a593P62A4766F392c537
44260e600e14C053J666O698A420d95k347j326B253K789b1A675L474J888l363K320
44244E994e9D834a085A0190J4687j0767D340e464r495g438F482A824P027e795
44229c684B291O655q92J092M171F029d41A589f063J884A2591L55C462n72J6K938
44213E844h1k927A1463j793r4Q0k240O3k110G58M949a7723d480B579d259E693
44196e709D833K785d801J076A900dF917J279B983M41Q02O417K336E837L457L520
44180A2814B800L718R46l370N091Q96m325b682G388l688d081a439H708P91j620
44165G879j482f723L029i04r659k619b611A913J5822j759m309a970n656G45a0611
44149e615G293J437g551l139H084l091B475g465m489C868M252A495D65P35a2694
44133A090b855G79K550j406J035b598A1750R235o801C13N148J871L908k65R66
44118A1941E070a4899K427L082a237D462a1917N34A779o25f169p632J896N360
44104f545D356R532n025k398k251K673k953O846m373b618n94K98k597R7G368A41
44087a1290a315G861Q91e019b428A7112o409B055M263k38e508B552j102K163i355
44071a6268j589O264I913K129l996a927j4132L791A22c573A1001c79l68F980B235
44055A008c003E107q77L060l372L201M960n674F98c490O65N90A664K141K19b208
44038b34B178J3484a701j6417a846F437E96g188k673L863I073m341a514C27L727
44023D054A925e885m043A4470B076a301G119L749n335e26k301k493E811L754J3797
44008B3362j0621a2526m833A4876o762j423O222J380K270C234j335K194g781b720
43993I992b525j360A886L978M25O9k444a697D537h419K962b238G13J194B14J4894
43977A5108p070C775c070C522K662A59g913A0882q44M271K341J031o796C526J3875
43962A7401c13C876J95G56L652a3372G99J2515B274d080B268b978o483F880p54
43947F126B912M388B844o14L846d358e10k65a84j2476e133B160R268k532L189
43932A2085m62C260e439B490J6155k987o923i625L353j05G02f67D648B149a1732
43916h936k066L252C060J1849l672C124g15p654C321K668M528a956Q32k221n18
43901c863i15m08r770l646D761a017p301H553N720o22B220Q871C949m03P165i85
43884E868N645J15n93J0262p919n825e228G281H14O010B459h262r747e821A1666
43868A1876C491K384R126p50D894f304n517M590L9K559D990a146A0210I16K592
43853C508j410j04M172H7K633j0A310n85c40o539c400a419G857R798c495J292
43837b203D057J9173F368A601d06a16G941L379b671n617K079M04K842D417M658
43822I075b25m185l636n200j389A0285a749A708N121p81k31L829e965m393K85
43807a0073a948B685d006i02A1278E91a4130J608M540I66O774d066j0970j067
43793a6103g859c438D630P002E108a100j6221P723E99N758q05k179J401J1435
43779A6209k826B881O712R128A364d570n43D997N28R97N727n070b72n067D141
43763A2650k074A212f42B166l97M389r35j457e973J382F546P291n018L409J987
43748A4215B97Q837g63j1656C665r50a0622B907f418n081L042B31J4048o171B465
43732C503P812J762A893N374j381K81k260P062J645n286O955n272k693L72e417
43716f886A328J044J787H10d039r118d82C134j66O370a358D937i05p315A0528
43700A8609G98a488A2997g89p278b464m252B257P886c685J127q649k383N804J697
43685f089n374B769P032A206L159R151a575r007A122d055a158m5A655b1930O756
43670a5174A999K348M015B463N897d42F455J525k953a324m44A105K824h71n221
43655f092n30m696C086j137d404B034K0528q172G84b297A0027l293A712l68E26
43639F783F54Q399L392M389l189o721A568e443A5849B724c494A8613o312a1326
43624h752c632a548q937E38R727A478P811l130B466A69M789j228J447a4454a909
43608c537j0910O570F760C028A44M001g534D086M652m031O162B158d474p232G659
43592g89C358A296b990j80j0434B141a0869a047D89c196j730A1400a313F97L381
43577D078I06O722J686D245K050j744a310j354j940B366d77j743B909e898B382
43561A6075m937j585C693h043a480B964c978A4498L972o503k171C899b797C596
43546B408b983k443o86b501k138C019J0639F092A237Q608K26p35O819c485A900
43530F207e082r42A084i159p036D734R616D903f235F70b849G42h495k418C055
43514f52F351B969K428K117C081k59a005r744N049I366N385d67A988J972J720
43499E680P723a984k412A792f378j3955f09l873F603r30B352P684K38a3918f450
43483B863i126J251L672J942B901A138e850E781f493K286C726G1J5244O970a536
43467C537c59A128J669P308m130B254a94j0155D050C04b543I004a704k464a456
43451i856E236J54M877D757d157A2991J496E036L190J934A101J231h966A393M70
43436A863R438m881A111Q62c197A2829G93l10L526g855m394b35A947O940J894
43421A0781j812C566O30d159m495G488Q889E027p26A802R736f49n943C384h526
43405b643A245J6781o488c302C547M917C744e933A99Q497A08c248b71B621d074
43389a6039O617A381Q911J0932N010G538j516N739C999O248m672a493m341B863
43374B790j191a1113N079A0038K912o37r89E398j202j167j381L766f4I283C417
43358b378m313A0800R73b410p413G538M23d077G170c622E816M055J713B265Q231
43343A0496a336r089d987I70J050a3782b516G766j574K594j655p0R853C133p9
43328C054J3202D687f70B012a226j805j682G473g71F703k764L252i934H28g41
43312g241K674J497D835a2081a309n294A435d903C636L969a803A5397F231b757
43297F75e06I460M037E608a0952j799b476F879O435Q974g604n331M745A946e512
43281a0855J4q56p53L238M540B389M405d201Q29q677A90M38q4g047A974q88M13
43264A499J2484a317l796c10D902f937p290A1448E14c595r650e126j283B021J535
43249C556a033A0538C309c663A190Q734O637q49F306N321c500A0085A929e772
43234e847B337M842h370r86b788B395N367l243c258A0966j02L350N402l586o642
43219I388a983n528b699m044E55L900b609B610d500j954b695A6716F193j551A513
43203c098F253Q842n533B486Q96j284l45a223A3O722Q123o182l862b666F699a162
43186b016n076m365N46L415A0013b112A869L027c834n612H41J699c708B1366c760
43170f114M08j102I882N783E514Q315K871k897C576i485l507p927G409k202L661
43155H868K234K824b710p157M447F220j026c956I242m187G39N108A702i168H452
43139A6036l936B744N267J3377H43c623n524K158b260p0C205B52f486b869n170
43124h039K302H807A886p37h027l735L275B311J962c106q09B700M452P12R786
43109A7650o992a715p390j95I448D229c362C019f232C476A121L579j646i20I310
43093G704A848a812A0722B726d738o666L494b948m751k287D712a306A921h810
43078g322A4005k814N642j92p893H56i05a04G554j212d154a861F651b743K06R10
43062a627i4n860b633o349A874a334p42m099d44C912L936L65B505M848c605pa378
43044a561j7564K933e43A6612C710g960j937M869P81f8D735k103R483J039C477
43028A446L67Q814F38c920G236k225d132H543L159C101J2582b436j706J47p316
43013a1311r520Q181M708q13k440p018c11A142M475k697a021D712P275d969B817
42997H142K245L076A668L887a884B417i206B10N111b599r20j334m988J372E659
42981A1507c405j794k834A689L243J453j673B45H7a1397N328A444R709a1392n173
42966a6565a902A2456j362r1b847D887j108l1j533c442D455h238E722d406N7a430
42949f259K492j76J237D162J0487L4n117j385j860f316L94a891B914e250l434
42934h684A0025a541j590B216a521j78q66F749K536A25a584A2414B279a2193N613
42919f580D257M826M224o185a112B413c445l358D520N94L448M924A549J6163o077
42904A1635D466Q12d0H177C808L510N535m165m283K614j056d787q945P96O190
42889f746K145i94J00n550p31A0268A44h937D168i913a043C73i580q613Q889E03
42872A94f748J193A1722A751d726F90J2799i08A15J6306G749k61B097N528N92
42857H217Q151o118a340F579j093k438A339J079L261P502A915d087b65A3583l92
42842A3191B397k89O523l175l22j554d158A0680J965B384Q837k970g661R69A832
42826d966C137J3124A670f884D964J634j782K046A585k49f973J284K821A0514
42811A7307A398a0171D838l80C53J880K67N30f701D852K814e670G62c865a109
42795h062d95H95J826P944A994K205g589J662p385d85H57J513O645N630m045I77
42778b201G77c691A6929G727g504b142I674N952E761J2643q27l026B604J899e03
42762A113f078k70J563a783C176N04L572O025o014A190g1B146p04J893a939d43
42745c145j053l836n005I470D568a53l990D802M979P493p093c94D771b064I00
42729A9490D378G35O041m46a409m618a476J64F744f981a499a15C261L287j323
42714E225n76K554B313K347O377L1C310d647E75f460C827J5799I772n68J2930
42699B2134m86H579K499k007a7563f298A36K398c564G336J26a4117m814M530O105
42684h296B949J2212n648C780c38j27l95D461J363j078b900A1449k05m785B98
42668A1883B519h01A104d937H899A424J774O438B544N463J5439b89B081i48A315
42652A2002n702m42k628d21A530e129r003D520A047i837m983n76c061C225M919
42637H144J444L927j059g54q083L816H280J628A433C82N280R19d128G30a072j032
42621b104P00C689a907l951H980g354A120J3479P741l256G618M763j481D775L121
42606G896F68a711E028b609l549l934j544b052l235r509M014c667n517n736b958
42590a2371M415n537L614B987C29f100j8167e90A0983C07d936q593a673E01d508
42574a482A339R270a088A391M40J2137J4187C696h463a220r361c736I534I48K30
42559A178b947A1308j497A426c743A4548l488a0497b92j049j39C647R484a485
42544d111j5k845R15C922R906a795G81e275A344R094j212j517b170B69d500C672
42527A057J0616Q289F494Q384N185C915d759P54j254E011K009B114e376N05K361
42512b510D259q75g775K209D642q66a343q15q427c999q631O44R93p437e870n098
42496a0968D156f39H724j020A506K007i495d043I562l042B46e509j6369a0738
42481i155M8j1358h280F738J7251p743D866K632j423J004b881l124B591n98P109
42466I102R389E987f03j1083l679O805A540c27D44h972j1957Q198A648K626n56
42451C718p94K47h763F429J1575H148F30K272A87L870K701M926m956d511G488
42435F205A885d297C169e34A2012k709l278L116b889E097J4064A782p72M291a3226
42419a2446D495N914J134N02c367A504P21a778m129n255c799A6098N02j235q87
42404A4478D349c77A153g632l01I500B506g849q949D410N189D653A706a1029B576
42388b699E135L205e419A199m18f39o26A372b088H739K643e240C612L710B204
42372B167O078l962i894d739A4765j526F058a369l036l194B958K926g786b212
42357D85f751B152P548e622K465o530I727A940a3443b810C566A005f229D405b982
42341E927O498R34k623k74a669n74A207J099K082d77B312c184n521K772b074k561
42325d635K97G629J132A061Q189C929d402Q37D711g45p458a985o982M028k616
42310g555J280C425J474L186g09k908n206G487C732m21j97b969j0069p213g132
42294C859j59M776B17e506A1918n595K416k484b092R38k719j0503A640L835i72
42278d796E406B450L435B327N014E04b313n906J178B914A315N594d436C57i79
42262e70I53J1979j923l982p15N663n051Q999O90k080D327J633E47M572B195d268
42245A4628D713J177d928q235L779A856g152l702e15E290A749O92J922c334E361
42229a260j590n847l826c163B904a863n27I861l460J531H02m00N104R49L806R275
42213A9536q711O460n091n985p78d509o36H138J163a845F860Q93L571K965Q959
42198B3248j1395l821e935B763L777l207j201b048A7667n934B197c785A379K873
42184D252D69a1457K451H25N144B786P61j678g465b121m849L77C056e692k628
42169h320A923P68a630j877D324F23a329L24A838P53b714E097B190b548B693i662
42152i034A0940G13i24A5101B091e183j332p20o854j158B240a495D09P342K79
42137H030B124L258i379p710I350Q71D722c581d86F963c454j0240A930K890A284
42121G64a1389D875A101N051l26j289Q630E692b245n368c511l997a35k671r083
42106a1889c089A473P861C920L342A193e069B389Q93L830c338B583M627J330r93
42091G547b971m468b509G550a114q237M143a714A830g767a409B754j332J0788
42077A2210K088b293P99A989J749g889k566K192a592j0123j688G6M457J0310a4925
42061g11I228j591k725R695F906k793l61c261C748h747J730I739D307a225o141
42046g366b003G07a3169N092j0659c714H530D123a0681d602a106D453A312a0771
42031c794h25k728J385B421b226E564K314M508If338j00a679d6m803M36B786J0944
42014A3730D852f28k1270a0140E228B583a232j09l690j875L290k058D212J942
42000F154B784P68L034J292l731A516J1227n121p1e880b487j252k982C281N370
41985H651l660G16J685a271C183O980L008B879d017a03D595q78P701M064J294
41970A6776J981o224i156l692a208D753a1257M751o4b942j245k416a033A081M938
41955F019g271b340k61j3435Q016i58k154a412C142J2665k061B481f604C668P219
41940A0887j043e975J217n904C582L513e992J79l583F176f18J93C196D49J5452
41925A5901C316a5818c423A882h717j122L151J311H79g193E13a780I14O578J94
41910G686K0b062l639G92f06M5A1426M919N75F99J303e452j3672P163N311A4924
41893D642Q962k785d533m98j1138d310k989J360E695L136i55j4126J739b576a046
41877e415K144B895p70N075j439i80j5401M798N636G575d977j1705D557j830J291
41862D018K099M158N340C758g933J968A2766C182a01A8051a075k379D155e921
41847f974c404o152F852j35J509m051Q043c365C928O208e151D874k069K847J203
41832F855B717a1034K687k557J670n48L332n153N426B106J1506Q99D083L515B755
41816g36A2346C736i71r846j203D056e101l940c252l00j815a885j1258k859B136
41800I426k314B203J526J249A975L596a759C261a1089B091o31a057b76A081c518
41784f303D559i28l619j2627B575j40e074r82H646P296E510J767p3a915o405a327
41767a888R3d06j0516d467J773o820A740K82a0181A021k20a691e85B419f863m725
41751a1588A3909k86E017q75J219c241p290F085a588m59C978j620h88D113b98
41735h610A048b1789d653H313m16a258F938K824B936J6691o846i282C964a770
41720a0307D306g957E460j575a670H092A022M509d086p489C008c41n081r335d441
41704i81j3789k123L208K631M025L287b56n994A340d267j0207N268c706G96J735
41689B531f635a229F385A120J908J25M207e164n074C220a191j466H058j578M027
41674A0507J207l236A805a3678b771G473I13d247r04B256K893k318g261C727L080
41659F807C132e681e83j40l713E26d369E29L838R212l426b435A5092F204b951
41643C505c878F800J881B758K91A435h851K028B034N364H78d365b9A29e706J906
41627c800o61m290d117K22B717a1865M954A303b694A3594c127A865b297A575K805
41612D380q84P045b795F874J6883p797G375a0762c687C660f379c90k027I120K259
41597A1379d052F288b066q011h03q462C149L498Q132c11j792D354J843E3a671
41581c979J385j547l633J71a71B440Q58M357l419b297l289l16j2551f079C362
41565A1401B696K926O584a115D071M034C220e852j327F318k624K676a5620M352
41551a1268L287K389I247l008b63j4815f632D453a1022c630J081n866F841e166
41536A663e732a990H221a096k699k242l252F315Q018B085A04h752K011j1758j036
41521a9535g752J75C666A653J0757j295f683n632M451K107j807F72I0qL904M443
41505H429C653A695i232j576I714D660L647j488j947a239k991F107M34b998l949
41490f947a029j1455r077f951A946G29P673J757k261e515O77l36b63A4111n237
41475H874D9a743l045R99a437k0035i294M116k66B14a1558H259b637H751l423
41460E328a5821N684M360j0147m208c109k738E344N715C904L186a065D857H56
41445h762e74B92Q554f428D558Q884m358g691B876K224e402j837o610b748p822
41430a0570J305e20B767c725D510N756j060c769p0a185A790G33h441n194O265
41415g370F01J190Q225K882D727D13e7n222a163A179d493r869K633K204C969Q997
41399A2966B300J4353J6901m798m866j1305E823A240R178J0743H772g148c04A301
41384C336j381G53L267b665D672N841J1204E164A30M700I17i79D579L62h05K8
41368g77k131A1436I2i77A7998f083m768H667N137L51f428K641m812K872F121
41352A6627K959B767A150a1483K513a279I835b602D505N433b373C704j721a152
41337C099P944d66l979H901C259c631R98E485N962a2624J942P3h67A5711o643
41322I068C430J1170m159b607J091e72o699b198k477K265A0266P164m842B317
41307a5o907C176J1321o926f186A34M243J760j228K643f419k092b4I85J631M583
41291G199K650L68g000c44A6667D716d720q398c111D784A252g472K832J653q911
41276a1898A162a1987n687D134J09K434h860L322A2798L83K139k823e293a765
41261a726E382P10B075L496k062j675P045J398a221A2343M24m979M076r60j588
41246I316B292a161B169L36A008f915K077i89I293l017k499i888k971b479A6342
41230B0827E010b937j1107d570m554C026K782B673O6G35b096l990E710r66f700
41214i101b296C645e699d00q933M435G79A61J2858C501b338j3193c260o17n579
41199i456K74p896O292B316a094l586o0j551E64M458b195C295J347H63C23N111
41183E434r64J992j981f881I39M858L580G59M207a67G409N328D846J769J477C911
41166a619o923j924R31E184J0696f64I881Q12C214L435N921m830j485j50b09B801
41149b289m01o919G453J2792G572b205m156j407a868n336m05J550n962e704G344
41133G868a558o385A635J5794c653E09c909A314J006b841H446b411j511A208a1433
41117a4864C7a1717J419B925K327L196O238l423D347d865b327H529B916P800g619
41101b0062k311Q173M667D191M548a443f73F276J0464a446m250n313I60N533I08
41085B692N29f397G442J0078e052q661p7o322Q122M926F064J0140j771m221m397
41070E815b344e4B0610j166j46F273b411D78P048j255c066A2400m772f095b496
41054B909M148j166J433D96b929l595B618R609c114G033R19J167e253j264D6a0468
41037A8545G059j331a544q610M915b60F601P674E450b17A1681k895a468d9H575
41021G442J610N252c083a226C860d033I062A122P142K34k414P800l999B990a1013
41005a84E339f966A236a1767a003D924K890c482F778N503l952P145k368B107c635
40989I52R119N210h676b278A483k77M150P466n255e007m418a082C572j593M097
40974F076L471B876j278P801a066C097b269k754J946j768A7905A882L41c457o017
40959i474o83P83c336p533c146C61N377M403D839N745P34K94Q07M76j682B204
40942D423N814h315J071j247c055A6013fj513C235Q720J373A433M421J0650F353
40926G712k31C505b951A994h734a717P7f45k287E654e78o524F308K984l166c496
40909e270J663k574j0666d205o003e46A2469k163M460l204E428A011M007M32b814
40893H520e9A3077m500P21j906B367M894f659m20C598L18i647K165h7m85o328
40877f900J227a831D324K107d177a420m332b59k45j0635e316j899B576O489a373
40861B382O854a186A909b640k11E879J06J2044J4345H063b042m202a806H157a036
40845a7798h312C131d902E36N003I44b853C34M592N075A476d643B79g19C548g145
40828E26L982A116j71b054E556b017D975N158h725K430f45F370N202d546A3684
40812A2149N717G771K04j515B866P398A956O187C950D05Q010A172N262j044a101
40796I347A900b581A3567K321F869B185J380F94J570J3306F693e238j0297p88
40782a6323b212H249k969P88J027k889H20P562e343k158B98O755e56A170L945
40767E115M232M227B881d092B616M917J040N695l781c469B46J0695c665j73a775
40751i71L42q425K349j234n856a943N89C213K875m30K896K235J00f654k354B78
40734g218L460o451A377f616K768B692i829D627M58J14J6371E280a410m09j2926
40719a4745n29o887J0708g89k289J43c42k311B2021k382b530k098a312D89L787
40704D276k85b819p494A985a0729q981J619M080a401n547a350B725j00h227o570
40689a4797l84K085B52L820b280a71G924Q262k475b379I70Q632a1573E649m53
40674E196M39g629n301A0130a1864a77G757I35B35J357K957N724d49B417M065
40659F482L265c371j1906f467h68E950f828a959p241b684I234a4090K194d638
40644e568j133l022J978a26G87a2101g05o289E65b438j871b082k511A252K853
40629D105e844n529d312p554B836K143P405m898A24K427g79C752j639g61A4655
40613A4018j945k685B636N904C980h662l963a565k914I410M515F080a4j0963i62
40597B106p4b699n482A489M587A574d298l127B710O338d118n825d652n844K183
40582h313b197D90K813b044k531A590J266h05L71F408c83k612n981M426G614M84
40566H098k217N696N89B729R603n762a1494n390K217h45A0363a230j4901k720
40552a8851Q506j5645J0969d052B817N281l690L950B853f537c242p343N214D329
40537H150C831L404K828a0407K539r774h190G481k615f607K339G59c795i69j2402
40522a3371n214e174o176K16l697K430E022J317b013A107L062R585n538b591k524
40507e115A56J0523l079b115n03n174O83c101A928f449H90a089j0386A300N067
40492F367O123n297O141m737A816Q700N452C229h370j1047R526r28L221k720k780
40477a3098K332B600K443J078n62i470j0557Q861b076r85k448A448J394L444M935
40462A1221d237C395L637r42B463J5330J160E341a892m92a64A277a811L0F693
40446A1038D427A260M784K724A195a01j0169j661M505A1899a342M47H58a1326
40431I945c212C507b643l878B0654G663g966F319M633C177M227l246R320o614
40417F864c152E081M417K815D144f015q431J260E055M659E94L294a4776B030o92
40402A338Q07L069M670a313C154c570n020b436k071j426o841c778j2089d198a447
40386g784b72n032o651A623L519j78K400R38D014A622a383A256a3873E555j42
40371E413E91e637q550C881M485Q153E283h460M161A0413B752F20J777a6414e711
40355A2495D205h173C87c757I867D371a3407d660n913L902L018H45L746p34d091
40339b726n367F06M354e373l367A662M318d137a963G165j349b663o020K621A868
40323E826B617O359A490n68e794E584p46f420r415L743L764P11A3321a727m930
40308f657l018J175q231f694a012D135c524j591K42k447B770Q055j095j957H65
40292e170j057J131l136o350M106j1969O939f189K958A245e450D255J4877D757
40277D88R666E50d518D354J282M007l658h295b133G349a0889L801H05f777A816
40261A1056B412B7a604q691M657D21e223J306A993J67a9I101Q14M680G287j796
40245E491J978a133D516iA1595j238l927e285p306j713A605c264k978b103n222
40230g325L537r402j620N095c662B013R512c682B406K505k018b53F88J4908l900
40215A1696D473f330m185a293C764o92i122c454D832e833k792L13a446n843E407
40199F865n77R045n663c443l186A869d611k115l621a481p737I42J0453g479K621
40184d858k272c048A242J101J7322r678l011k038a0663c702o965N226b123I146
40169H735a342k502p764L900C160M779P63J636c629F873J3614B010h440k549P16
40154a0273j3120O411E873B332N677C873L530d28j511i14j800A987c539a317C416
40138g10C388J1975D475h523C564c418N15d75o081D020J115k181b61I940j631
40123H309l877j4O020K137k117J95o47A573O934J678j725C775a324N27A97b302
40106I422J1712I040J436l381j032c128k154H505N910B971d137E198d048o466
40092a0514C49f234H001C541o28f431q683M802M378J714q167B624A028O130b223
40076F976D33a5811g18E943i76p134C494O538C536b791N07k879d4H621a703k629
40060d332o626Q75M018k570l142b443H991k56J3250e199j2968O820F667j993A642
40044B001L192M197D519e787j2678b883p323A615Q567d831p346L503a683o145
40030g828q324j1417L195Q556L157J180K908H719a825r59j080i99I6d541o46A669
40013F881J730D126E7c311J461k011q624j806N966A077i730B362a143j2656R36
39998a2863B760L551J488L123D128H47j73e97C469i640F717l328K272J0356d657
39982a0986M581p036N250F0e913B080p87O97a1260I963A559G53a1985C614J6500
39967B0114G970c490q277e538M1J903a443B166J929N152h031A348a27A347a937
39951E258K174L13n57K71k506J164k340a952m329C965N809C185N655H21K01c329
39934A2901E554A547J919c34J27I407M057o088N410D393d871C171c897H144Q00
39919H944d57r449j526A3609C453F85B70M169f969K651B12i44F609B359N778j948
39903F189a71p125B068h355c076F711e959l824J731k818J14d244n792A3256B63
39887f500J481B16J0937P204p992E69M134M33O788A831M203A455C39a1k476B742
39870F147j461g390o22a448F149J2412F784a735o003D484c568j6885J703c718
39855B4142B693h520A5024O755k892o540Q3j865m292e992F806J827a75j01p215
39840g491L556J142Q19r392A67d247F437Q345D547r21M092q51e188m47b395H962
39823H236d205j2929g464A275P29J041f181f92C411J268a5047O661m428n23a415
39807c354m219C80J1927A952h387j561D266c289j324j867D831G72e601E348c652
39791c559k697E97a0772b470B381a7963g138m384C606g887C940d972J021J653
39777b298l905B804L783O46c525F920j959J755B159J888a4675M051A754J2477
39763A4231m533Q62l070N536l422c292D986f54l266G972J625K6c123A1255L387
39748A4642E326j458d280A4018C118A423l11c160J230G559B892J712d905J971
39734b934F337k989K61d971Q44J57A0310C631a5721d484J212j603m099a247D43
39718g099b036B579K034e711a242C30c58G169Q747A417d760H998j105h282E58
39702D880a4C414K809M82C314N798J393m971d790A0957j467A420g963d32j681
39687b113j0654L391L935A8645G064j030R803r67k634Q34h825Q1J994k638D618
39671F215p16B67J075g714H766g20n80m939l175b279G4M718d578D96M90K472j228
39654B230b04G56P335M370n416A639R492B478L651K476f028K59E316J484B824
39638c437m678a577j2732p122O704c500C610a754B287Q161J280C77c435q21a843
39622a432A224R600e270R05q03q399d753A0467b75C075N930a06k768E020h134
39606b3263a0337j804o03j309e219n490r88L779c379j4436b181G740l470A814
39591i425A0974C155J794h068L975J161k470E122g12A205J0202J597d428m574
39577i002E6g618a192A1356k876h559j3188J0499R25K542a976O78k036I581a923
39561e437B143a906C789N443D036d957n016g38a71B729P533m327b500B260Q235
39546A0495R994F088d036L83J12A3220L604n425n058R530k458j604b279D322M676
39531H998P08A900j42L037R318l268B661a404k575B2K189N810J434f795j42B286
39514a1125G547o14j449a2245J317A45h4B739O773k357n20C119h270j388k302
39499a1960e173j0228N337R43d306Q72P62l104r173N026N0L537M77o34o999K731
39483a0761e265J979p83p91k034K682m420K817a405H658f41C103L282A826a724
39467a2400m781k935a300n241a270l722a446k245J824k541l151B202J208d582
39452d072A0036D570i618L446D29Q670K302H3b736C276k14b92j7411O758C923
39436c944I649h08H125K672C328a5366L638b936n753b557j8157e440m02B619J3328
39421A5947A94a815d06q653o423d414F719A715c03D107b2428Q064E867O333n066
39406G134L291N882c631k154a6q661B518K104A0J8486n026k222M685G621e465
39390d310F712J394J5631q52C531M93L322j772e550h89r803J737p401g104K239
39375d865K264G962c012g29q06C644j611a751B152L137e732D221d787Q29A825
39359B146r09i23K59j1259q69a850A2763a0050l52j565k034K196e183H846g8o948
39343g026H199J2034q777k599d846D144a749r125L829j570L84K724B392Q441l222
39328G611a879N63A0589a138m483D019c044n310C142h45C384J0564F357g67n397
39313f164A1100k324M675E59f410K254a616j11j994m179k363p235M643e821A073
39297F996C417r53d230A0254J769M171D632K27R05a700K43E573R812m537J311
39282A2159j564L213A178J78M732a9861P567b13D651F9a5364M349c556p063K149
39267h470L996B218K986f213m09J630o39E24l7a5729g058l427O52D236j062f226
39250a1924j457N067G912O05l031M229q91J859E234J3523p637h656A3860A795
39235e59A0663g20j3867l210L233N079A128M511F76e702K732R77I30M546g212
39219a1820b319H43N483J493e631A832a4283l097M592M927J064F321o04a6861
39204I034J435C423a1021a484m971k02p76B375O161d296a783I921A534D61c87
39188b96j627C63J731c044p4F226J5794C057A3a1686b944H310l865c781B073a5910
39171A1272P515F858L132a96l784k87l322c394C124f908D483a012A5054O118B592
39155a937q46k015a688l736l017k00A487J649M106P362f159n629A897J4563D535
39139d061F002a60l08p727c626m031C012f378k821A0502n160e047a531k222n994
39124i747k966b806n39j4998c622l501K836j4553b610A102c002n180j7958Q321
39110a7819K398L617K600K094a70D291g392J478o193d536j406a291D894g456B1015
39094A5502E422M352j775A726K59A43E2e370J653A9189H721L415O879m60H555
39078e91K06D891j875b021m328r347f031a060A1697B241a1250L378a869j0746
39064a2615B221R478a5476a875m295n054M562J828a279l092H95J0638n367q03
39050E363a593l089l131j901d43q265c713a617k989H898A123O4P172A092g946
39034a744B259E1e471a726I425m51m178a4054K579d234D192a606I866O736H080
39018A0358D897g76B506e943C459P246O263L19l972n967a6748C835N98c411a166
39002a7465K918a220E223j948L856N81k95l70a725A455J24b199l560J470J271
38987c018l533C15h349o526f014j123B931g985J610E210A431h795K79L543K016
38972b957j936J32j939l68n027e100D121b663o530A2969k069i290b363r477c516
38956d185m922k294d582j0568g555a708C511F84a520I086C78M104G07a7826c144
38940H504a400A0968L406D675K946l351b119n765B264a232j8524g211b272n569
38926g841c173D344O625d39k563I679k888k377b760F604B22h269K947B61e208
38910G710Q528n431m84b029n865A798M334i01p572m423P78N730j291P43o385j444
38894a4765a638q84A1430A128d751A5235j908g13c14o186k012J933m370D333A12
38878d058F483f102E405L518e891A611G45c02F304b566n883A958P720m331K02
38863E549a8n508D678j88d681b302e56l431k856a764o481A284a234m320l150j346
38847a0050L036J159O99C040J0110a0666q000j048H43P240C767a314k130l097
38833f541b905j5925c958B350g758H624K148K845n938C62b547m9A720o79J0494
38818A1535K411D443M087J51l785N913K939l296M983F129b7j2901m241n4j676
38803a8899g751K576D307Q809e6A0323J1000n655f602b162P47k306D252A986N293
38788G279K716B121e052H742D46e483G206d305I242D454a819m90k336p10o902
38773a2257A408J132h623m876K38j759P116b491H610h048C260H95c657p817H350
38757A4298q28L06C590d849k135L115j4189f74o705c282g20c23B308P914P092
38742A7314E68K482K058a466m431E565L270R96K204e039b216l096I751k713J363
38727H401G58i217J663l338b36A6517D965K751K179k553a813J99G229h250L972
38712d278J723E706g063f43k003q700m435j624P430C330d27p305b342l740k412
38697h494q45J897C207J947p14K989c702j719m408A994J0177l992a27q74A967
38681H683B511f368m760l770E602b802j2446b160n624c572A1562a462l606b515
38666A0228e890i16A4738G132e747J712j163o85f90r355l012N141E344K144k725
38651D763A197g881L676h80j0402o654P65b630r346N599R51P38D269P829l385
38636H713o58a51A8997H951C400f373j998I003R615B895a0128C380n39Q826C034
38620A4957Q976A0732H26J3092C001c980A1187Q873b297F79e781F049e637p930
38606a3567E988J5316l197o923a0234l846E851A844h204B749J4432f62E205Q204
38592A3409E686f992A1317M153m518L757f28r110b790l912K702A446J700O55J4450
38577A8251m348o806j905b39j505F752k329A749J257J3565h59F697J1610m555
38563A3752m986K271R256D923O398C723K080O495l352M867N760o029B416J260
38549C676R10A669N421b087G542B007f852n998d713e5n660r535H01L939h85B774
38532c487G463J0716F986d541j936K860r88l721n10d053n477j2969J0759m160
38518a5900f411L012G228A445J079O135k973L571a1901m61C860Q407E985m22L606
38503I169m070R73a969A2421l655f509b171A0543j637a1159m963o968P621C204
38488E268f68n262I288M377A925r01f356j4878Q014c223j606k29k617A04g822
38472H960K086a497D237O093k896B876K006M281j276a4546f548B578a98A553a5379
38456a7979g585k610R07n050m484O252G101P404e85A2259K986D533M89M11d556
38440h539C460J1683D547j54j087O279C104e438D270q6J566B12R661c105A310
38424I851G59A8e043n031p34B085J8103E462K285j209e067I58f755o78a858C026
38407c749A857R05J412Q685n459M690D846q72a799D703L397M515L85o44g41p598
38391h339K054k094C473n00O822h107G779J816j70c49C542L160l043a643o708
38376h351D482b934L17D968L508N052P967F200J34k807K283J2615D687A166a068
38360D584d947p301E684L39N013b273D748J923L228P741F827j81e288j64I380
38344e448A60J2027a069j559E313c018E515j657O24J608M93P674a2575j244M292
38329i527A36K704F94J246Q08j284M752n44L72O846C910L854O142C541J0573o311
38313G803K912B098R38R472B531M703l498P620e279A0921A19a9719O428b679G092
38297B899O113E71g483m835E527k370b423D874R559E656a040E816p35g65j0575
38282a1340n823e770H956C283J344a2897J329J402n76K411H790K751D422h9F910
38266b23I4a0841j3570M451q051a2697p181b953r392e925F373B534a0449L877
38252f572A79N21L847K7A954e834a309B814b379R8D872A318e024A23K556b0560
38235a6444g022A4018a021l338G505B057J993A740J2585B006C07R196A531N663
38221G194E15J960N645h424b691A2368A908K283j451g425H487a15r000F71e709
38205d953j067E89R030c024n432C40P031J183a906k687K201N09n35p293a777A5754
38188B0197b432o710J832N28b380O70A457h05j0211L387p952P449K722a768o415
38173h183m550p59M586a011j1830c789o266L111p211G304P437g601c776R73m633
38158g436J280a526l712R25j101j842E17M340N939o81c849j4704K541d981a79
38142C664E13K24a3302m132e243j6119J0657c848l742F377O07K981j813j557b020
38126B813J0095D701J2619N101J586j0635J227E635g37G108j169e634o210A417
38111A1104O798a777o343c127F729b747j603a318G744a0887d759a832r52I122
38096C078J1792L506C746a717H79P236K265N32M681A809a1008H201M924b105D571
38080E761A951c397A412a311H414f03A2957E239c006j2116M153I032j335l462
38066D235e627m67C309n40K02L320B979O95L545a0005o016b443j025m568o478
38051a4514d038J163A1621C898A419b162C373O326c992g1B56a017G927j652K004
38036H279k118K001A914Q262B372a2423j850q741a0770C432e558o578E83J595
38022B178b50E45b339q09m355B909b675l411q12q528A3602a119l082r82p016L252
38006h947E54R246Q859o153h095p88G38O759O105l39K821d26j111B0592F753j083
37990E670B53a1004q05A345q2a405G826b399B609J551M876g6C835P508f113l629
37974i742B464L948b358A843n57J2302m591L091a1375p455I157f19k416I251M849
37959A4100E176f219A303h594K671A1418B886Q215m131b467C756Q424j255a776
37944a4920o674B816J3834C766a098E875I5a051j625q048K785D869P021K770D87
37928f447a610B234Q004g593r040f930q206M34b539O82H729C104R311n408A049
37912E059N362P58B731a5055c728a860r133J799l410A0275K607E531j713e750
37897a677G470j456M333D385b576E32a790n21E335j078b329k652A180O924i542
37881h000H471l966P121l095A045a6828c045A638a538B807P21j512K981d956l899
37866h855A714d663j279J228k283E512A901d590m366n081J241Q11a886o740A735
37850f708c177q190k494c528H65J294M603k500h709c324o874b744A1612D331a555
37834g725a904B449j12P848C794a1264J041H274E8a1218c547R68P58j8724F50
37818H400A064d277P19a188o467B564a3188f219E992K332A755f764r94a768A710
37802A6240c858p150D283m83r99L953M398M205a491E4P649l431f212j444B920
37786E760N936b132o06l972L181m8n672D372K013A084M572k759r74d20j347n499
37770g266K519r196R00E786d948b055K75k362p78l304c703j557A021h845c829
37754F833M518d908e2B034K773i781j1201J0339n052f658A0590E184A703J4246
37740A5949G599R924m881m351R163L497p775f47j0162E01J1512c05p651A4464
37725A2663C781j533Q935n088n28J6137K0D436R556k827m269b883D04N475f33
37709A5838F614K617H28L780i57A0392O417q103k47B914a6931b241j0553L820
37695h974I734J3870p336d056P5F50J7789c565F463A436K870p7h51l058B725d13
37678c573A584e876j976d54F83J724J475e133B833a2147J886j294N172n51l163
37663a0097n337a756D219f64I080d460m511p14A0424K368n418M014A539J034I20
37647h674b816k061I456N360a300j732r81m263j3192M998L141R19b068B183a5922
37631a4983c370q017b533I027O499F637f237K296C211M447L58a1j4473k37F010
37615c528B164N159k261i694r280g121F279L33a0221b413E86e160j0348g146J911
37600e235a245j683C715J2100F331B555D3a2029k869f375a998l025p733K012L672
37585g072p968K009c635C857a098j7556k615P38i611C485f314b204p64F121M491
37570A0612J27J948E438c156J555l18E036Ga2009C822E83L905d86F84J422e047
37553e463c37k593f5q763H237A756K847J4365C440a534D481N825D077h716a122
37537A1179d175K26p158F95a971n216G451A933b727E298J0468B973a0510b787
37522D817M030g716A9J931c89G439N806A580g151b799a187j725E630j147b949
37506G8e849k554j009E065K834A084K229J0466l215l277B003d172q749e625J732
37491c893p197M796O02K373o572j852a249j0657j713e825h05n53o698C050O044
37476I094j902O02j115f185b957G795O949E509F20J0993m104J466L079G17M711
37461E428Q177m709N375C790Q770l544m026N218h780c536F027J4605B60h366C896
37445G347h539J336A266a3191D492J165h76j1340A156J32Q673k089e155P20H60
37429A78a5806J997l146E457d616o307B721C82a0331r778P312b975n016M10b037
37413c631L50r972e989F818a0319o765N928B108e749J046k291C649J173B331K567
37398D898a7784b452j668q919A093M718a2445o750L606P694J578J426j2799l484
37384b1174d67A3786R30L435r020a6159p670f42m540A081e62E680B638d892C842
37368C013L375p78O584d91B083P3k22L418N988a1333d452q99B29J0060E035K47
37352E282c482j926j0611P263F797g603b632A0361k554L864b5j896H132l776a8621
37336a8430i89F563c457E334C35c433B058N804L331a025A1518l847j818a57C63
37320f651L189F827N82a010a84B3522P193j3921c588b5q88o643n136b126q621
37305a0747o25I028j514d619H4N280J2167c319q197J533M937C114g820l026E291
37289h82j0045H137e896j483b523m942m060M396a754h25j003n899j1316C902R792
37274A3694A166h918b27A3828o073B431c024q494b072L9p204d532A7969C463e307
37258D085J0220o221i796o677m122e918j633k776j1689d412C914L363j630B583
37243e127f15A7095k730J495k9c739r190L842b244D086c354j496A496a1723e293
37227C644L596N25l813r2c545B091e352l270q675e494b101p68l142p042Bg253
37210c986F200L656L712j08h935l182C42c728o678M141C66i62p307d033G509A614
37193b770j4640e264j2461n84f078H419B329L99m03b352j158r558D83c777E231
37177d842H537L270C17a6510L325p04C098K017a2729A311L269k084a0338m472
37163a4810O786F86Q097l21a931I609a659n82D541c022o933Ld221C422q24J002
37147C600N642N785k205Q27K542j950L909H856g4k247K94j0994H42J0998a200
37131g440J088j186n98I09J5061C960P441b548D200L752b061E861a469m996j344
37116g809E75g280L133Q14I080j821o36k035a499l960K321j3311N858H110l657
37101D453N19a532E870O95e81A465a0197f44D753b519G9c544J334o811c458D975
37084d070I938B812F7c57m079A803Q291B190h942I091j383J6629J99r719g778
37068b188A0757m612d411l544b22E887b446q281k804e205L19K228A419b229k89
37053b518P09H480k618m19J32J240a1246M048K815a136C681i577j444C712d61
37037f244K570G50b867p517q93d26B918K567c009B926d82m373D963j055e901q557
37021a4458c539p345d166q086L829k81K502k115n597O36L90f220c077F942b054
37005f458j859L445K31Q30m629J966J413A422R950E244F90e133B304J177O806
36990A0287C140a0289A697J0482f104F9c100A643L680J451N957A613R133A806
36975H798A426L78A09a3343A670Q910B132K560N502k682L558q36J462J1750q708
36960A4738E057J689d692F150j344B155c523q11I102C930o06e469K281n852j786
36945a0826m091m717j018R23O93K032e386C16R722g084l965D546E74N647B516
36929F335l109a990B55h656a166j1469N188j459L407C916d605E193b615p112m673
36914a4400m646l89h631a760j2242M608b365q498j1231K406g358A2544J061L159
36900A6764n729C094O863m16c189G268J632l16Q181E102b24A19e848a852G859
36884A268K480f05A447J3666F651a0440E28K482J374b956k027B637N187I81a517
36868C138M264a1875L904C284e506r997e749H310m132K719b685m666p16a417b02
36852a137A340J0342A424c259j220P42c41q964j562B122L646K92h394L653k515
36837g256l772n38A899J2445a615n317a349A487a2751l25B784Q089l501o92f35
36821H97J050h252l428a155o786A611a142m541A011N829J718b564k31F002Q018
36806A4020m010A203c395a532j699l581J293K341A208a868j132B322P526Q62L0
36791A0740e20l29C285a1118c799r926f399F394i27m506a404F693h349m285f280
36775a0666j521J794A884K475k047R026C157a3093A96c559n360L965C141O182
36761I323A431O298J807P13A633e313j887K14m346N583A20c114R04D607N316j612
36745H311a0202J903G288e296a385q820p874O147d700N1A4728l800A743e99A149
36729B546a3774a431l12j839G980O096C610P074l547c87E157N694f734J639J35
36714d960D175a3429M643B802c915F280c873p83G235J309a1855e139K381i70j3109
36699a4079l213L624D351e604J108o90b20H468a2961L985f70B130O627c404E341
36683a950j3353c532m31A49O860p64a0384b638n021I92J519c935F807l089R015
36668A2733p28C666c934j7286d675a000k920k535c087A5455J232A243J3741N691
36654B0675q777D115a2510b522H049l644f050b607a47E221k395b334A0682L549
36640A4231n852C503I51N060k775O298l396B447K296A242h678p145F937b543m66
36625c009C552K856Q968E942c589a525G126g66B105p67J582L174K14R413m876
36610A0845A632J901a0450M577D406K027K347J2656I742B80M033c856R90a101
36595b50A0088j819j467N694I71i411L639J892a912G019f941r254N914a550p085
36580h635h70d2H791L270O708C18i013k457C862O083m167P559C246O93a0480Q93
36564i587d141l594D845k010h553L208o314A1418l285k800E92g173N63k16J681
36549e145G733B55h727B0585e848j6720b622L71E318e308l811p48M051N24b383
36533a4299g098F430h680l354k540e960p423O176D028i435J79i6A0094C001r85
36518B016L595g251H60a0531a444p568p361f883B496a2397L779a137j1835M641
36504h331j0353P892F126N079a1077K67J877o994d067F692a274N51o153j1651
36490a8527J473j31c51I112O38B512Q23d164F727L928A495a772B174A019g711
36474g29D309e381k383C322P37L562B428e130i1F073a0200c628l218H09N666R399
36458A5874c785D479J300M820J844B301O243k151k319b703k682l707C330O14f447
36442a5996P956j268I836a1089E357I34c244r16a979j979o267B013i425q15c101
36426D504L244j149A039a0641K340A017g119K640J28m96H025M869B161f532j638
36411h170A3d690A0856A785e776l76l975k31K210j846L310K969A284C13M134c535
36394i557B28P702B377L5B21e928D570a7046J118B499P531A739J603l27P068K909
36378A2992M793K033E258J965A694a2617k06l666j275C492Q25e510j755K855a320
36362e477k048D546K909a5306O759C633J965N40a1j732H439k569M163J1716r268
36347A2481f318m098K662b679j3070N466d58n075D415c148j7463M230b555k848
36333e403g96j4320M100G33O243k379c20q943K606c307E376O40j786L347a0678
36317f997A5299c669G758P219c640I581b477k806j631i97n160J149D143O119A734
36301a0949A765K952L272j138l94N199a961E955a229l484a989f77D170J45A516
36285a5382d569i1o716m542b735r56j3389Q356m60K397d55q15D251n49e0l021
36269c071I406L911B283d90C070j020a3931c288m467p334c210k107j308K451F04
36253C31K336K673K823a046m195K362e52k679F634B939K695f494D732J1184b982
36237a2188c649H20a997l704k950m690J589F469B222g017l417E85e937I754b597
36221c207j5437g451L055F081K853a4070O896D736f535D90J746e004A3183D90
36206E523Q077L762e573A4203B060a0732C36M819J2876M66I163j625a1970A90
36191A1859Q528G344f6D175e66l327m101C527J126a1700b87A2152g678L347j1747
36176a6078J135j309D673J2289J800b407E682M135L839n382E83L0K49M428k309
36161B981I90d893e59o53A076h558b024L52m602f32k053B699f18pk460m496b614
36143c083F866A497e83l962B82K026J950a4704f220K095m585B340N127k368a606
36127C615d695k171F324j423a0962d827l194b276e50A6212k184a099d08l906G275
36111F003Q795p245i355c034f73q344a037k975j4309K576f363b981p971k81N384
36096e849A1104P738q960g10j555F990L481D780R063J567D512L40Q054c579E672
36080G461Q64l510c469J320j389A790P387c187q88j07m973F441c621C0M71R948
36064A0449j194R55m036L101b670D742e361q842G227k466a298n603b465G157L586
36049A0743l814B892a161A346N380A648a0488n483K506B7h485o127k773q193B91
36033A0100h464D142@A524K928M119K094c207f80l662j006A2182D051b356A459
36017H297J1667k415H307K119j396L049L329p164J796O482o172b199F069a170
36002a5442c796j252j8387J1378B86b069j842A4332m753c622a587l432a029F836
35987e742D3a519j2143b347b77n074M41l372l034J374p35A969d780q926A447m33
35971A014f818q438A98O822B18d733p576e74j4817O523E192N331k647k797e419
35955E402i04l011c69q586b624g55j1004l036B89h336o8B089K938g40A1704D777
35938A0046k537A978a805I119N323F646B675H00N171R105l888R088J959C457j517
35923A940a0020b514G895B434h734A137K455O690E081a38l784c5A872B14b043
35907d863B128M126A083O022A632g563q641L210F416J325C860q66J0047l882K028
35892A1187n004B439i890L365J11P27b500a054A7105q444d311C562b539C569L617
35877G186Q03j865C90dj0397A0548b933j8320J0199C58e511p072h36j564G440
35861f191j398C308e5A3349n165a2489L708a810n346a749j582Q70O02j260R8C622
35844I767a866D027P38a1659c196C010K07F14M854M992R83L768e45o225D65K500
35828B965J342h530E547L686B60f142k185i48j291B369Q604L268d03A939K730
35813D669q89a585D841J7015G407h600B097O182e960b97I101J720B944b350B063
35797h313c299j197J017J598l079c32I928A81R327m367f564J077j099q238P158
35782g666k747m407a015D213j678d834A3616q77B50a2462D46K08O952k931I17
35766b713C667b872B899L823B365N061e088Q61d40C512K817N842C786O744n122
35751E408b809n286M59L612p70H070B602O598L054e444A1326I55b812k003j6572
35736b1387h263l616j289a976o245N49L040B985J110N593N592d945n155J066G061
35720a033A1430O476D36h04k871E311c429j1701K605H295b794C71g372j3421M230
35705a6563L948d60p966r751b433C84g702j2168g706I868A26b791l809A111p7
35690A034J0544d794o343a842n757A9a157j0795K48L40d323j5572M473d766a55
35674e54q566m508f623a292j1346c593e61j012D765b200Q63B631N841j119a510
35658A0908l042J607D636A421E84e91D52M496M294R26m512b813n262c264J577
35643a687F859B575J0840D792i180H956k899A252M540r98N35A830a507E145a235
35627e645E555r3e282k526G745L651A485R073A459K175A523e790j658H830e991
35611i575F56a494l649D885L73f275A2138k514c352A883J0829n424f859q41B244
35595H291A057b0723g317C112a0872J395D692j857m31f003l511D116j167c142
35580C873K210A625J117f121j0900G08P464c274k164F49J283c060E753L158e492
35564a334E437B7d062n397c568m853j235k250b743b08n839j345A463a810A813
35548F605h167J086E617O132b124l483m595L067j3874P742O291n305L131J975
35534g175k968c683l851o46i5l255r570n851g527q38a699B328O129N23l885A977
35517E355a572j277j6114f309J038a357k046a299e68j6196g545q81A591e300C199
35501a267r699i56p87j6835f989C426a2846K568b339j09n233n491k504c919G572
35485D006b703F061L402K446K569e687K832k360C957L687l27B759b533p924p71
35470a1228J871j31A199i958p847Q198D273A178c449k363A611P275p08b22m468
35455d690G92J682G74i428k983L14Q97k808J745B336j019c704j243A3508l032
35440A0476D361g769N89p30L075g7I793O746o016A410g276L220P02D034b263C55
35423b361l799l863m440J297f79B00J0687N116E452b116j3992L556A51c54H84
35407c583A4717C950e136j258n628A1774n407b301a023B917O164A774O319j554
35393F539o74K458B654L644h49C397E13c50m632J905q931l959M227L703c054j0022
35377a3076D282J4344A538e300A588L706a649A37f453J173J59L05l658o352a41
35361C787b209n957C671g148J759B904d966B317P921L413A313f290K78p208d14
35345C347b278G547B592h035b307F865N746E564c216C993P187g567o202L987C029
35329B202a5080b415A614e581n063c712D08b051n601L639F22J778l95L754K385
35314H144C450d988f35D059e96j1363k512O396b70A843f121oo063j2268Q770i88
35297f143c37j2663d300J942B046f25m743a413B573d403j4311f441A866e782m338
35282a0120K355c219R24p869I41L445O150l313B996h690b543F241A016d981n812
35267a0793m470N539L616a979p846B80f60B161f711j5119d44D776e729n81F860
35251g304B853i676O21d136R42n690k260d789m42B752K789A277J196N802D08P694
35235H102R680B385a5479d756I70a329r997b872B733b203r459e353A311a5164
35220a2688A6M225A471J672h275Pk276j055J258d019C512g611K54r30p006M658
35204a0635a549n551j6522a0588A0400L264P87L192F760L530C135c518A419e153
35189b27a01G563d010q902r196Q483J138D769H15b4195N377K887c780e47j2649
35174a3196j775N378d045E534A944J0511K534C938f100j396G878a620k707J529
35160b798o087c854A454i635K346o898k325G334m95b640r742I370e062E918M15
35145F333a0990J357E010B121B67Ic604l082m27I91J426L944g043K340G448q14
35129F634g431k068o329c215j2494A807b750r742f23o575n205j819J485d375D40
35113e339A312i505m693G665J4451A947a1796d662j3036c907M99q793b25G374
35098B830c373D737c43A3670o318k463j799A296K155a546r148K905j663d020D462
35082E951R206J343n55D202A014f241l658b136j163a89I85J603O522l840K280
35067G550K80b93A587D02f135P14q94j632o280P011c132a276A944L119j283a544
35050F439B920L647L17h1n380B454N957P747j297B520J3895n807a3335L413b518
35034c930B500c44j267k5C344j404d681B730d205A45Q170i939j591L868j532m452
35018a3646d906J776I066N288I97d411m986j442k292F87h45H730J2451F954A841
35002A0091N372c712l877N57E040L492j203J601b325A0857d68m177B85a1656k272
34987a3928b769B693A44g010a534F427A543o37J4859j588C353e233B350r21N170
34972F599E58d891j3190b568E61i225B223M017J74a3410L856c918A438i845n317
34957a5162J3a871l076G923C026K73g297j194n639a529G850a0539d802l953b649
34941B0243K624p075o354l902j367i508G11f555A698J2590b916D63R711i74m974
34926e948j1352A888J1139D844A700Q00M197J0979C570m8L365A354O07d695a732
34910h651j756a666m562G992A362a1423l51b571c76A904O237j524N056B697P69
34895C466b356E607N137M376m274L977A090O537a922D927p12K564C072f06B1325
34879C813b449Q63B651b126G859A402m61J3189D517K866J5494c837D45N037a507
34863E312M547m377A805b94j1961D899M854J005a0526p2B06b345A1797O116n857
34848A2056a36q433K31E159B098J4894o72j086o031b438D877e366K073q85H494
34832C882f347G720l313j623d569E772b161p969E49f097C239J697K265d873p949
34817a2822j210a723C319b263m961n396A6303l655H55O953A388a212A130K914
34803D044e162o131D468c697E452k649a3337N532H56O082O52B013a2438J476l142
34788a4104A207J5244p147A220K180A00N335I37J0108B794a0507b866l072C02
34773d511k540k097a734A3670F102b436A021N545J3178H28a1921G634b001j302
34759c303D215a37B494d598Q79J648p125a127b69j5504f194J190A32h458D284
34743f300k248A912c270A0022j183B001i7C794a6572c604G48d781b52j0121j192
34728a1565b499l966L22l673F475A852g100b668D277J0168D458H31f493J532H408
34712I713l153N829A630M866B583e847D01b296D997j595H39N346e480b379F416
34696H446Q78A73a312A40f693a649a11C937P647n135J472f982J749P08m434B40
34679A721l97N648a889m736j745c766a748p863D338j057J958K222R218L734m778
34664A5635a959o996o341L464A771c622j148K287j3276g699l155k994H440g767
34649g711m709d503b110l190B322j63N212J366m336A105N468J910j501Q719l591
34634A2110C596A419d977k930i56F20a0124a67m057j4520b782F954C328M262K849
34619A0439R360F310b111N11B349P638l350L543D876K273r07L303J253D498j462
34604C036b158j9021i910E840j3A737e997j892j505e24l115b58n564n644E419
34588a06B01b878l852E520L403K104f465g62A6353P237q122l550A870H80M943
34573E823L169k165B623b389B803P94b121k814q466b184j5B206L105l30g261b351
34556C90d941n968N179n47P85l72J11l23r09c01B397e788q155B969L823e28j0005
34539a0533j181N470l519i36q87m107B201h682L069A135a0521j1146g032A3870
34524d812m430A5797m480i99l44F462d724L9n620b743A3522m429A420b514F02
34508f031B361a5750k285g78C946L921e718G995B535c614A3281E718K699C980
34493E345j762h170f6l110j323B449H8J1978E893a500E888A314P865k470c989
34477h023a111B38L9b608j4425K904j753d025a888j432j0627L407r997P132I212
34461B706O503j957g9j2493K343m477d622j049m50f85A013c529n064L30a538b07
34444G073M350C074O0n33N749B921I41a658k098d00C601b702j024G85c504D289
34427A9109D746A0O424i534n91F915Q13d215j042n08n78k393d200A6141l776B326
34410D518Q483m797k980M364a6509l597f525p549b319l886m184L028J051j1895
34396a8205n429d525j0508J977l794g123E12N690P05f520a640D410G77e227j670
34381f897o233N82c561j3484O609A6349k096o024r78R23H55i06j0736M002L773
34366c867q042L850A27N09b052D132j038J937M893m669A984j76M389A60d418I128
34349a113j5560a530A312h943J833n404k771M883b066a86j040F571K102B581b434
34333D26O366m18k023j314c642G335J0038K038C177i532l744M339C782e460j0640
34318a6100K625c538j310d69j279c49n102C296a705n908D010f64I11M688K334
34303G933P564a201j0061N028D33h621a078I228C616a96j2622H456d777p700D420
34287G520j937j842a7781P973M171p291k672N413b455C568K361i898J580A398
34272b446o440l13l930M340G058d695P07M80j4679C902c439k795l859c221C714
34256d43n886F403j793I71Q647m575C70e736a814A645K859g095c203I27g249b317
34239a558G025i342p244c785q873a428A0220R758n629E955E72a0601m707a914
34224A2814P915C903M239k572a5040e222F95M95f194D159a1694o397F948M995
34210A1943d85I837Q887a391j3834K916A043a998j0351M991E266N015K803C275
34195b273j3207A2346n307a1974K621K320a011j0669N223F565P862c611o825l819
34181a4255A09a0008r833e908C464N300N588L76A425h512c644a803k472L84D175
34165c795d65j984A513G2e074K518r119D534g270l233E073J736e431E261O254
34150A1515A174j97O135k243j802N51Q234n347a0092m019N288q89C847N427B414
34134F118b291k865j2171K153f258R15k438K268p054c356A078a7341e871p08K674
34119c905g20r681J255c504A819G83b612j2355g017B022a533G053b509G748J270
34104I018B895Q727m365Q198A814a2528M944J351j3974f173B181e165E70b226
34089a53F90N810a277r235F262g69C662N198e07A0169G0b886a281n435n762L140
34073i338j307M749D287a858j213r753A148K403c095Q16j400J243l309k267r191
34058a7203e612A0137n7j376j408j969J972a0725D392L480d129n908d890J217
34044c673l398J499o428M817F263K53L926j093a3906K464j120e751l558O59k734
34029a1384L286B409N80M224k486A786L528c269B494j205K306f15r175D680J814
34014F494A83i299K180K026E592M788C531J15b367m948F15O556B669f425E455
33998H581d168k433L35j138g18I330A766f162a097C012i805R57c064G304B478
33982d3A2469o13D803a5501N263q336F336M350m066K571b8k058r832E0P953J569
33966I572J986l909L661O800B357c490G8a1192R76a244p472B380L85a2908p09
33951a3617G95O447Q807p969f184J096A3956m268i251l52b849p028C223J464d102
33935g73C094R512E141b119a69A1258h793J07E990B047J417Q019a06j5716K470
33920a3352o24K595L100k224F430a0163L45H048b579e25D395a2451B002K921J738
33905F661N35a5407d540C865Q053E203c238k607A0464k968a025k403J201j544
33891c771j4478N732L984n254L906i10l783J553C992n44e201p329d541A209h70
33875G807B321i981b479F170J0435J362o132A837Q394G72a0285d615j373F634
33860c284j7134f116n082K624A2184l677h908b058F974F2L419h172J892k532a327
33844h974M219I097Q50k786D05M050J751A710a62D835a6168L949A729c154F390
33828A4478F512f8m64n109j436H552O218G048DN144J440a1465c615c94j662k746
33812d802K165n77n185e06j4237B935Q867C944A932N67R159B990e95l937b15F157
33795G064a0554o774F124l92J703c38B209O652c626H701l92g539C305i408l148
33780a2556b83j982B606c05n485A147a779A721a456m83E203g684K54m320N192
33765f558G96P897d152B506c111j3609c170C760J105K921r70Q50b006n211A405
33749E249M083N954m26C915f498C45a007k027A4568p123a0303K27B197b508B022
33733B728N474D5h43l12j280o865D34L734K720P772l402j818l148M669m53m508
33717F000c240D364a1036A4364D963a693A281i913C663a0194d502q8k009K899
33703c700R40m073E517c322q161L428L94K624C691J0465B897e156m205j283A110
33687H409j099d319j4185b234j0582K196A682R472D440L926q48a5486M776B99
33672a071C117e663J465C808a189p912p193M053c552c82j7527N909N764R89o395
33657a1642F822Q897m490c929f40F617a5470g243J108O90J307F714M52a8252H31
33641A0912j471m659j033d528R79D63a1193l02M516k453l14a720m193r682P119
33626h476A0298B311g536L018j7C094A396c440G459a206k329o280H859D140d324
33610i881a683j571A0359n179h680A314Q22O009c99C206k17i931K74H63f387G859
33593A702a037r120%d5F592A134d332l602B786J0476k124j704J456c300A154J1319
33577A2473a377l442B56J0893a735O95k944m946H421j483P252k377c183B059L167
33562E226J0269B880O755A548a4440M541C838J2844k373n246d654C839a747j449
33548c196F723d208@E878E4R403J3898I260B098O768e320k96K258C258e30o317
33532f847B608e550f55A0104m064B417f909F987N64a946A1718j414j639c306a029
33516a1164M031k013B585M357J178J1356I364r1d390E413J5811k508B552c031
33501b938D692c939a371C973c891m953L491i32F581A819K08b392O71B475a2542
33485f198A1397l282e477J624B881K499K437K364B754K323M917b854a085G889
33470D132K821J1067k174F796B605f139e07o327E92J2936m847g57A2229c171q282
33455a1453K766r229b581C361b029j32B116P861c581C568J0437c335H575k215
33441F360a763B785a828A3888m862c06A633a0808a619j1142L868L901E91L865
33427D456j255M848e52q545c289R78D568a63D694c321o101A4196A917f411B994
33411F294a350j151D331P177J203B469g802C340c518h69G359I54D59L242J69j157
33395B713J979a209h9A540b821j681D369F55M632L742A140f587D266O622h642
33379d707F175L772H66b418n556A964b812j4116O644M824o46h48D647K837k293
33364E191b593p176k029J156m655c957A456a5611K395e840H030g73n376A184c088
33348b682p811H898c098H74J2924n419N245m99A089Q193N550m223b310o673A805
33332I563b977j029J260m87D67M556M7g630R8J484j902j563C611f014a307A3994
33315F21J283e049p428b462J034H407a5947P858L936D602L462a0776F632k77a243
33299A543M655L399g30D070f919n861B406d658q596c366j131k11r42q41C605a903
33282e166o312G753k447N847l712f291q300L630e054a454j564o725d53j154j638
33267c245E803e440a039k675j3403F061k306b469l603b945k340m078H203B406
33252a1591B73J0381E071a3555j889a315B1116C547f181A3145m106g13j4956J462
33238a4207N969R2j484A063a2953q547h035m604f168j767c675A0742B262c406
33223c439m075b291n193j639C638a479o355c077JE037j720K265N420A093d176
33207A823c73A900J546h319h97A1851B875J4024p234g940L795J597A020a0122
33192A228L891K552M195a683k930i25p915A0767C392e983E932b926l827F487K249
33177H736A878d66E722c489n771C641b66j32j1596a273m786J548l687m011C393
33161a404k601j678B3305A1214c086o570d162G17a4634A334O823l581d430o872
33147a1302J747A1307b91j597B078M257A437f724Q88j2603g430j1914r038J1149
33133a7233k915J0054j225A002J0886a275o711j018l519a471n516q284B93M745
33119E038j894J929J0345l40F488C205L445d626J270j3039j1652i688F466a484
33104c074p489k96m67b014A113N443g081q385g430q693g719f99q073a821k861
33089d682j2998e013k262D118a0742K951j0790J414b011A212R530i120J087L871
33075d162q089a429C588m84h466j0303c118D328g327K837J977k30B63b674m977
33060g651P5n412L679L072j1713f770a266r266K745j320L910D886k355G34M21
33045A155Q0b924A6291E097C54O743a773o575b388B725A012O870I0h226A481d734
33028e053p7I370L554e912c00C853o91a0223k047m183P438M228m378j5950n454
33013c0569a3690d799n391p149A500R106b100q671a005G854d125o17J305D252
32998a8562q00E025K147c846m976k635J66A440f127c029J097F048L048k534C070
32982E29d211B104h42j3185j0996J2418J269L467G563j123K46b535B151a415E226
32966b699F90N108a3655N810D599K182e567n895L331m398D444a951r439G744f759
32950a3693o571M527D33J894a5598M071a581r650d370J417A97b0382P005B661
32935A302M916M241D117M933R964m009p029r95d029C258N929a0873h30k411A417
32919d74k611p907Ln601l323Q932B252R48g765c68o341M46K490o532o377J557
32903a5125j075j547a400o41E091B017f640j625J020a771q340A453h188c133j5663
32888a8796c696A5770p058e8B170J329M969b577r733M634j8152J0428f683C716
32873b707j407o568j0691N730A943e479A630N563J819b595L85B592g38j0873k621
32858a4232k594j0992P218j278J0578L640J270A131N05e677H928c678k136B51
32843c838j549j1225d309E674a3745p095j55f754K231c75F329B109e251q6p00
32828f037k405J370K140n43j4853O474g07E117h778B148a868l880o83m014M187
32813f258K291d67A400c130a093A0867D609e591K590A2245j784c184E537a133
32798A109N835a1443d176l722A380Q067c30j564C140b19l556A0473Q108H510C41
32782b693B959a727m677A919K253h495m950d809G419k564h228B317K187A308K372
32767C680K838i399j559m048L215d336p059a400j5056j665e973C14h231M082B988
32751F310A707N061N736f081D963c900k99o395J951D192J097B452b977j6716g339
32735H984n92f43m148K14j3677h528l787f031H066L799r70a178p307a94B375B43
32718e581B852M728j112B988L639A422C87J0598L906E641b253A55N968j27R241
32703A5237a044j590G156h976R58A1716Q943I204P659m100R26B249g438a819n085
32688f904q644e326O77B196c432r683O520a632m996A3977E718a3812J745L123
32674h944A599O25N106A382i64B366J0262K851l434G7b553A722L122j042J294
32659E096a3266e416D484g970C67Q792C277f582j612c735P59E32c67k993A4692
32643F705f484b273o25E122a326e03I810A932J0815c667k198A80K48J4035f437
32627B336i61B613P155m598P009n415Q177N612I181g650a82A1325n073K127l076
32612E303b038G900R941m088E73M780R648p225j958J0220g4p962E987M49K877
32597I313P986o774C406g017A691p94b187n1l967a915D825M066a513G481C220
32581A1308p87e243E590O179m524l064a0126M715E754i59A947L076O38K747J904
32566A0312B3g609j1014N940A608h342J095K030k450j015h91M34l910k164K856
32551c675a286H584J355f391B626M391C149J978j033H8a0815d457n872J902A113
32535e614A90L816K98c517j5413K719c270k071I97J009g26H370h50l906b360I42
32518B609g675B052a180o4l003D325c973a800r561K998a482k454P65l386F204
32502B77L674i35B478c518E584j601j451K966L973L18c930n144E866b667E97R009
32486I606m277L887q81M37f792c281I91K728d56H404R07b752P12E587J2384l749
32470A4222n41E907B641a5369m517f505K013C30e618C973j286g403b750r147N832
32455f065k03l312b464n55F866A724b251o061a329N78l326A044e246j789j901
32440h936G412L337b026n71k521l862c902J298a69B816e010K1g24A075b861G298
32423h775L085p034m705e632I579J522c298A150J073J1527b364l727j0202j0832
32409b7125O925K365G901L632m394m85f210F923a302E369b401k631B482E56g074
32393a46A0198D559k255L008M384L090F384R567j487k657A942i405b480k904a495
32377i24C948d455h02m991l323q030J975o956g572o764j74D466M110c142k316
32362e458I600m645b82A1313b198j880F620b321k062j3875i099H008A046J1471
32348A2517P155B066a3160o555A752i535k991b709C601c650n829m995A88a0974
32333a3986a22j53j1451R44I9d142j0205f492I540D340Q669c735C444j378a0876
32317a5364f93J98j116C423L481G35f04B821J223Q619g840j656A218d492j238
32302e730A2339C088N667a750C310P453I59M583c134o10A050P266R071n592D482
32286f100a116E821R77J0143B659a2734d125A2096e186Q52k212b634l904b385
32271c246j310D177L135e851b72l796O66F327N4N287E806J372R886J1034j016
32256B7082k847j2055N828B214M312L822k756g213o56a360A320O586L953n000
32242F859J78J095K781b722G47P795k018J5857l896o985N247n0D863K087r32K755
32226H773B804O583C320r86k90o16J2882J472n509D153B18L703L125d289k90B331
32209d716B540J4522p047B669J4539n306d809K301o039C357R925h981c975J250
32195b725l219a582A843d904j366h63k690G635L97c975m263l166k827l083O590
32180a0724B116b419D483K840N466c703p458M457p079K203J486a207r721a244
32165A3086D016b159l339a165r043K981b930q211m339E431K750A310J190c471
32150i494L111g32I768j676f65E615e015l815i26L55n090H606E52M561J818J177
32134H108C538d309m13o915H31J754K756K217k253a566A6699E576E9L069f214
32118I734j49l830L450J1840p479B781f474E70L375e843b529F236B589d08q679
32103i087B660M702B751e127j5038C030J2190K394p098E05N055k651K278A269
32088F762L90N14A162a3875c136A542L02G83L602f187b643r18c84j0952H1J2226
32072A2307a399l397C773L543N643F454J0511q212f022a618B305J02a293A1666
32057E160L125Q424K081h685o926K688E11K94P608E77a1748e523n465l428a831
32041I688D248K521a527l45D679N50R567l836c65j2906H232k126e83p101R62E779
32024i063J247L745J815j1070N475K244K63J374e17a24q439L499I538d812K138
32009b674B437h14q042A80c713C281M011e115A0880D140K093a861G699L729a0194
31993d62H446C686h558o751g195L107A568O423K147q41L720L921G432J3042p156
31978A3318C815J1164p474b730r14d93G012j94e669A642J734M534o41N898l108
31963A0059J359N74b42m749J795f10B553J2427l655B820M358b322j0752l146K932
31948a3288R52b223B886e320l995m832j016M135b384f56p551a435c66r083b312
31932C5b96G987l308a0588d33l030E607B692A183L754j213a793l869J402G126
31916A3599C570L212L553k845M418J2036o955J450G371K020C741g70A2927D541
31901A0363m974d526k303F60K135d816C059J2161R117m490l512P32C377P32J108
31886E217B341N496c0r5B336L150B123L115b387m16I458J901E438K248I60j10
31870H50J0225R776j929F951A954G30a2136K137A7106B253d081A6238L179j477
31856A7940I64L43J5370G388R089m209D573J1810N125o386o025N38K81P692M116
31841B1724O881o056m974K828i86C249f772F320J0178r76L961n567l787K24K998
31826A3351J3720q62m952j0079a4726C281j479J8360K174l194N110K072j1242
31813A5082B815O740B443M451b197k201G962R49O879p656A010J9420B058i220
31798a5196G991R134G924O778o042Q617q371B166a15A7544N965m379m369O458
31784B1219C947a48j753H50N5R432R050q167l614L855B079p1N037J671K4204A1871
31767A3736M057H557J3299n130F696L497B094J1468A350J456Q727o92C095a617
31752A404L295e960F851R01k692R764K63D736M107L243L125q73D409G0d293E790
31735A1190O505o581M50A362O135J450J3191G903O064J00k690l854a403j1899
31721a3302N978A3477A232oK429A125K466J251j112O955A427L482J3003n053Q005
31706B0864I385J075K150A143J5129n344j730k325L306L600J057o799q05J5639
31692B2871j042K838j0931m964K746B339J3058n993C784N293M623D853J177k286
31678C744Q176J2598q890l967J2478k209q80n934J2876M514k911N466J3246M479
31664E2786p175J1403p53M025o096M857J408J262r145J0256J0527L598M924O713
31650H8590j4884J1498R802j0696O084p636k603M7m269L566M843O189Q222N55
31636I9308j4192K31J5990O386O702O515n354L496K262j558O992j3179j0850J1982
31622A14731J0731k914O140P637P763R752Q777j604j5651K742N301j8110J1069
31609A46364q271k7779r854K095J2028L040j1382J0296J0478P424l163l944l442
31596A23890r60j1299j5070j3555Q30l633J821J6241r422J750J801N775L015M417
31582A05601k6428M953J7410j0463j9952n176o386l643k947r92P778k939r546
31569D7270M981j99N01L813r680J2000j9188j7378q755l673J0486L757p902k580
31555A3453N070E877J641N789E709J150p90a3042L999C43d055A7283m999h19o36
31540a455B773O063B474J312K689J629Q224P596C262C41O526k706h722P30I59
31524a599H381e456E199l32d596M56l254f41j5187b537A1830n293j224f899J286
31509e613j584A92K995M297j965J139d509j6193b315a049A0588A81d69G524b5755
31493b6094h096m195e194P18a794o718k72B096J691Q932C680a431q92n466Q56
31478f933r7j3920a666A936a2105k649a477j184r341B426d663A2738B643b090
31463B720d076a496p391L557H987j198J0598m589n350L460c79A6764Q214p809
31449A7169q476L545j653k62Q347o780o82L780J1483k993o803m49F067L282J0774
31434B0123p885C260J7634O212N207o838r996K238L225o215L989E224M43J4173
31420A9840L646j1378k52J3607M821L785j4706M203r08p239N857Q822O71M48j2995
31405A8222K33P979L725j631A1280J946j494K743K731r48J1821A3791P848J0097
31391C1736K245n578r49o935l21K114C651a918H412R241M312r30J271q731F667
31375F852B609J257J060Q064M460p249d969E364A145O245Q806m00l694M905k707
31360A4300j649A679K593A143a0890A1154j88j328j994A768O886j836B097n56
31346A541L696I98N912J0165j418L088J572m943A873R423R063L078k143l670d92
31330G735k516O394J0201R865k275A1988J298P318P024n816n435J457K8561r840
31316C6555j2767o137M073N94J169N460o78M033l774A0501O363Q203o699r63J4345
31301C1750M540p375j96M482L262R5Q299j5465L070j0237J1864M210o312l812
31287B8175m583n891P734L159n460K3548j666J754K8p711J1516P121j2703J003
31273D6024J0993j6015o511M776O42J4089M141p847L360P765j8435K836m892k142
31259C8784o543K752M29M045K451o322N596n151k704j6252Q078J6287P52L824
31245D6026j4244m420J780P611q87j1547m643R74k185L92J2168j1871J7515J8
31231C6687j0575j387n779o240n136B965J0377L095K701F11J961J9954L557k072
31217B4011j66P85J781j0144p134M720b573H38d78E014g002k456L065N25C468
31201C505e277D217j589A134J91e36C450j083g231o848j110P445j3532i484A0107
31185a4849b293F299L468B728i706b285c62q668o244J155N393K959A468M074h570
31169b143D358I06P476h095a337E78e686b265l666p303L678B309b291o845H739
31153A3519D123K0530J850A0332C582M270J0658K1010n556N789o809p357n71o660
31139A8356K524k437l929J0669Q628o992P821m740J1956L509N423m137J542p991
31125D0202P011j5856J980J6134Q733R805n121N443r785p45J64J1602o552j962
31111F1053o54O199m425K1168N295N848n690q707J2900J3225K805N89J319o585
31097A04340o976J0123J8108O912K249l025K058J3047O799k206J0275q145J5882
31084A69441m684j5039J9377J5486q335j196P693J3160j9922L914O056J2625O958
31071B05534j874J3902M344J970J5644o591o275J6620l081R175p227m571P772
31058B45342P371Q616K3417q362J525M302P621P736J0112Q856M700J1790n119
31045C27907J2366J1373J2550J8867J6187K3089K4165J5249K2416L4114L2541
31034E50824M1027K9624M7152L2279J9407K0609J4998J7631J5924L2562M0725
31023H62762L9956M0286P1757P0496Q1843R7096R4556R7830J03768Q6892J08523
31012A755765J08265J43647J77465K10949K68322L19017L90551M56284N26917
31003D357182N86859O90484P54791Q32354Q21573O92204N00232K30397J3890j13317
30993I366649j78343j18351P0673K81807M97680P42363R64798J156633J328563
30984A4112472J351053J180630P69234J77232l77708p70343r59523r46720o74870
30975A3861457l12574L8681M20008P28357R62872J203099J351017J376405J234102
30966B0863424R19618N02956O9871l08362o16803o92634o39652m53260j59699
30957A9485459J57408M71662P79390J062717J271051J373122J323984J056177
30949B6980970N69466o9340o86515j164528j467144j521343j412595j103991p28327
30940A9396653l66255m7717K53123M69974N95704O30811N02833K43725j07476
30931B1571375n78025j011917j285403j425539j366099j177934q63162n22810
30923A3340486k17674R1985L62962N90219P75624Q42841P01023K86895k90305
30914A6484056q48273j228478j427374j425117j257694r48553o40615l88722j54095
30905H165135k410J21732J76833J40896j7118k74195n25582p46291q51596q80295
30895E307109q30540o84834n61063m30217l37506k80412k42571k02239j51493
30886A586234j44296j27609j11822r6266q6250p4264o9456p7011l4872o1657k6815
30875F75916j9140o1444m6235l9118l2657k6011l1021k4293k2193k7260k2298
30864C24246k8245k7525k2289j6366j2712j1227j2055q500k4043j4361j1569k64
30852A35090j1620J644j4516l218l509Q87j7991j2583Q517j7914k084j2095Q963
30839E9571j3206m277n178j6739M138K255O543l884j0586A683J3662l678m810
30826F857H37d131H840f958A1976E55K304a1679J234n169k877g467h50D588g085
30810h565L337B674a5293A857J7956m952b93I052K2467r494r405J8209m909k937
30796B2983n584R43p588K977M837p850K987J960Q284n171q585J4419P050j281
30782C0381p608M09M055l230n491J1241J717j3795J4029L828J2792J0244n979
30769E2593j3992l52r56j302K339O352K921p544N481K3835j1297j0613m447J3829
30755E6847j1401j6169J0386L887M907n554P915m518r822J1348K1336M700k97
30742G3565j729q69J280q229q072J8188r48m951o623j4962n206J3390Q145n202
30728E7777R674Q131o80j7672l108J3310k573l988k557N964L861j3662n29K0468
30714G4416m287L002L382N371j0063kL067r437q430Q8J6416k0446k21r720k370
30699D0766r403J6832l72l242k793j4296R116o730N051j4460J192l727n095J3141
30685B5980K1717j8061H297A808a295N27m099F341B615O371D422N695D278f39
30670I58c384m287K093k528j1910K232k908N758n359J130N563n683R492d066j0948
30655a5014L107e004r560j2331q656N84J0361K250L499l497J161k384P08k523
30641b5392P572j2186O48P029l297p822o25N469k0239J5794o165m523b1226l648
30627b4874p418j0538J013Q592j3647K2674j191R939l104j6274j938o902J0502
30614c3166R614K934k03l502J443J0849k1499O450O258R53N445j0290R976r197
30600b3935o169a4952m321j2418k5K412L522a1586r576r663m32Q604O50k934l879
30585b8816J274O517N031g317k468j7510J96a1116n084j0655P242N575k880m909
30571b1827m658J0767N61o081q093N18N868L413N152d099j4502l261j1359m71
30557c3692O862j083J1533P836r800j6563O625N344m13a1203d22k2522J994R983
30543a0967j13j4894J0792e247o414b620E709A957c088m461l354b454A425g850
30528a7519d277o55g36j721k771o646r951N331M857p926q628P866M411L151e604
30512A886i440M424A0702b340M39n617l000E019a5447l207M268j765M045j056
30498a3162l868j2309J1371P742K178n673o999J398l01K413r899Q843j2839k656
30484c3761J0709K933g703j2680l204n362K345P199M017k12J82m44d180j0468
30470a4648n950j911P64O74r084P912O260J300j0644k976O008f342l096k7l409
30455a2874a346p136j2558L662m63c102l567K111p169n983b762m015l000J982
30441g795C388a244B44a7254l424c046q036L266r084n044e113D752K1O957C30
30425H953P746a121n995N36j10K567g49A3792l38J689Q77D764O15A342P642J844
30409A0828n110Q274d675o591a742a20F859K0190n490l933E885b700C87g443A807
30393F277B212P631m292a7089g120m74h63k763B338L39F87Q85b933E508A817l28
30377A489L830N17B013L283e191K499E927A817K920e690K125B156N93d617D718
30361i023L202k962N12c006n371a810n358A8619r264l166b150r708M155C916e735
30345a9064f47l265N5C076e19H124b725N8n781p24E952R700l373h10j5027K323
30329a3514e671E542K611b7B255J066M188N249M326k543R902o56O509J2767j9194
30314B3869J979K3190p312K500P011N283m539N705j2147N715J3209J3051L847
30301H1361N300O146n337J0375L529j3633R04j0017q179R112j0726L569J5167
30288H7571l72J585N695M798Q964L707j189k478P387J848o581l330P625k2918
30274I2312j307j912K2881J5642K913K229J003n282M158l000l213n838r064R28
30260A12450O58J4377r415l185o874r443O053R679q110M832j3375J426Q569j521
30246A06121k992j7103j4496j869Q194N931N52N12p243k685N723J1313j0686l740
30232G7532n586L356l978m894o385j3192l517k672l504n188L885j1888P283n017
30218B6235J1002Q039j4256r896J5332q77j2653J666I164A506J3121n606D245
30204f09j165I50f467j14k848d297a873n15b2p083j569f94m861o065n528f178
30187f759j106j850k1681Q081M961Q477E451c976J596j998j2401o929P512l677
30173a9873M898M654n419K664n94N716n792j3405J2303J277m94J458j5062J0190
30159a7479O103o250K80O659m573L526O82L450l41K848k564k13q193O745J24L483
30143e713b041B806J0585b257E959g729c530o893K887l910q228M837N56b907m647
30128g554m390A863a6237j2349J3851m108J401Q539r147M645M611r076k266l724
30114b3860N503Q456q418Q799A054f041j227j0447f714n711f073l459p80l61r58
30099a1631n019L489M280n104n991j290g906b849j4111L659n677o660a1778j9004
30085c0782L328j0063J1028J0973m131o250N203K648l67l228l291K509j5230Q288
30071b9365a0647A782g72j2552j1777J367J745m817R988K489r564i593n755r246
30057b4594L5q060a5390n797n314J1509K704j51K925j421p99K118d576o865j2097
30042b3538Q290q335J24n552J3657b398j7424O375J523M448B122J936f121j9921
30028b6042n349a2416c601l214j2226k292d20j4266o886f625n965J468n563o384
30014b3069P968b501n297j1152P812b97k208j5591d546a736k859j5710M93f704
29999b65n964M62J351p58J830L42E649Q65K895a0344j3406Q259c128p177a543
29983a703n674a335k0073p485P802k810a0974N246r367R46C780a667n665k699
29969a0031c862q751n937J052e358F42g742o802K00L074n384f340r109N432R21
29954i096K041o925l849M037j127L204e546n80p101M708k22j5469Q340j0405a1827
29938e871j0866j611P973m626J813f518j2502b517j774k667L251J656r224m446
29924a5721K87o625K282R736c193j573o139M065q593L120M084B708c393l1m423
29909g847k307k866L085d665n718a921k578m628n442n016N875m110L877G263l342
29894C921g693j2566M987j388e612k282j819d064l760j0074p106K770a118j288
29880b406j3062G02M844f89k42p615l070m27J867d330k55n21j299p969K814d814
29863a1622b549j8777g323G33a794m492r062m16M730E50L849e619p525A434h36
29847C030b739j0301n460D983h285k4420d739F715a4453K484i48j1415M851i62
29832f884o090j4217k746J0045Q012A512e340j440j2388n90P653a740E673A006
29817d668k1245l172N725a0878d541J171e70o069L75b448n529A729m43K426g386
29801h280p604O903a366D711b017j5197D81c319A353h334K571o488k893o055d982
29785a3599q218i794F064L88J30b043j0585o61J071F749b529a196k792E388a642
29769B572L767c267k746b728r896d480D873i551n073l659M475N156o199A373L410
29754D783i228J743n168f51k211J181C894a1498d031m634j0077O595N040m627
29740a1734J997K351a721o257m715d277h84j398G02j49a1504j0438i070k059l343
29725a4472a424n987a703r742D426a3089i10A105e843F942B978J065O256a0822
29710a0252L873k053B392a174H846a392k419n422n783L345L891n705H3a5976J266
29695a4710k433k430O342L113q84Q15k144j91j4335R648b934j4016B492d561n446
29680a0007n018L830j068l588g588a676b79k1907M558Q760K217j0914p312c322
29665a3432b836H600a5779j40r26N320l357o49P208N34m046m482p005J79J1391
29650a1752h97E075a1750e005j3009l140J484O326L137L706C372N375a318q748
29636a0066p994a364p83o712L017b822r577o154R271j045r30N66J850j3240J0273
29621a1808j1007g052m876K179b484p849n456c431r344b251j948j5635c569A370
29606b912B884d234o079E754c830a212I33a1827a164j757c70F041b3000K538K817
29591a7645l950M418e828g91A923J985f494b108m167j1772g809n103e425j4871
29577b0296d114a223n784L499l160j263a48k214m169K694j0332K347p879M643
29563a5058d376q909n424g386j176L448J035A18d131E538A824M15c205A542a605
29547f989h89B180L40d571a753p42A275R707A85a2256K716B427i309M88E905b840
29530E78c919J494l258k941o63N95L067b544l543G836N16a0047b335B224i781
29514h091K538r266o802N328g198m626k671a582p027c679J143n953J700J278a945
29498i311b718l931j0753L468m553J243f250L108a102C387J204g202a986g17H018
29482a344l093J878C132j411b241C215i31D981a738j4138k722e306l57A882G2
29466d26l717j8982j506i308n597c963j0586j8328J2820p320i543a54l012D017
29451f505l806A705M415a894j762O46J218n508l267n151M676d844j758b973r261
29436a2234E653e553j6305P385c936n154k228b725k544J751k738q189j5843R822
29422b0466b639j1339M219l11n687P101m917e037k561k199M681o537K44b626k305
29407d931l336j191a778l199p30r120r72j0429J0105a30k0048P885O066m594j6596
29392b7417P254L618O569M392I764P827D847M508K663n800G82J923c370J498b86
29376f519k965a249l841n834K99C034P184b796j196j250N63I902a303j9131R77
29361a9457R549n569f316D283i07C14M653Q514m832e72n329F39a1277M793o945
29346a3429B381R565n364M118D970j698a594F30e304n269l456N982o85p040l799
29331a9571N001J77j926o829R420Q39k084m596M998N117o010N431p559r247l141
29316b9980O829N357a963r796q679N297n568O100n966O46P766d511n211l058e849
29300c086j690n739j0211k643L684j1681a2856B386e765J834j0137l436d721j559
29286f280o988D424j610g448K870j5204o656f301C444a0576A706h09F960c849
29271b0986d942a125j459l498o26A702a890j1545c965k424a986m227o217q361
29257b0791R654b146r87A0780A489g65j562o526J234N9O72N23K081L24n092n375
29241a4427M969K267j0952k287P933M293o46a849m405l62a121A277b939m116q522
29226a5577l024L383K7M993j2467Q849f446n852a342C01h624C486g150c363r975
29211a3338o792f688C486N84a2670L341J573n807K673L357o637k513m042b103
29196A01b035n196m679n171f725a456p095J843k589j407J0J990k03c36A884a4183
29179a1298D986c110o152n461n029g367j3211h727E790A315L566c797A988f282
29164a6014O350a759C222J147f475j0946J08a152j247O53o102c573G99A81g592
29148d104k80p283qq42E602f14n700K290C21a973j1160K354c075p021j482j2081
29132b3659L431K660e196c21j3583M182k927o693O325O339r947D943P403A524
29117c044A662Q009k466J1894B190a0367a176B945c255A190J5629q375b713l981
29103f694k157B58b976R9I802N659E875f457j90q64j297j0218l868O701P430j1630
29087b0393R329Q95n117d371l265q228m168M093i31I76a12A5834l741B108e226
29071d967m457J451K63b343m538c85j1052m657e086q15E136a238C326f487A696
29055G852l913h507c404L90j2133l672P270J169m193J777j2626Q276p909i758
29040e488a875A2320c25B310a3496L107M297P84q51k985F26i058J30j0813f150
29024C186f518O68G681B750g360a407o316J296a644q512d500G69i530m061j130
29009a4721O921b762A589E98a2051K411j254r223m961M88h013k832m981N25M777
28994a0524M516a755k258J281j120n564A520d009q748e251k553m203a928C984
28979g893c110C333l25c920p543e070J339k760B187a0353M145K644m005A471f23
28963a1484j0a748j7971j768Q468L856m029L515o94d928B351J1991l520a499j2679
28948a4178M013l770d341D280L710l175k184O836A969g308l845k916k147J270
28934a4946r4A3323B78d13p558L95k802p003M81O922B952K591b797o579a784l700
28918e484m115j775K218p52A1481K88b682A134a905i42I942E92a4254J200d728
28902c129K02M13p13F091b065q8G261A815R48h844J859b988I965K478D846f716
28885a6464e813C501L163i587c534N08m716c92F671j881b426k940o728q017R799
28870a0312N4r573o18Q887f9k717l290j1981L286p86M6A242g659J263J441p0A2591
28852C528a2540c933e43j7674N647A512a665j0167l839n259h165p244N45M65M990
28837i409K668l107F908l209P596D346a612F13L918i143l251l235f545C935c856
28821a2956c82G486c800q505l218b307l685j0910Q19N023o322M927k072K446b541
28805a4018j574M841Q95M241m269K942n624P96b034n205c069E280l73K31O06j968
28789C776N739A476Q795k879A380d206j7183R564g12j328p037N55M039J841j1939
28774a4581k17f727J663a62A3245F296B840e380J600F944l422e547k50r292L588
28759a1501Q02j0869h166J37q587K5d695r105r54q86k750h372j858M56c622k075
28743e697F15K380a100j1368K317k100j374j093N948p210l389j053P358B268J72
28728B440j74R773J1825j1813D41d333E913c140l161M12j5182K342l985M49e873
28712c170G674B82h033j0033c64o350k085J672o293I87c770n20n898j259r052
28697b0499f579A8i640l7j939N020a571o795q676c030k946p246B47c236A79A5
28680a387C646a0877l213B073a3633m605g986j2602L059J196O943A764a5516k340
28666a7856K834n65O337K938C62f770o576M263a298p018l483b189j7125b372F85
28650e454J374j582P46o390j902M697k719p385a953j594r791L6B044a1503l270
28635a4773c124D019Q28Q68j435c174a380j1833M951l209q165f221M47K083r013
28620a2704k11N114k733m535L823j4280k035i825L597l655r765Q816K733o961
28606a5060r511L346O434L975O0c312p767M278J931j3037N011A026d327j780n809
28591a1916k007a880o616j347M659l932l378L794J327j816K910J749l640c124
28576i271p607O599J469B415a17j1682L839J689c021j3262P064n235O410c796
28561a9565g247A367d511o087M555J205K343A48b661j503r292J902N743J077A400
28545i556K283J534k524L488o315o550K880Q68B019r01d819C661g184J907m220
28530i497O23J899D593f32j3938J509j0370i965L795j653G13c176q024j273N539
28515f934l465K473E33f618j1572d261a694k558G384i065H11c406p067C474Q254
28500A1728C793j479a1372q527i391P53E270a160r12j0147m340f813c316j4376
28486a7692C003a1372k0693Q393N537P340L667K867k0231a1021n722p847l478
28473b8068J3124c871p705d986o488j571K282L974b620r822J483c819B734a198
28458i99C179g495F774K907a078m437a057n795q794Q54k444J989L84p57M298k207
28442a3529J215N397o244b09F484b487j1773B507R11a914k44l981K656p233M048
28427f668j217a477q698k158d340a101E32d671n347A043f749J024l301j2088R185
28412a1929R39d562E783A403a8904Q069o015J069O59N225L808a373k503j5375
28398a9251h094j0415N605m965L794Q08K690b589a080I575c475B615a667j1600
28384a3267J29d957J247j5238j033e290q308J878E664h898k744L751k306n729
28370a5926j434N213j0648R084j404L509a062A429i921o647f972j803r757O509
28356a2023e331j2243f512l994b404n296J219F432O35a1245a002j512H110J407
28342I517a3619f424J280r33o536b831i51A3105C294J820f810e85j1684J570F719
28326g438L25L23J789O77j508j4578j130J252f299j3056L082a200n979D787h583
28310a0205b341q527B76i651m045c995F001O736k17K274E94a835n04o044b897
28294g637O12k018c353j860b552e48k0197P235j719J723J871B221A50d903A78
28278I463J661a6208g909K655n421m051M864d912p083n81J578q29c450k737l96
28263f583o26q885g137c462l858j1784Q116f77l828k764k54g07q18r620L614c678
28246h681l713l14a382A961b101j3784r27p657k085e716n138r07J111L510J838
28231e302A624M504r21a3033K659d628j1433M780j5138m070a5189M263K016m371
28217a3281o389N295O332E570j891b118c9p215j789c908j02J155o807j0276f755
28201B21a1984h42o917K404A662D23h209j535d442C12a0959q8o033j948E575c118
28184A353a2857p441M408b747G40P709C01a2250L170M485p744K744c659j652p889
28169a3200K73O123c268n628Q37L231p066C690a6465m432M705A291N152p74a5885
28153b7714J3511%N870b747D180J518f413B10J976C48J0776k467f40n798A792
28137f705j8218p984J3797P275a102r041K565g16H195j848b285o36j018H927b007
28121f049l054B500A038a8555m696R041d219J906h3p889K059B370J162g972j088
28106i060L63j2360o865O794g153b193j3411O278D119h691c144k733r483L311
28092a2049M165C314K702c679N69k801K41l809m867M846I93b258k879p662N247
28077g552G395n73E83b208j876c62q623q545e370n172J459c347G467H9K857c147
28060h253j1545f739n15l105B498a908C007I64L937A765i73o737l7o041J329L534
28044h925l837c581d87F98A00b1156f462J791J068F01a3524l313g606i69j2025
28029a2994e295o84r73a144p809a414C239J4014C195a9956h435m193N996F234
28014I032k671j750O440N274A821d265a732o073L572B404f135r908k54f38j313
27999a951O40j1794j993e551J451A4667c708p566d755A092J634a144j0168k275
27985a3587e280I49f395k879c747j3633O948m126c045A752d792A366a507j632
27971c139j846j7159k068a1344g13m75j188k4n778d009j088M6j170E517k312Q565
27955A1770b295m318J610m671m923c271A0999e293j0555N201J573j072M723E288
27940D295h055K995p901E540C09a6613J714L684b01G38a5745l30P666L559a846
27924C520e187j904B295b016q759L973n938d597l782m55j706o040e807l331P18
27909h420L766m353J213D586d528j932p688f602q183c167j103o647P42R90k351
27894a1536o897g316b397M45j4020J565E750a2085K430L962l70p06k326c769j2600
27879a6369d491j1431e563o566J933m376M918b092j705l246k097D878g577J853
27865e724B119I75h533K844p694L241j739K21b645j471C216a1175K724l716r688
27850b1855j1616o4a5737c715B075e717k4441R334h891A1O108a444B400a2462
27835E600B342f503d91A9821k435p88q066K395B713c82D720i012J08L616G271
27819B609e662l963J097c620I45d518m083p30M319k236L42q441e922J797J171
27804b954A520m40a1603e339k610m225J312L578A1360j853A355i11D632a658m738
27789f396K571D262P615a0015K222h06j1286C339e58A972M427e688q598N745L503
27774e038K151j1831C122R211c594a080l765l557l403j1391g682F021k722a581
27759a3629K840F083J894E85c197k171a905e46pI946Q396q775M125l092G39d340
27742D908i364l597c005A2336f482j0800e143o308M526b785l887l223c279n684
27728h963R04l115M656j836c179p380j66j0535o388Q151k346i878c880C370f225
27712a1180b280q399m755J936b611j516j0592O701p242P107k195F042p77g091
27697e582l837j416j570K530L305J917D860d727j8955a0379L663q365M018j0027
27683b1090j260B715b1265O639f490j903n758O277B241d158L96A935A51a597j917
27668c514p0F612K445j691g064k214J987G805j303d171o456c206n04D685J3110
27653A7795e368a493g43j3728N336B278O00a4012N098k754M539l01p202M988M088
27638e556k618f1C627j087a0432j127k234M142L014b104D339A118J1544A462F71
27622d000J179j475J16n422G319h090k579r585a0070c37I222L484g742I806J3197
27607B3003j79g808b714I324l079a3516O248q609r93n064m097f026J883I213l359
27592E854f333K265j1681l2P814L594C269J258a7054j7806a2464L219k693E63
27577e47A655f944p909f993p469a696j2988O409o702p459a0819J803@f706D676
27561h098L832D910q17e822a494A975i85p36p037n776O221c77B130h844o779a70
27544b804m467p756k483c898d91j6642Q9m982h259A331a6l026o843q42a154E409
27527c687M38a054q330o21G048j802c595j340r740g314b754j1042f287K538q01
27512d550o29r643o56F558M830n079e889m386B985M638k090c49j375I039m453
27497D586j571C71a1466d049A0517m859j539e02r466a338l006c82B245j069J1072
27482A2248K91h489b908r594h63B207b497m404q110a108p795c994l44j187A153
27466b485n647k186q658F18i235G97J4168i693c668G434c182n82a079B721J270
27451C991d247L54B357L361e661K219B483b023o94n254b06G159i63A4438A184
27435c748m294p30a299m199n436r71j500J386e370o991l500K784a23r59B525c540
27418a1974J785M341n20j2168h832o361g253K558l042F661i4H900C165d570n225
27403i795j076N134K24n996A758a825r601k113h76A8657O110A1760a0645p9O37
27388a0087d716J367l021p259F303b369j2786d552B437e271J216A796b536F53
27373a0856r815q222K136j26P488c128j6390K855g708R56A520J753a0351q78K273
27358h956j2740h359j0604l222N9h636G95f87k945B195J1899C181N136a626r151
27343a0777J793k043n728K497b322q334j1652J0391J84J611K604J728p850K161
27329a1479C497p44a045q659k572J777j1759J0009M525N62c223J059D297a615
27314A2046do874A567O818J0399o499a942B457J361C95a0848j303d899j5751j331
27299b1981O94O161a120r023n253c941Q63j2898r310L476P325J351M723m16j4855
27284b3682R926N311J756b48A060J807g424J85c087n806j150D336K014a97l897
27269d094j3898j347c252k214j1428m091k60N658b244F524b289E793g964O51K367
27254d946j280J852C386n05a1378B367c85k919b84E68L873i827m583b144o741
27239h885o809m341L262O677E587d806r535N230d95k824j0112J624m232l296N507
27224a3828l631k552g081D810k287O686R56c186j1679Q46C11d247p00J785q43
27209d005j2298K9B90d072B445i551j5165i186A578c76k1094O182O11k781Q482
27194h976m25K294K030q762O664n424N022c04q923o420K101L821k322n020J123
27179a5944c963j065l360p651O267l518j3524h592a536j468N14n729L722j1772
27165a6269K898K408c423H55P211e560n589L593K405j2094L843O426K916A1684
27150d746j265n394F90h431m549d749o882N311j2622K314P413Q11o965d666B112
27134a2995F578i097l068N242M85C947g458L160o038M503k776j2874g386F996
27119A27a9380h410b101j2921J10e260j4299F25L115a934H618m91B818a9045M672
27104a4373m443h928m428p238e365D24a0278b012C814d565F028Q763l593k313
27090H885Q679J827G042hj297A2090h28H872e45j1292a428q487a155k0358M844
27075a6669g635L611J945o487J649E177g501K070m123p944g368j0170g839P18
27061g121j0987N127J400N115B663O513Q163m768D287i027J384B557c516F7L453
27046C520i12A4537a888B859J0435A59N663D59f372n058j696n095b527B620a1651
27030a4734j433O043D00e2F08e826p103M266A510d329k0734J2414J95K963q848
27015a8339J66h417q677N868L339m883J910F125B813A261c676F821b745K00D140
26999i195c001d44o002r205J845b338n887l140a171p427n819K861Q73J711B868
26983E82J760K438J49g262q190A216K264f859J785m37D00d67l118J75o262q24
26967a0496m518j2607a1202D38a6087J935f18C006R56M761B590M944e391q500
26953a3891J219M152b531n061d14j665n451k680L514A307f883A451P799d137O5
26938d072l364J559C936J434L684G27a015m480n725M921E454c848p690p32j184
26923a3454L918P75m578p642Q374d636O00j794n13B423b991r066o99o133o62N776
26907a3775B622f282B686e903p379f177j4322M092O038j156a009p987Q01n002
26893a3197m2g46j88n710K672A512e300A445i410m178o860Q724B873a0105a136
26877d66n905r181f814A0089f514a42j5811j160B228c793j1628c048n689c358
26862b817q952K214d205A382d585F534J0010n905O065l724d090a365j0595L280
26848h680J155D09N818K791c819l438H285K505D81b176Q63G85O400a20j927k637
26832d684j0233M488G132B629b044A178a7894M204C476L024L340m819i595m479
26818a4074O969K748H82f71n131D070O653B536a059r030G026l196a3887N857b002
26802A0493g362B003N71K908a186o787G890d448a54B432R378d174f37r187j312
26787a1136I50J683A84c100l333m244B719b491A942g7r72A170c708J743C477Q299
26771A1776L2a607N0G25M387M65b587o217l227J12l706l660i342b072F457b129
26754b1432g274H811d27j2696e161A067L344h406o633a640k318l034J385C406
26739f92B095a2728j228C701i357M234o876r861e74j0487M656a168k198J096j0249
26724a2519C035a904B598h608j1933l07c551A03d375c68m433q090M99J957r56
26709a1391l092K220c297k238j779m288d900j1492L357L386A029J400L429J438
26695G296B277K996a3447N897j868q811N367M269L96p19m957l664Q245k73l282
26680a2847l30d20A4473a2814j0049J0052d835k93a708A8829d62q771n62b897
26665C774i227j4130K988O595k920c877E663N95e413a254G529D00i189g70r611
26650a0381n656f76D291M15h232H784k062g186n747K618B382c720k16g29a0r74
26634i84A3733E366A905J965D71d86p113L430B515d394j9635J1705M410A7328
26619A5329a3377g81E523L736F10e419a40G197G99O10K935a0408n865f709H508
26603A0435B262d854n732L582B41N152A27f649F197G36i521k752n731Q73O354
26588a0777d758o794L945O55l489n453N565F73R06i166r699R105c399l492K604
26573d287a371m557m402c453A0248H64c939N84A38m8b943q67I20%O657L660R357
26556B0594D326Q807K505A638B56a4205c149k17P89j042G89J775e877k164C552
26540h670C311J262b002G630C795k33P822a515n36j2745q28a431e4n635j2237
26525a7926e442n558a139k836j2509J966c649j2983g837E663A757J874f965k610
26511i575B347d677j2662d800J134q141g02B139h576B840J798L757k041k672a406
26495h760D516J4152j602C48g616L346A0334i081L704I398m387R71C94a176A509
26479A3399E791f0B29a0336n824N624E93J0209b928R79A8405q262E08L906J079
26464E493K419K108h299a633A8524H182c195o482J009J204J914k529L453D809
26449h84B387O932C09N782b124j0952b128m567j4774a0373G429d7r858b832M94
26434b338D64i324l154e793K482E728b337j2186N57f554f73j2867A318M281a2539
26418D245a3563M101j725J446M618H178A139l25h817m771O478m389F181a336a70
26402g930C518A722b1050P853e608j356B66J138i693p338M916p179g061k45m981
26387a2287B73c533n315c742j3819k021g611a309r458n09l190M28r55N38Q75J685
26371a1895j484K606G631l805d598n862a7p449a845m487j712p658g682B425c022
26355a0581m039d375C285j148c119B601k88P06i344K730P47p464j770m963e195
26339D081J051M2d105C06h199b284A3185a0182j0874a576A0477a005j112k471
26325d588j0558M608d044p86KF15a509n482B561g545J38J139o577r571J294d048
26308i662b460A450d206l882A1858D791B178N49q46J177c043o190B54O178b258
26292C34M85a5507J452F158A069b568P15H66b120j0041p018E507A787a2773e325
26276A784a5566o129g812L545a85H202k147O990l621R27k541b046C521c619m261
26261g880C994G46J609N248h888b98F331O71a4186J613I73e749m508B070e312
26245c830m19j0503L533j2359M557N707M909a970F883p66o23r38a939B913a0700
26229h098J189p547O243o854O056L818A2754N257F940M316j761a682q963m252
26215a4897l745N184K454j054l037N184c482o701b980A43i304L968G380O605D078
26199d482j246H038K97C088P470N072F373M222J546m230R891G784M360E511j993
26184C518e882b731E14g2B556e672j6b590e95n8q902r715b887J33C721b209p86
26167b995A100L530e417q467j833M938C83K41K629d512R93a032r321M410A401
26151a0770L790e26C504a767F499Q165F467j139J1124J66n901O37C27c833C466
26135i100d341A3669f359A59Q10h520a922j3042c907B155a2698N00a317k222k969
26120f508E80b457C168A012J142a5759J874A687N459j083A399J4158b194n504
26106g698B724O537D4K403N737N099b389q224B278f091P34k392c756H48f774K832
26090c942E913B173L590e609c8k823E233l92a0627D63h9n357F860g806k591b393
26073d510A2378b646C604Q196n60B016L625a219A3247m215J774A126f336c079
26058a2041A319J679O822d827A734g639R63C619l4K814E30M65K054c352n242k238
26042a0832o17r479h966E208i451p048d862K362I428j292k846f910k68L144o256
26027a0290L438q980J509M038b846j3297f824D146g341p020a813A6778n091a916
26012a1834b280j28J78C041a2098A195h41E740D69N041P83j954b072e2A609d387
25995g20o497A894g218r396L611e905j1038E016d62q735B983b646q867K456N23
25980h534M141K135C465e456o02K741o890b723B766J5970p151d368e72n497a664
25964F837B844a896A70a251l576A377f325a306E738K57M934J725i544q37c431
25948c324J488F87c520k114q95b262B962c170C838A844c19j043q839P93K036D60
25931B025h444b343k04r277M646B532N127e870K008q351d139A1954d747j554k119
25916h420J659n214L170f66m322j3219Q301d828A332L391k25N499a923k703a378
25900a1098L117k800L456c410E551o51K099b022j947E858f134B982j443O289P183
25885A5011B457a2745e330l702b324C373N92e971F207B345a4276b029H275k024
25871F251J492n17E18R119b27CP072O192L829E604f69A758h799j619g16n044a200
25853E225b324n372b762A383f990E073M270P69d161a315k64j3915B973M064J066
25838H103b910F627J0841C560K727O910M995H246A373N152P313e278A012P590
25824H602C771J3708o812m849j487J2253j863m276j008K058n732a774F624O742
25810A3366r24C602J209M061C166D36M568e566l357L097l364l380L826D427j251
25795C176Q382c789n263L435p679K699D31g56B570Q485A011i854M389H968B882
25779A1660b734C737J0477f756n295c958C512J032B064i753J069K163r276M102
25765a1695c020i04p597C246a0512b180D719K803N033d12F372D09M03d348k916
25750g264o105f120j0335P151a486C451a0023c786A1237k362F08a0909I296O658
25736A5954F879k889N397k581M99d872j8233M997C8J603K706j279o54E82J7761
25721A8343M706c0o170m147l032E175A552a1767o538n38P855C440L888a0388C898
25705D361a1601l25e894B727j062c164A591a531D056J309h071k294K906Q37i89
25689c365j8264a0140K468q959F09J0135a93j781G223c110J330Q48F322J845C142
25673H07J911g459r028G789J2661b900j1616b43E882G40a0675C009a933j1386
25659a3319E03R950A689E84d469a115m23C727J1925A044c661B678A050i147C184
25643A0301C623L934B091b232H76a7292N994d482D919R442m542p2f125C74N559
25628E933A605f340G026d92j2258N687J830l694a482A592L721J0051F960J4671
25614B1631F810P742h0j2149N161I757J054a314D044K246f623r548c534j021A5615
25598B560d708e55E198J3095H542b253A0505N6l657c440j2842H96A36c594F407
25582b568D958c538m406L162E343J6745m941l310C239p80O836o4M662o251B985
25566G127j43b409m585a31n210D61h823b392C768P316B952i139f9J6o451m731
25550a1235d421l649b241F101h328k600c746p891J878L5k721N564K187A958a1004
25534a3061K522C098K35b721F742N32a446j2292j715P57O020l791A236a197r17
25519b114B720J310c364p53n82j502n66L82k411a430A0424r45A747c352r768e588
25502H858i6j196e44q37E03R075N105j285B450a2319l987g066l787q487N400f119
25485h765b222j921a474J52l18k736A1568e337j1847h123E96k46g588B95a3307
25469a2810e645E889B874h710b667D16N662k02N250R366a784j47F207M440j137
25454I510J358N122N26A747b364E772Q051l817O487j696R74E170B242J6009o169
25439A2082E991A533O248Q738j226b567A089K212L653P743k675B736J844J1152
25425A5732Q058H755B052J1305Q750G490c309F250Q085p091B87N384J0845J984
25411A8500r143D665d096G008J4614k291p04k132J855N152a050m031F645O452
25397A3097O731A419P468N369K33O25o848J9L016R630o194E045c209M00k363I276
25380A5078b503r487M127b384C910K021k961M123R438n315K595n250k071c287
25365a342G037Q73K311j30p13m525N410B869N195a255E506P69O619b083H46N094
25349E940j807M115d878b192B341h45F59M471g372h52k94m547E867a210j2109
25334a3319d310B239a640C269J0312m447k394d462j3922h648A3433G48K551d544
25319e303B004M444b704j8804f331k066D741J579b604c56l370m043C042J880g690
25303d416B491A132e652C439a7820j313g724l694r09M363J944j5908P000m833
25289a9761P331o55a224I864c116C828I75a8030q755a2951b382g66j150r999N461
25274f454J707F91b5043a2402l758r166J1728O104c219m600C991J706K380C42
25259c117k319p670k339F418c478A4218B420N278j634P32K758Q006p136M328J6378
25244C1130A2506D641Q078j559C319a153F931O819B93J4727B491J0864n796J8923
25230B6482j0269G855E55M751N073D679j874J0409M704n957R904r912i36F847
25215H685l264O649k558J0534E667A534N187P509o685C507J40I98C66O500j197
25200E669k364J285j903M627I00N126J7319F039k682c051l482B938a476l917b205
25184E965R316N2E623L07J3772H362c563A3328k902P090e852o441e889m464I76
25168a0065M137j842l73a122B547P00hA079g737n717O294A1426j303a642j0130
25153a1772k228o331m240D68c006R41A184a0101L980n00k049j1350h386K365A192
25137d46A2424b060j5100a524m872k575c443A0053N807n360e554A1536B391a9187
25122a0005A4641k059n372J29R932J487D674N585K076l129j514l315M802C741
25107A1675M591o269K788M10M658A41d31H857C557L024M611N613m606C612c440
25091A3402J1356E203a747k290C495M402a515F188k230f926k881d207h60o40E518
25075A1286E315A203f378l379a189q112m300j5973O869n680J1702n687k467j561
25061b6398P642R061J249c310D132J0908n980b79j6945G240a980J4A1240N894
25047A7134n460b933m368b146n18C697a330j082A831J654i343J725B304r49O110
25032G465L754C625cp649A51P245a0531Q38K673B369h001n279N827H267k459a162
25015B038J3027J207B665a0214b52F217b3C866h361h00o641K175B783N051R53
25000H787c293k900j1230h334c310j0373e410B460B3O131B153c714M85j824p133
24985a2186D277d69q193J576B900M412a92m472D218Nb881C146A433J1235a83l634
24969c817n83J806E037J847a6954O989L926j0617L414M583K736M02I661l067i6
24953B620d745D78f20j2281I68J3505d557n877G81O27L996j754a218e17m728l217
24937h462K024j25K81I78R235a194l464m91A3353Q936A0743e770j2883D820J8076
24922B2896j1029P60c677l873J396K170d50o132J63E724L172k772P993B795P692
24907A0487J4898H358j625l154K914J790E51N005f541B755j312J849b156A279
24892C977g943g41D329e546A0140M955n864C524i274L504o346l100M884J962q54
24877i224K495c343k832k715P37k845K738K891o703k782c629A5350o724i665a400
24861D82a4088j930C884M864J647L844B183K583P029K407j205B909J049N682H27
24845a1590K342b691A721f300D304j753M598N30N239R79E337B524Q847N709l719
24830A3361A546a979A0933o26O151o684R262K147P038j2981F893R224N25l397
24816A3245J8172j1152F815R975L300J305Q52A0245O37J0979I736N374Q978A1933
24801F611L129J309k390a69m887A779G19g007E466g867L677J65c82q785l232H62
24784B740A145c270C447j85b051n545B307c936r788c115q603e579E594o31K411
24769G374b580o165H808n07C633L806k934I24i93G742N801J8996n034o627j595
24754A9283p006Q526l275G127J1926L148L183j1542J535n554J716J604m987P780
24740A5936d15H826j479q25P325j058E329N266m229Q63j162A970K801K437M522
24725A1730n44O782r80o666b511A133J435N397O20N428m88C330h204a148A2110
24709E852e63j804E531A01b487m573L279A0707L183B754M480K790D318c687B262
24693c488H535j822r09H04d717A0478k131J808J847L589M171q360a480B0142q75
24678A9267K325p492B991a78A6492E157O079J6163O428A0263d642A5821l51k370
24664A3100h33A729a370j10j470D401J881O42A833O269N245M232L057m766M627
24649B0497n617n261J7590n944m543F837k502J5992p103j345J1633A0445k577
24636G868J3343P70O254k481k986r184J641l665n43k048l106Q515M996R89l591
24621A6772q200C963j054J445J9993Q708j845k410q452J2061o556p197n95Q019
24607B6080O300o680j276k136m77L973n303M360p726l838N072J296L408q646m838
24592I569B996J1072n177N244r77J3094L037n125k975j0375N17A929O664J2229
24578B0822I219l542M819j377L701P204J3472j5201H639l744g897n61I219J728
24564A0947B109J157O398L424j321r81pN965n791E353J0536Q12H216L299J1770
24549B3285N50q343P682r654L21j16O22P569l105Q083n826N478o548L991N508
24534B9497F495R986M659I698J1382J593J407m002L735J465n44M068G038J3370
24520B0408L844H819J9804R160j1173H357K0771N912q419J226p722m850M760J7723
24506C7758j1130r647N341M832A0814R148k346E344R240J2217p095J1995p030
24493B4671o295M319q307p054O599K5307j3690O050m097L56J6n189j1091K239
24479A3834K1825n352j0567E875P408J3116o089o935j737J3926q889p341K173
24466A1507J4579m778p552o141N34B684k67K7603j2365l467K265q43n248L772
24452A4134N696E850L043N111F537B821P304M268l870O878D988P458J1365j1625
24438A2186c979E54J3974o27n952k792O249O131F864j878J20K742R055L036I026
24422G736J1115m557M814J6795J946j1497J0705A6075p376J0562P356j1128K611
24409A8100L016R087O925j6207k335n078Q822o932I53J4941J0686k166k074M39
24395B2779R922q820p870k305L522o687J6488J0336j3138j0686n900M062N668
24382A7371K612p723n189B582L791Q817k856M034J3141J0161j4625q477P597p002
24368A7163O610o107o694j072N901m755n373A363Q797M991n611L54k240L032j900
24353H786l493Q673J858N689G358C378J4251F328M279j305J0964D661K617L373
24339A0651J828M659j19l084J0370l963r228J6741k024j0699k11O575q458O69
24325A3707l674J915n730J4630O652A1165n205J8993K283k582m889m53J2518L23
24311C2153p999R48R731n028r888L116O061k595m875J42p38j836N212m110r48
24296A9346q741J432J7726O682A0686J235J1029r136K020m122D625i065a429H877
24281A1970j283C775A613a965E830O776E540a0275K250L133q86o739c460j43l603
24266g206l979A254O953f969H83h082L315A997O124B510Q296O236c209l774C29
24250C915J943k079M887R049n744C350J2091J7541p496k634J0691q727j1738m341
24236H737Q50R836R423Q85k006r360C130K018M965P345J919J0139n653q489O663
24221B2037k147m411F552J0832J3956j0499J375P731j1341J0991K899o782J0736
24208C6450m788o842L998r143J5425r025l875J4965p367p46Q235n195A0965J5551
24194B6516O552j91L246Q005m68K198J087P64o241q331p90O250P184n166l941
24179C6674J0104j1747j2691J4093o924P237p460j0735Q563O163P575J384n164
24166C7072q621R855M28j165J0552j1685O013N59n720J1759j0351n223P498k822
24152C8149J2368J1956L524q161k326J687p633o523M691m415R391N481j0310j742
24138D6137j0399M530J494J867P984Q398r996k3184R042P57n288J8658l139r38
24124D5923l455n489K960o792j265o001p396j742J4417L087j604m745n807Q864
24110C0955I812J1748o966C213K0903R329j112j563j2570J987Q114J379j498l818
24096B4364J4071A5967E780J8674r568k114K2179p497m236J4298j5331p637J5467
24083C0015j3742J4609q55j3736N5m949Q295O039Q78J3640j3246r317N927A0372
24068B7007j479r194m057P247P827N7K220o394q031N90J746q221J2588p598Q701
24053B3009Q948R114l122j0059j03A3528N346J102Q950p374m896J4165n333K215
24039B7703J6617A9051l487M983O998r651N236P739n424Q17o423J032J3109m20
24025C3560j3717M959O23m081k22N122n468k779o864J384L64M649M112Q728M257
24010C4627J849r403L649m846j0927K748J2171J3396m561K536j3093m145J2399
23997C6400O763q166m797K500q274N723N608P943j2905L977R049q420J467k317
23983C4551L862j0387m64J1742L504O917j7729M43J3962o698J1203r980J0648
23970E1574n390j156N16l980n273o344J2778n749J560m517O327p995l595N487
23956C4243m808M649l3o287Q521L318j0159K529j4386P809Q157N680j1800j554
23942B5879J3387j0128O790J2525L385j508n767p725j357j308Q143o99j2013k499
23928B7105K2762k18j9052j705J3444m564j0287j0631J6299J0678j2967m097M766
23915C1533M286j586R909m896n388p417j3204K727R92P55J6299o438q142m718
23901A4712o737K1420P844J021N575L643m331l461r255L400J646o284l899M399
23887B9693O439m558J6513l761n845N72J2830N152j2712o90J1567q018O163p900
23873D5445j509J837N75k479K3486j073K634q403j3714K7619j063L787j2925l21
23859F3896l206J2823O999n887r592j2945l695K0211j2925J387L224p317P396
23846F0369k385K07J2689j1423l440R09K758J196n484l192P131k242o491K019
23832E2621j6239J5920j776J70N995L271l096m065j678N257J634M319o275O248
23818F2306M721j1913K786L312o213L011K461R951j5399N241J0855n733l456r604
23804E2326N57Q543Q464R594k156j4403J2270j5524j254o309J2558J1195j5563
23791F0298j5675J1094R038J974q743q78p484J373N830j4271R437M505j77j2140
23777D4181J700P87J970r511Q635j143M148O307l549j906O292R426N834O895j2236
23762F7830K822M208l808M420j747L720K2263k606j0542M705P818J4371p706k0484
23748H5264R948R489O333n582L323J278N375p332O4J604j3936l469O822J1630
23734A10811Ll234K485m105p812J583k607R178n734m252J803J0799m839j496R586
23719A12169l852j658O481K511P576j1402j601n555K654J1061m260k978r048M201
23705A06299o304J1570o58j6267J2442M173o148O0rQ025j5040r367L120J3101
23691A04997j577k990N49k22M654L96l155k1065j378J4591j0410p492J6163q570
23677H4491O32j34O72M194j1610J096n466k581R144O736l348p488j4498N179L788
23662G0807N853J0577q893P19p20r158J5098J3952o805J849q097K523J2740L492
23648A03937l690N62M725O020p456k032P711N195n674m794M834l232J1430j09
23634A17427p75r04l742P485L375J515o87K903m345l252q598K991L237k458p422
23619A06750O94J0623q858k243p392O236p253j5398J0446P516m745m572j4325
23606G7479l511j682j3170J2008J1638O867p084k40O636J467r778m298O600L129
23592H6061l768j0225k865m68O723j643L914n046R954M731j1498P775L780J623
23578H9048j27N264l791p261J3344O740M501q338J5328r353j6757J7127j4876
23565I0849Q277K761j3037K310m726N050N68N409Q58N875k652m038n704j0701
23551H1099J4601J3644L942j3218k672l225J9302m208J7337p147j7089l39m875
23538I7152O799L095m489j81R762p722m542O662P311r923O353K873l822P142o828
23523A09642n011M943l42o10P220j615k8878N516R397R775N60r062j2625j886
23509H7024J4968J0492k529O046p187O863o781l970L639O720m815N930j671j3178
23495A01551J4244j279k051k777J3006j0399M252K717k602j6778Q636J357O502
23482A16379K724q899n313N542l06l066J079L855j0561J858N734o014P464l663
23468A06813M397j494q34j2278K989r24J53N076k979p597J6900L945j6171K266
23454A00262O797m80J0508M384j0369o291L971j47m963M175R168O7j2202K389
23440A07269L498J6280J011o292K916j542O022q586j5308N36J3792J1218k282
23427A28532j1007m434N015J0734j3411r989o514l724L581k240o625P085M436
23414A01439l383j0368p106K839L466p467k029J986K500M015m905K16n787R601
23400H5017p40O478m113J0885O899r985p464O562J4242j3664l675K5878m850J0464
23386A21934q748j3873J6337Q101K498O803n764r767R477m728R40L659O112o606
23372A26375O749J1984j0302r758j099J3914J2923l24J2971j5151L876K494J430
23359A56082K759N962L521l120l650J1480J760P623K0889j803l575J42L323M735
23345B06128N345M480J5998j0004L306L566Q847J0622m067L768O859K8124M443
23332B87415j4039M987n506J614k683k292m153J2926J298M907J165k230K850j604
23318B84655J7055m001j1596q454n186n469l023j080j0836R581k374r907J001
23305B50366K2743k1739j1536J6317m617J1206k9960P129M993P78M575o37k814
23292B46804j081j0320j0808J6931J942Q959J3139p437j126n44J054n068m954
23279B47491r11Q901j3885m950J7133k4520m103M378m601q969M289O817M889J1266
23265B43225M527o376k0431O578J9943m305J822l360L405Q239K039r61k297J3455
23251B65503P525l554L771M718n481L276J0328J6908K299j342J4619M654j504
23238C21720N320k590n282K0413P99M752J209j540q705O466J8146j0028K1513
23225C72193Q561O198K530P149j1515M672R690q36M084O425K2778j6408j2913
23212D02608J032J1048P350O867m258j0680p401O686J7558K284N38M808j937k942
23198D33561N947Q915J497l215J170q659Q682J3519o511P293K710j151m270L894
23184D63382N062j027J2027O666k784j40P635L25J3216N729J2665P05M353n489
23170E22325O705R739l291K2857N631M48K162J4740R202J0096N834m292J3037
23157F15193J4679P921J497J582P06l794Q919J2355k7j2259j528R996n419k878
23143F46943p746k0032o129q904K738j6903k687K0021r086k0825q836J739M791
23130E75084j596q675j3749j9666m212J0924J294Q250j2614J104J764o136J3600
23117E45372K222m590m53L628m952M077P345j258j2215l007m069J7492J5908O165
23103E71665n761J2962l891J0832P103O270J762Q695r106m49Q727M640K2906l471
23089F32884J3665R20L734J0340J6279P29J2845K89K0700m471R657J6693L860
23076G38124J7547L204N20K1517O840J5345J8115j066j873Q956K4601L529K4563
23063H79922N537Q797R863k594K2064J4507L158J7628O026J4732N890L842J6579
23050A005951K7765J6271J0682j09J4906K1068Q960J5037K5080O067J741K6591
23038A180010J5158Q285J5096J9372Q508M0564J7865K0605J4783J7091K0904O918
23026A385159K6056J9159L0807L4900L2026J5650J3377K5958K8737K7013J2556
23015A651398K2507J8511J9799J7894K5325J5194K5352K8056K2564M0754P237
23004A894591K7534J5403M3515L8924K6629L8161L7655L7796L1588K5166L8348
22993B255310O2242M0604L3497M5623N9056M9351N3191M4140M3442N7798N8560
22982B802814M4819N3537N3082N2264P3682M0429N3380O2108N1060O3111N7964
22971C408250N0292N3525P4429O1960O5323O3880P7286M9925Q6720P8288N9729
22960D129607O6626P8410Q4594P5814Q1837R7977P1830Q2735R9213O5055Q9679
22949E023377R2934Q9730Q8572J16002Q3892J01114J01074J03880R1882J07963
22939F000420J14285J01076J21206J36362J14818J20883J19167J42598J50963
22930G121778J36931J41615J53279J62539J62983J89494K05029K03197J92978
22921H669823K24831K22899K35900K51787K51119K94094K95834K99702L36832
22912A1082821L26137L57458L71175L97837M02146M31863M62868M80024N11421
22903A4823750N35059N48034N96727O11717O38742O77236P31048P63243P94812
22894B0720368Q61769Q93177R54993J030071J067157J127443J196274J279176
22886B9130428J375308J453428J549719J660700J782031J879658K027368K148315
22878D3006955K318055K476875K632810K839977L037008L228809L452851L650787
22870F6644127L901611M121562M333952M571419M751295M940220N114872N239123
22862A03618181N296869N281439N247065N127667M892321M586321M164890L632517
22854A41847270L020258K327306J535250P10998j51644j009667j843178k632593
22846A43804000l336146l930618m435437m822539n086696n279015n374128n365482
22838A06173939n287990n182523n031936m836242m636432m397038m173995l946404
22830F8681379l730658l507734l282362l091380k905389k701910k536748k371332
22822D4553866k216324k071002j955527j830346j712210j617984j499957j420856
22814C0229660j324035j242024j159694j112821j039073r72833r22810q66892
22806B1589478q20091p72551p43132o81797o51433o20889o04311n85278n30377
22797A5579619n06391m84488m54705m43718m36428m12789l96346l63188l73309
22788A1708257l58181l30876l25209l20098k97222k84747k78153k84117k62347
22779H967307k62795k46521k33952k49855k11559k27020k11925k07696j97316
22770F918668j93831j94425j76764j81546j82931j57987j58356j50746j48494
22761E373588j33943j33621j33186j24891j31076j15992j03069j04553j03985
22752D289272r1371j13856q6124p7078q0198j02333o7409n2891q6477o6785p8318
22741C386432q6195n6612k9034p8076n5127m5855n8632m9404n3656m4218m7998
22730B781625l1815n3064n3321l2204l0231k0718m8526l2975l3359m4588k8326
22719B372498j7841j2845m5971k2248k1052l9865k3209j1591r134j7410l8987
22708B112345k4882j1233k4445k6456j6021j2666k4965k5633m0957j7999j6462
22697A870626j6303j2410j6834l5788k7632j8689l9592j5317k0449j4503k4935
22686A628174k0733k4790j6417j8503j8149j3063j1973m502q916j9716q101j9700
22674A443611j4370q830q640n678m624j8087k6754N646p081j2124k5269j0464
22662A307336j8832j324q104j0697r587j6327l7980j4380k443J1412j5285k6832
22650A156957n504j7362j570k984j4684q984k812k1574j1941q272Q810j3505r835
22637A046740j0265p248j376q085j7555K172o458j8788O619j7871k754n805j1398
22624I47928J4089l0899k0011j258J168n661o780J199j871q003l825m611K005
22611H83470p673j4124J0207n056j5759j8750n95j7785k895l681q335r718n045
22598G84261n43p884j3517k5193j2968l728Q100j8463j6070o227m198j2831m582
22585F66157m335l473j3073k3422O193j3573m910k0051r304k690O425j8132k6885
22572E38927k65j9237o740k0714j2427j1310j4677j3781m449o185j9522j448j2110
22559C96062j1206j7298n596j4749j0880j3736j6359P11j6920N308r45j8302J788
22546B77878J575o812O974M290P784j533n064n630J4077P982M599m287J98p339
22532B94692M6J917K012J4910O075j7816j2076J2394m061N375j5237n324R990
22519B92897l860J65J765k275M699m012p043j5856p081P129q427Q119J4450j9139
22505B61531o825R695K927o455j4525o112k532n218o614j1241J0228m20O355m643
22491B26151j1100O566k718n836l129M810r423j2136J6302M381O709k296q40R260
22477B26701m228L965n069R365l799m951P305L300l108M439j0567m97J1792k741
22463B31907j0530K2684J0801J390r221l623j209L474J043j5146J8158N994Q68
22450B56590N678q584o928L079K611K891j0714Q896J3404j2716n065K421N087
22437B56650j21n893P9j3585J0763J2748J013j868j0137q261j0029j7111k589
22424B11659o214j1194K78R230J400O10q050J2620j3497m873J2407j7445k224
22411A84707l617N681O237m480j529j097k0738L346R408O867r124p707q78j7019
22397A50057n211M768L701k1145Q43O102j7441Q998j6873O712K66K592j5071l174
22383A05124n540j0039L018o429J6267j4606M013j969k757J888Q101N16L258P019
22369A07864j3678J0151k108j0022J0956n280M567J220M840L427J031P600o813
22356A13755o378K9001o298j1447M634J6696J1809o916Q596l581J2919O898j0915
22343A58773j0920p200J5708M640l186J4232J2M926j054k206o084J5547r968o819
22329A66401n378M206R318K703o769M921R842j3343R147j2456M896p729o986n594
22315A53179J6901L825n062O883J959r08J164l027m634J4058J130j066j747K106
22301A84761j062N845j1105K32J785j2394Q213j294m100J3253l867j4558j874
22288A63835P988k0775m18J2303j769K888j4257j2770j1362O705m908k680J4241
22275A39021j911j587l656n030k405j900m231J448K173k461L837m336M363R663
22261A32988m173j3012J507O376j951q595O519J6178j3484p222J3678n785L876
22248A26900j2702l121Q374L26O041j0046j531P409O391j1608j71N465r527r79
22234A11221Q393k724j0733o425n743k026O877N809J0333m41m940R31j6385L509
22220I7656O389j5120O20l074J5158Q65p44r776l518k578n738J469Q383L984k1760
22205G2216P631O773J0106J3984n812n237M2K261o199q069L86J309O450p777K2409
22190A10473M298j1754j8742J808M661N308p528j827k84J679j7930p189L4009
22177I6982p679J0826o519j4302O763P559q538j29q052q829O421J0027q415P854
22163H3969J0584l176q685n548j0347L632Q162K24L352J758j2379N039k308O50
22149G4927N052j911R254o919J3518n377p562n981J0784l375N433J501j835K189
22135H9698P377j0429j4898J7328m745P597l70j5655N450L236n928j2545J2119
22122G8235Q197k678j2753L310J6594j1429J203r501j565M156n724j828J2229
22109G8446p10K190O659m180o970K523l668l521p962j339K586j0041k600L19P90
22094E2522l082K753J809O52O914n559j3077M57k339j8275j305J2150j0913j495
22080B1212M477q610D336R945n652l21R216m449j425j654L445j449d250J817A5569
22064A2942k425m126o30Q825k79l631K507J331j237P795J484l967j524j263J3355
22049B9157K380j757l390K734n47J0868j977N704m825n443k540J0642K0564j8170
22035D3400J2403j3925j2981o359m538M683r64M291K108P051r019r139M314K970
22021B4295j0257K992O142r826k52m635B567a0377D303d22I749l081e630e27A271
22005H312C726K631i943L679j105L229q03f91I37m51a3126m420e029A0897L425
21990A4322e29j2549O085l779l667M987a601r6m762J657p046O97j4871N688J900
21975a8434n766N560K194j3889N201f225j4420P123K103r880L568l435o969p102
21961c5237J4218j6299j584J4100a706j1168j2396K705R38J0682B140h858F90
21947H243A688J6588Q11l092E490J3562n141m46Q90J5650j026J1628j9m799p78
21932C5011j117M943J551p373Q794L554k455n17o711N150k473P510j2039j5643
21918A8185j75J8165N228p472r854m797m74Q596j2819P198q30O699j914o483J6748
21903C6001r324l024G815K16j446K4M239L862k627a243H181B999c40I15J5491
21888A6406K0337j3564A1005k041J66P365J415q730N555J2516A2556B947R470
21875A2417o91K47L569p092R126M206H109j177Q423J332j932L064g651K999I791
21859I776P631j665p297r76L573m232a686B591J333d626H172k130a502C853M148
21844H001P010i4j0765b756r71m327J955K640F726P000F417b638G125O843o017
21829G951k16N929E084L14J2046P963l150l362j511K569J3883l322M465o510j0455
21814A8014p235K3582L106q906N400j1785R341R5A1748L403M123J0939M718L884
21800C8815K972j1230p863J1023l053n094R637M368L354j8783J1549J2337j3238
21787C4794r440K2131m330j8376k092L111O92J0101k598j1810r035O07m608j487
21773G660O915o561Q888G895J198Q06Q483o668k418J5297j0970C099K442J8873
21759B4414l805r914K352o82L658j615K059N643K293K621j2531r08Q528p861M527
21744A8779J167K643j0030E978J1132F626b443G310R390E151P805J859a976A8318
21729B1627F803j671N535J650a3191N781I725C985R802K623L031j524o513Q181
21715A9585K607r693J0863q224l566O080J5923m180p090O721j1947L692r848J367
21701A2290n581N401k694Q452J2779N314m759M92J020j5114L47J1184m039j1470
21687A3622J1875J1155n651M033m568j2537L407l941O459N690L722o319r178k758
21673A5011M605o369J1271J611m157m688C517H88Q314P197P930J0021j1158j795
21659B1397n262J0644r915m431J0119k195k609H550J2727J3620L720j5788o286
21646A6543M936l675K34n881P511J1110j881m904n748o262J803p94k917R881n497
21631A4459M694N926j97N902q512k948O973A1351E058J1810L636J391Q232M691
21617C4818p749j3357N944J2732j0400j0247J464K76P013J4745r618j743k559
21604B1319p509P662o79m774K082j418J0880A2461A033P799R604J967J0261p771
21590B2893k863K539D190K117k491J4023J768l389k739l998R745m368F612P662
21576A4274l597l845M06F45b619A102J2653L559B185M279B039N657A069Q314a1067
21560i858A753a6086F03J081c482p027d806q945L454o871N60j852K359k045j202
21545a9348R0j1061a4964f808M83P69a781p323O32A0745L58G42a1383d457A5409
21529A1842E857O607a0792K356C937L825O271l783l03f15B424K122a2082D86a666
21513a815A4241d737j009r36c234n732K554j1576L218e525K257C282B63d816o464
21498a1280l055M302E844J2430o326B317K07a1079k517E992J6163q496N815k06
21484A9268p244l830P797J950B922d821A522L940K073N996A516Q28M759P306k738
21469A1671k272j341j314J4935L7r040F92J1661m265J1716J5160k802j053m942
21455B6167M11j927J0082n758M186K610m163k378m558L73N522k865J4402m150
21441C7954r229L160J1272K198j8845l780m568J1141p522M975J154k03n090O08
21427B3225J9343p461j4625K215N803j0136j043M120P108L169A4421m494Q132
21414A8059m291L97L612R5m871J297n012M496K039E978P592j441E396N849k046
21399I199b40o519i01E739r77j044K564g3r325C535N229O92o32e25p429p455f463
21381H795C812f40l298a696F645J3479k628H442L549k728P37k306J3531q499Q59
21366A3585Q830H445R414K397n543k137n878L975A345c380A551J322N863J0634
21352A9370r593j33J1522j0206O632E094M269D114E17J0531K535C026J695M228
21338H949C423P744J075n702b509F472a403o708b901k998b659p162o612a99G472
21322C842N845N758J459p899b079DP877R048B510O385C364b333A1515M052C697
21306A4586G226d250n50b243C110l91K23d726H790l158H54m12L586J450J0907
21291A6385D257g190D23R192j035B139a3786f470l253D618J576A988L489J533
21277G010Q273j713j615L391K710F667J5996H151O544K056C050E08K635a245D714
21261E128m21L306F11i1I948B896O680K0302A2739l970Q11J363P815C157a0387
21245G427M791k788N46e285B696M395B124e352l611A8678n220j497n450J433J770
21230I714J626R62D498M929j888g283m433N830b28I366c99A501L281m74b966C411
21213B265d268m294Q50C402A285g569c779F507k321K203i276M430I14f088D61
21197B575d104A331N474c033A3947d51j8015P746r461j305b781F923a0082j3336
21183b3418c034l3j0037n81b924k564p149a42j2711J070d527e43A153a414l100
21168d514j429m159A529d437N31j156F431A608h573G818i586j504D403L155e120
21152a522G762e932p009N079A268L647e313K36A532c725j3850P360M072k068E74
21136H658d496n65k397j3064J513O844N309D697e74G21c748J215F861K982J615
21121A1458D588b357Q97m354j2494F20c371j3251O508a978B740R252j794L31a085
21105b832A148a4159k87P48m582h559J144k48K237B537a1525j030e934a084A2207
21089C255A213a460b80o52m431J786D257N741i983F56N203A246J3809A456h159
21073a1544b27D30J018k31a2504J89n87q051J0150b780C869e858i72J16D807M35
21057E242e815B73i245k573d774j0411M89i70r164j6371o483J2307h329A641c913
21041a3351B646J830K4a724o96p082J310E961B698K730k228a644l542H360A810
21025A352d99D185d642r71n036A268J7048C939L198J1258q658L312J252c195F423
21009A0381d328C441M734n55l734K330L770e694l49B574J705O90c521H328J3826
20994B2154A0911J0318o179j427l74A298e703A877a4803D113l33j063O261F52
20979A484P664k088g74B160d88o49F655I72R347M474E386J1502M810k540a205
20963d827A179J5677D341c699G786J890c754l186c063I394J4942A0171g780H466
20948B590F84h112c940m962j2952O010b029l466B689L168M120q1c762E599o88
20933D911J257J360O070E535P975J257Q78J297q232M758k801k898K5452P136j4104
20918B6253A0091m529J32K2206p614K848p557l340J708P169K462o363J008N589
20904B3810b527Q75A3658o496J7863j2291M98C249j447a088A869R630N666p764
20890I401A675g100B698P34j671a513I050r92L118k985m070a651m111A0620k563
20875H057N332D371K020a847D374L877g537C952M799L635L537k05B544f92G612
20859B790p89K082J5359m691B753b116B525a323k309I488D357A848J2663o687
20845G824a001j2023K991A121M905J1167G090J0727A810K692J4651g884G217P150
20831A4367L913n293M40P527I376J1833m903j606K809n198R77J6987l786m010
20817B2479N604j2265P938k207n553j784J6919A5022K709P11k334j272N011J5032
20803C4879r40l00A0101Q853j936O923m450L446k776K585j39E118L903O591J0134
20788B5746j2753k066K073F309K199J919Q384l756D013d074A9136l495j301J0462
20774B4802l119o632b60D825J3228l053E51O23b894B3814K845o115m430l660k157
20759A0297k492J6373J654p137m765l245L59l859j213J6542p066G397J1791H608
20744F443R287L068j635L32J5301L070j0830o363A071M285J8514l953k64j954
20730A7699K6M929P003J61q414O081q211q083l245J4795L002j0905Q788l350P459
20715B7735o700q593N212Q399J190L20j399j1616l532p04j381J1996r318Q558
20701B0167K254F227n39M176M635j941J1886n166Q198o015j699L516k244Q723
20687B9757q325N850n316O963J245q006A0971R631o109j791R335n617J0300H109
20672B2061Q260r189L647N983r517p801P624k400K507l496M751Q520p606N597
20658B8941m104r16j894J4458K043q391j286A3836J474m758K066k817j601R387
20644A7587K719P060N470j095M438q546n271O268r428N205j651O666j260A3276
20629D990K770J2956L86n63K041l580j458k410J989K832H468N891J0J4883A3904
20613A5890J4328r25k245k139r401j10r34N763J408a282A1510P364m302k773O458
20598A8257L985j703N60j606J0406n869j854j046j182n640C853M803O486p61k561
20583A1820J5811A3546O632R799M372A4935J2498J7772j703n030q578K458R948
20570D2300P40p556j0831K1462j070j7189K343j943J9376j6248o800l640P723
20557B8667J3463O133o393p992J2012O213r670o322P15P950J0784j461M395q041
20543E0453o719J6324j1593N342n469O578m659k635j333j1798K440J6841L46j2030
20529D2088o594J2628j393Q246P776o204r86j0496O259M840N87p889J7977j2642
20515E4197M576j4046j1971J0553J6131J3566N368j8060N335L293q042J214k34
20502F1880n312O563l105j5667M04o942Q240p414k343J3885N126m169n709p885
20488C7552K667J082P990j5565j465J6346j3591j4638J1125M847O707l640q757
20475C0660J0289r224o64K068N693Q467p284j2381o530M208J1997j0758l970P158
20461B9729n184P278m57J0489n431p071j0546P20J0513J3437j8217k56J5602J943
20447D2549O138r998K685o558P771O737j7488j2913O721J9037R959m749k151p81
20433D6959j907k68J031l89J3043l407k254o890O947O63Q304O888r733o350L439
20418E6076J604p133P357Q562J3899j0906p34j953K707N175r337J796o74n612
20404F0827o533K1381Q453r151o902r30O69J4707m062K52l194J934J1679j2394
20390G6736K904N614l824N50K798j1411J5015k733q102R26J3359P422j2413q289
20376G8552O989n470P927r91L467r906m379m27m08j2240R507J2621q305J2141
20362H9078m292o360m038j1859m450J6631j0386k889k927J2590J473j4260L56
20349E8667P036o649K690l456J622J478P097j7589l307P221N77l778j686j641
20335D8282j8453l345L3R965J2807L570Q45K880j3060j0441K784k009J1803J150
20321D6811l644J998j3107R286p87N362K087O554J63j2547N634l085r259P852
20307D3318n29k312K689m740M785J3737p406m136r647R185j332M58R752K726L287
20292E9835m781r479L293R893j1267m674J0434m176k55N082L560K41n238P281
20278E9749j0824J6654j237q842J1862m368o096Q135O935j0138J287L477k472
20265F4122j261o628J0965l641O756M006J506n437J4166j4632m496P083l758K07
20251F8958n598J1082j0352N180J2875O651k517m339o120l194l462J882o883J6508
20237H0671J107j2233J1472k906J3841P09r917J0703j2335Q394K879q284L186
20224H7287J836M063O785o841R665P315j439r906j458k634P52L220m260L833m711
20209I3507m06Q155o5n886J1872n148R590l756m751l09M401M716j2862J687m430
20194I6315K788L416j951P879l82J815q817l661R053m186O009R392l248m816l572
20179A06034J7407k785p966j3143k619J7723k811M39K235J1779J0478j4233N550
20166A28088K199q380K361o526L304J2941k220O523j1276J0958m324j6284J7262
20153A34626j161J1955M731L253p999J0649L597o807o815O265J8536p994j5556
20140A47280Q768M026J230j3418J0689J6223P652l481n687J0973N841m886j2689
20127A72521j0342J2103J2613k301k75L706J912j887J6636M152Q331l51o285j3529
20113A97004P412L030m623J0845M515M902r95M939J2519r239K3973k579o870O306
20099B51139j8118O861J7067N215J3029j203o612l302M977q933j520K0452L404
20086B82456j083O866m054l016K2320r33n940L296J6559j325P858l517J0154K4022
20072C53663p724q454N209P151R768L532P057J35J4048p36p93k936J7350K4177
20058D21447q206P861P765J3501l53L780o437J8239J8622j1080L601J4991J4660
20045D98391J1862J1976o35K5339J0483j161K779L269J4239N118J4003O586J4593
20032F16842J4784Q300J1065J4783Q002J3915J4236M543J5462J7507J869J2907
20020G54215J7729J7901J1573K5162J8591J6300J1728L0738J3286j879K3270J2783
20008I51397L0214K5586K4550L4881K0138J1311K7628K7791K2352K5118L0166
19997A231132L9418K6218L5159L1469K5136L7225L2972M1619L8348L2316L5917
19986A606929O0191M5279N0300M2930M7591N7864N0593L2241P3544O9684O8166
19975B205312O9320P5020P7848O7184Q0799P2568P8798P9188R3204J03977R3159
19964C096377R9071J14419J13642J17587J11745J15511J10454J33881J22244J27511
19954D262442J18689J43621J32208J37219J47481J34849J43070J41016J52440
19945E513035J48590J51270J50352J44637J49193J31635J39746J42543J40066
19936F811067J31724J28742J26842J20319J26330J09445R6830J02411R2560P8334
19926G924604P9255N7713O9859O0686L0998K6657M0970J1864J2098o274m420j4578
19914H289432k7439l5202m2064m8035n7526o9704o6773q3457q3612p0512j11964
19903G593144j12325j04489j07183j18452j26708j19853j11226j19876j16999
19894F556033j31881j26562j32203j26436j18131j29280j28252j10728j12081
19885E440479j16646j04232j21316j23432j11979j00146r6365q5170r3924j03376
19875D383893o9400p7914p8531p4802p4902o5515n5356n9301o6631m3437l9376
19864C678728m0706l9777l7255l1991k4319j9994k1097j3958r952n807j6281J0471
19852C428062J3643J729q394J8148K3082J2301L1278M0737L3209L2775N4772L9778
19840C721120N9167N7512N8162O5393P5807P8228J00491Q2528Q7206J09695J05904
19829D601213J09552J10157J23534J35334J25205J37798J60992J56346J59044
19820E819175J70417J69244J63803J77742J89027J67392K02699J97255J80252
19811G437006K07714J82171J94197J86728K03901J95536J80687J91650J80639
19802I160229J70116J74071J70636J58332J42226J44066J33645J20832J04771
19793A0478924R7946Q8432P9582N0374N1013L4814J6729J3697j2522k1513m0446
19782A0837030n1382n5878o6797q6955j00697j01405r4745j37697j52842j55002
19772I833630j55447j66476j82686j88840j79529j87202j93214k10003j86532
19763H183701k01627k15872j94718k04407j97513k12258j91571j97239k07024
19754F361472j85509j89820j86873j85192j68811j72278j72417j56533j59831
19745D784208j51754j43718j46662j42676j34353j32256j17577j23366r8369j08738
19735C484739j11340j03577j06027r4005q3608q4456q5443q2390p3069o3717q4413
19724B512694o9749o2383o4768o3956n7765n2091n3533n1099n5670m1875n8235
19713A881570m6862k9395l6367m6318m2706l3092m2423l0675m0359k8670l3071
19702A471632l2790l0504m1900k5256j3397l1964l6291j3127j9249m0112j6632
19691A170410j5251k1766k4112k0197j7090l7845q165j7201j5881N53j7148k8482
19679I47825k2172j2624k603o171k8985r810j8913k0676l67J545r275j5405j0998
19666G91371l4117Q47q818j7386N876j3934j0447j8331k325j0142j7412J0581
19654F75763j0470k9688l008J419k740l383r147j8440j0345M002j2020j1988Q71
19641E70826j606n330j8321j8380K585r119o698l66Q317k606k2867n63N740k3782
19627D77830n645o987P653O306j5209M114p335k209o757o265L172N937k043p899
19613D44663l3679J3429j1514j4574K6862k5593J186O618n289M495p615l560N958
19600D01387j349J895r017p022n366j5477k409R58o396l170m949K683P017L99
19586C59184j678r586n798k274J106k198N103k360j5196N954o558N952J5973j0670
19572C36954j5283j3039R94Q321J667o246j352j0226k849M253j0472l034J685
19559B91373k674J0520Q885j9356r778N679O762K768L900Q362k0626j0264k807
19546B72744J692J7526k3613Q327N776p738j232Q946j0731j1992N747j1443J2872
19533B66881m544L237j9757J537N138m733j2605n208J6943l486r373m030J985
19520B31985K711Q74j4075L131j02m411M986K896N267o4m767r150J026o636J580
19505B15251L669k0553O816M089l787j8663J073J980N252M577O34j792j2913m846
19491A80787M618R468P419r023n235M372o434N378l972l21j6402J3299k885o619
19477A74450o285M414J6377j9646J065M524K692l756n307k964O621n18m195p269
19463A60203J538J1099j1910J2799P807k3446m324Q771k63p777J0471j471j7871
19450A45626l672l838O982O467M196N232k16j1412L424O481J4844N185n180m203
19436A69916q483l451k813J6172l331j1827j2392N546K399Q850j5914P402J4841
19423A66915j1394J823l815m451N128J5084j8565m46M799K546n813P12j7411r358
19409A25754J9972K845N565l81r815j0089J6747k734J185L117j0623L854l507
19396A41890n167J1090L567m716K753l062J320l226j229p501J1526J925m50J983
19382A50703j1168N131m046O243Q067o126o780L509P343p597N130l325j2616q1
19368A34387k09Q769Q351j0855J619N840l756q91J053M968N298l269k660P106
19354A55751m343n430L488K3241j2841j1793N624M301k702K676j236q99J062N21
19340A57420R963j3477j7603J9151J5932o818M234m068k288p998K249l204j229
19327A52264j042Q275M619j685p8j282o034J929M499Q213m829o250J1742r834
19313A60507j350M317m782o284K935Q927L075j4181R580l250k579P266j4115J0051
19299A60117O01l461n503R114p368m153n33j0041J5464n356%K460J2702j9657
19285A44386q939J1736q182o01L155p992o19J3425l11N958o347j0140l334p466
19271A24729N24K095O29m08O532L993r950k448p06J4565R572m873m171j6942O172
19256A29313K246r819p16j1944M988J0994n08N755N475j8187l586J2928K212j766
19242A27385J3385n020p009k373O338L271k485o346r314J2790l828J893M071m315
19228A28443P452l757j1976M526q775J5280R76N863K595p121J500P05L703k40
19214A39174q22M78K263J83l47n195l404k675J2452k754l439p329j6289J1346
19200A23642Q581K228J3550R61k939k64J5901M217k108j7056P554M979n627j4222
19186A39397J0918K738q823J3811n640O315n511P129n636o022L951l11k08O421
19172A58529P681q909M04K211j5159O201l999R967q066R710K479j6287N451Q7
19158A50300O894K89j7141n388Q039M534p623K399L494j2001J517j1860M576l364
19144A24665o433m3J3526m221j2034M545N074o182J085K632P400k0274M99M880
19130A15119n55j2000Q72J7284m284j3215m105L026J193Q669j558J17n531J1950
19116A16982p189O83j0569R883o108O680M89k0443L4J3221M36n799k92O567K371
19101A06946N813k168k1335l095P947Q327N589M58j7050l441k976J5189J1870
19088A12074m080j1470p437L33l588l503J0021n2Q610L633M159j3902n529J694
19074I0963j941K121M029k830N191P651j2314N934o521M335J2568J746o774j654
19060A02504M69l10r34J434l811q206j171q252J0229Q293Q903k473j3643P196
19046A00228p929J482j1187K397L299l700M39M02J2576J0756L207M71k855M090
19032A13676q386r151k505J861K628r714L760J954J56J4272N456j2178l308O561
19018A05082O063j1908o457k73O321n453R462Q714j2070k0297N589N661J4402
19005A04836O203l226J5995k6152N007P206r170N692M131l471n563p531J0577
18992A04534P943j2006J5638j4796R469O045r949O67P884O961l790M656j2305
18979A10951J5479j0954o976o089J2573M191o864J7950l960m438J1428l545l963
18966A25783k418J400j952L385Q647Q467M122j0077K498N177J3707o052O210r938
18952A48959k792J884j976J848J0415j830q857m173j880j0O17K092r294j298J3449
18937A47154J2543p040N017J6012M496j6133L250k965o796l866P313p039j0580
18924A41366Q024J1285k709j0844M003J1609j25j3390K92N976P925j0711j2464
18911A40237Q709P968o919j542K797k188r81J1713n250j47J6803K257r581j0066
18897A53810J3371L801k327J0974M174p79J565N982O323J6741J2358N398Q893
18884B40284K6170K7431J7481J0052L7107N6556M1146M2851N3633O8265Q3224
18873G04200Q9446P8879O5406M2098Q768j7386l2602l8661j9787N998J8829M1369
18861I46557O2622Q4581J12356J27190J77962J50564J54001J29080J09182J05266
18851B159361O8607K4190p3313j32038j63671j58669j53776j12484n3100j3028
18841A392079L2578P2009R6698J49411J58051J60335J42803O0487k0444o3972
18831B180035j09031j39996j67503j74111j64194j43029j32159j01477p6766o2207
18821I09562k3835J95J1797K3199L1074L2156K3338j2888j9261m7129p3682r5870
18809G58656r4016q0391p1774o8677m2540k7353l2217k3030j9254r106p153j6085
18797B67060J321j3671o714p477j3682O630n140K623o062k46L936j6073K564j3110
18783B01959j2683N352j249K241l758L07Q344q20n381K185k150n401j7331J119
18769A72734j812J87j5767J2809L26p997Q516R66J433m583O721m991l609Q287
18755A73220q201j7753J5536l645R71k479n185N721K12j322j1336M599J0250L189
18741A63777r138l391Q485M116J385L264p377j238R751j4480J7046j7352O214
18728A61062m143Q831J5742j4927J2702j3794R672P996M4p751o575j068K614J454
18714A71859M26m775J1575K513P621j2549J2954L772p801J0298j025O665N268
18701B06801l603j448J1510m56r964n672M097n370J012J392L981k971j234j2908
18687A85167J9963P549j441m92o201Q057j3123k3671J8151P769M731J1067j4437
18674B03089K094Q948m342j0337N787k777j697k946k080p912N106L384J7845p647
18660B06515o468N303m819M96J98M36J774N616k158L919L58R631j3306m679N574
18645B08390l970J678R995P119l695r918j1251K2636O432j5844Q328J0649k050
18632B28499j1482K762R90o884L343J0759q593j8211J7928O064J086P13m107J0336
18618B33203l984N61J2522O134j2648q586J1194K98n647M596m134J1630M099j4028
18604B35210k107N977L524O792l74O887M122j1223J2729O812J0266j7322p412
18591B53881K1507l169l35j3340J2609J2565j980k740Q40J7027m1p472L281m663
18577B87970o037L066j579K3695j071N494k809o652M085k554P986L958M038N52
18563C20142j362p034j0446N005K3310m835j3412L82J3636J7718q809Q869k023
18550C41141j8104J3937N356J563J0596r558l092J3681j360J5567K209o097q430
18537C57409M316P104Q750K853J1950M813J3666r720j5633K2680M443L656L191
18524D19478k966l152J8504J2716K0338j1497k884J7721J128j5645J327R685R081
18511D73834J4862o655q306J676Q649K1321Q170J162j670P62J0027R87J3585k692
18497E35712M186N680N891J7510o0Q182J4858L970N482j0274J6285J8309j0753
18484F14978J0891Q073P713P606o406J3247K5757Q405M095M053M919l02L4917
18471G37946M663P23J0918P902J2716Q220R473L517K1557J6818J5647O467K5827
18458H82394r44O486J3322J5936J6237K5143P093K3253J3168K8213K4776k057
18446A053020J5622K5524K0459J9728J9463J4968K9330M886L3842P734K8827J8098
18434A291501K4271K0731K1176L2785L3597L2371K4481L9732L0865K8588L8001
18423A618099L1272L8290L3071N2425N1755L6843N1111N1130M9135M8802M9282
18412B111215N9046O0969M6694O8199N9134O2774O9789Q3193O5473Q5278R8178
18401B869942Q5055R3221Q4328R9630J08721R1177J02301J11387J21137J21190
18391C888089J20135J30769J33813J44270J40053J33122J46398J34061J42373
18382E113083J54095J58160J39692J53002J49390J44063J51192J54340J58981
18373F475998J40504J51003J59706J66530J43943J47214J48495J53646J42612
18364G829651J45606J48576J35648J22533J28155J32402J17164J10944J00434
18355H971113R5938P4786Q1549J00815N5283O2200N0310L5216L7200M1202J8359
18344I623971J4704K0393J0748j1325r800o943j3473k5463l7352l2086n0919m9429
18332I433026p1980p3472q0084r0075r3380j01765j03513r6147j26768j07854
18322H487988j25719j30269j28914j29830j32942j35971j32506j39501j36344
18313G295992j36795j41286j31621j33195j38892j34775j22082j31829j27181
18304F098336j38450j21769j02308j33867j30538j09359j06309j10765j18556
18295E026415j06316r3194j10562o9405j05404o9307p3964p8685o5248m7059m0756
18284D166515n1459n9271m1884k7658j8748j6728l3256j6594k2158p124j470N596
18272C875761J7687p001K376J7209L2892J5116J6872N2930L7815M6653L0966N8343
18260D197619M9567O8245O3445M0771O9820P0248O4122O9229P2063R6018Q2488
18249D943635R5864O8578R3935R2489Q4226Q7863Q7454Q8822Q0454R5841Q9237
18238E908398R3642Q2588R8465Q1393J12209Q9675Q0423Q2974Q5553Q3415O0651
18227F859386Q0675Q2500N7503P2185N2637M3923L9328N5838K8664K7156L6221
18216G436016J8874K7150K4117P696N294J8004j7963j536k1396k3702j8782l1323
18204G422449l6171l2906m1861m7270n3440o0708n7416p2549o7045p7867r3936
18193F781280p5460q0855r3317q7114j03096j17873j03243j05264j08692j09510
18183E796856r8667j06346j18812j15119j03581j02757j16633j16548j24486j12467
18173D681440r9519j10719j16118j10791j12434q6170j03933j23107j01895q9771
18163C626983j14449r9312p2274j15927q6226r1297q5249p5416r9120o0555q0343
18152B646815p9928q1632q0582o1687n5163p1108n4320m0095q1223p5463n7669
18141A907945m5262n2914m5511l8453m2439l6280m1390n7649l0355k0149m6579
18130A450964n3476m1393k2393k5100l1986k2312k5600k3886l2124l0672k6005
18119A116017k3164k6113k4707l938k3839j8815k2771q626m0355j9919n571k5680
18107H72519K41j5247n912j2824k0390K373o592k1752J1851n611r287m285k4871
18094G60213j9248k5707k2755k8401j1993l661k3414q632J073j1898j1231j2314
18082E82032k0857l784q316L363j7938m559j1303j4923O403r612O368j3940j1324
18069D81610K389j2476o024N28j4717k85j3051j0294N950L822j3264j0225Q82
18056D14845K316j1336M087n268j3774M088o869o318L38J4991j4586O48J7460
18043D00622l83L361R268P659J752o947p339k2915j2436o617n920j0975j7000
18030C32130K452M018M292n631n159k5314o386J8479L467L554k294r574r400p330
18016B97304o681M364k116K46J702N635p71p553K137j1337J852M483l018o712
18002B79535o068P115j1404q912O708p849K01K141N720q41P746J1236r669m079
17988B71580Q57N149J120J721P986j7920j3739K5481j1651L01m888q575J798j5500
17974B43720J6282n12m132M136j923l467Q891m278m438r483l91J9373K946l244
17960B63480n413M074K692M761n171m473m391j1649k085L91Q65J6007J0845j761
17946B68172j94O819j3764L508K101n560J0159m417N8k778J0276L553q534j4913
17932B54486R902j346o883J0354K092l91m015Q385k068n373M128P923j0044o128
17918B61022j90J512J2961J3725j0003o806Q916L54O704P975J2669j6535r313
17905B82991M642P936J0775k077r409O387m835j973J6193j6292k1P719n712L523
17891B99847J0890l084J3755Q919r080Q050n79q972j945J922J2096J4938p168
17878C39589j0138J7451O743J283M8K06m076j145J0323K0189M704o361J1736J819
17864C92371N309n575J1577q164O028J9046r218N058O897q772l617K1718J1184
17851D43842J3767o496o35j179N859J1907J0983J25q120L067Q207K7563R804J2539
17837E31233j4071Q703R659J849J6428J3943J9278P014K788J0525K662K1720Q249
17824F39980N670P723P767J2548P283J9816R36K5828N149R643J2487K1492K2077
17811G98399K1742P736J0298J2721j424J3358K3085J1432J8894K2391J6494L6934
17799I92060J0433K2651K5682M3K5660K1264K8586L9995K9224K9722J8169L1403
17787A274892K5594K7383L1836L8305K6567M4530N4860L6703K3581M1906L7542
17776A663699L6182N7864N1459N9363M7478L6816M8582O0868O0580N4907O3981
17765B241779P8247P1944P4064O8911O1153R0111P9154P1478Q6661P5055P9534
17754C078091Q5893R0298P8218R2570R5076Q9099J04473R9343R8418R5619Q8922
17743D096020R9538Q6033Q9026J04146R2926R9448R9924Q6847P4890P7835R2426
17732E099059O6737P2282Q9317P7975P2389O3526O9984O6293O9699O2259O6842
17721E876362N8398M7978O3850N5927N5957M3150M7333L6236M1096L6444K2247
17710F384978L3497K9943K9890L6303K1597J6751L2469L3456K9520K9921L6570
17699F714895K8179J6825J6390J8462K5449L1137M344M1595L8327J7828J7006
17688F970437L1903J4336J1230L5214K0501J2887J9979J9902L9114K4117Q606
17677G208226K1378J3649J3933M304R223N854J4803M119J3230P684L279J5971
17665G335653J5717N376K2550P759k906L983L2885M012l847K1511K2736J0073
17653G475502J6236L1889J1477K1128K2214K4902J0375L9132L1717K5473J9302
17642G729347K5475L2844J9873M1829K8871K5210J5422K7373L4388J6521K1827
17631H018980K6360L1435K4963K125J5814K5893P150K7244M297P757J3340J8215
17619H223573M538n340j622p663o762l455N712K661r76r054o550j292j0578r799
17605H173393r534r05p861k0506j3772k1505j0328p077j2195k4736j9863j9903
17593H005208o706k2840k6335k9509r710k3757l1212k2867l8760k6740j9526l1924
17581G715322m6069m0402m1191k7950l4771m9094n5375m6456l7911n5258o4445
17570G216400n5815n4784o5105n6429o0500q0276q5003q1639p5412r9005q9667
17559F412765r2024r7946j06341j03408j10773j08575r6290j14138j19010j04216
17549E360044j24362j34018j19716j30930j22153j19577j21593j12563j26317
17540D248815j32261j11356j16251j00389j14825j15850r6411j06791j00344r1074
17530C163263r2295q0412q5429p7852o9527q9598p2060p4997o1247p0200p5659
17519B313987m7499o2144n6966m1173n6607o4479m9015l4679m3808m3212n0293
17508A764112n7213l3422l2162k8220l8473l4821l2668k9698k8479l0059l5108
17497A383789k1219l1626l2933j7713l1105j5384l2423l3439r724k7217k4766
17486A106240k8707j4016j2075k8520n477k6760j2250j84q455j5210j2639l549
17474I38398j0934k0587k1853j0926r089j9917k9542k6755m837L094k490q665
17462G75897p528j5928k3591o432q528k4112k993K935j5168j1385k223j5835j463
17449F43646k359q438k749j9090R451r36k0154l607r481l450o841k220O685j4201
17435E66256n727j7370L527q86P24m139j8550m280J2395n937j3456L345j5933
17422D99969P827M751j8902M083j6258r308n694j265Q073j2854o614p119J726
17409D48415n662J2505j7734j2557j598q757N80q86o560p860j1181j3815M072
17396C78962J2504j0614j0743j694j0061p004J0163l529p472l798k1250k071J0725
17383C34118o403k0J0127k637N777r537N230o065q040l760J082m667q537J2283
17369C18951L929L954R68m759k0327K035J4420j2651l776M853J306J10J983j174
17355C09822Q054q121k2462m546J2550r16k0895O337L398r004j366k590J213J109
17341B72583N380N959j1649q807L748l912J4386L064l191k037j2796j53r108J2225
17327B65692M760o784k848M982j032P018k030k756l604q443j3365L445q52K290
17313B46473J3978j7453j298J946r520q095N000L221l945o4J094j3724r08q385
17299B08320O399r908m713q352j0016N461k13k613J913Q623j2456O108L161M378
17285A96092j245O265m982O853J5744n237l726r905J923o302N464j0466j391N469
17271A94556j147j415j0862J918Q577J0294k0763p429K723Q444J938j553L327
17258A88608l428L143j792J875Q791M918p318m993j337k0900R918R210j6611K875
17244A72959j142j9170M434K37p369Q060J642J0455j716R370j2409j6807J8210
17231A66754M416r448q12K207m575j501J5555q543l837J847R77J0371l141K813
17217A73083j0881R240j1668J332J0027j1064N995L247k86j374P29j7493k893
17204A47994M287M533r104m375J0777n406r683r54L141J124J714L477Q95J20m824
17189A43716N888M349j922N095l431k727o408N948J5258j9694O568J8450o104
17176A64986j1060n526P610k427l774j1452O551o762P270P644p836j2300P252
17163A40176K057p87N3Q201P452N381l73J417R178j1020M351j562K639n880Q172
17148A69455n732j0458n300M648J1192P282r584o07P903j2846l712R979l427l815
17134A54978J2527m397j6973O223J6756J0256l447R72j2242p755O131k674R96
17121A61351j2621J7904O107j5853l202N415K1314p874q195J2168P076M335L550
17108A91475L272j78p621j6285k9l670J8775j925j0284J1714M211j5327K22P619
17094A81969j3008k535J6588j668o610J18r289P136L283L766o524l885q825J2207
17080A72723N134j0012P690j969p731K425J2304q855O955n942n054R907P56r987
17066A68344p733R632k1k606O37J718q497J1291j6270K205m5n101p850Q70J3582
17051A60156K18J500p063K77k369J1590J9397j1647p952o080O68J4611j2894J0293
17037A70705M37L882Q873o884j8084J9854p733p009J455m444J6065r774L318K110
17023A72771J0314Q11q74N124J008M738j4279j6538O11J6038j528r379r082K126
17009A61861O158O215m339m669J1167j3015R245l965N385J2475o639L055j5258
16996A67676O636L529k774K043j3293k732p869K072J0049l158K597p618j5661
16983A41497M057p719j428j761J0943J1492m041M620o716r740J9120M354m712
16970A59966k0461o301n033r19J6496O552M052j1789q16K923J1638j4344m967
16957A36997Q393O268j380k8Q515O916r151k5l729N127r656l240j1393M410M816
16942A42840p582M274j0540m634q627M740j918J097j3234n689J329k451J3703
16929A13308m88n639L083P543k644M07m60n368J9315j0488M287n653J9763p464
16915A29502r629l88K684R27j769q42l490O604j1482j2501q052K1026k0655P728
16901I9663p775l73k208R8R626q67j577O803N435o950R490j642K384p542M740
16886A09305p91J2239Q35j6974J719R720m554j423m454L13J7491j1232J0807J89
16872A23190n004p489R288j764m846Q704j1047n971J284M586L567q365r254J772
16858I8651P747k064j1531O204k418N20L145j257k656J5407m139L642K016K0330
16844A33597k459p217k141j874j1r449M596j4046L158n28M99J5086N931p35r330
16829A15077M57o744l343Q542K389J692n095J587j4591Q530l517L678l13J7018
16815A25367j6984l022M211p8M080p30R41O89K4744j3035l076p446M980M159n709
16800A19091p123J0878Q39N69m280J756j3871m758J1355o678q030J4336O310j2402
16786A07992n189j3715P481P774K081j0883q835P840Q607m443l189l542Q307L311
16772A03597j018L297j1176r730O123J3197q658J414k377R130J0739P058l218
16759A18378p678m233N756J4786N782O180n804J6612J351M490P95K55M675J047
16745A62392J5084j642n579K140q145K574n284J1226K735J9755J6202O032J1678
16732B29168K6795K6921J0421L4904J4785L7283L9812M1092M5143O5339O8559
16721F40222Q1598R6129J13542J21867J21911J20120P8189K3186j8992o2240j22650
16710A192882j37698j36098j24550r4716o9564p3407p1057l8892l1900p060k1406
16699C86534j1955j4794j2392j0524j6069M901j1375j1598q950j1690N407O007
16687B93502j412J4507l847J7088K6652K6150L3436L8950L2590N1190M9394O6560
16675F44760Q9881R6686J09829J14666J53771J95713J89463K34060K66494K77158
16665B372481K56775K11598R6083n7742j67789k75257l32492l34008k95195k48186
16655A226268j92283j46167j02648p3570o8105o3596m0158n1543j1017k0360k4487
16644D32334k3713k2530q375k0963k7355n08o236r500O73K2119m908o267j024
16631C23747Q786K3225J2821Q300J4065K7521L6609M9787L6876O2371N5705Q6970
16619G46783R0257J07978R0679J19761J39031J29830P2361N917l1724q3498j27228
16608A260147j61242j69072j46584j08688r9670o2487n1275n4059k9241k9091
16598C48738k9479j5176j924k3110k2051j2115p827m150j4984r002m973R705j2072
16585B01580j0984o242N99R443q511k0119R760j854p610n622L994M940K0912k1774
16571A68512j2807Q302m590o866p808R534j4193J1662J028M627N453j0112Q63
16558A53605J14K46J631m362K799j77P279k389p221l579p46j523k334Q593j243
16543A50693J973P04l347P747q764N797R524K736K89N734n993j7197J282p065
16529A44113j72m960k350l62J4101M755r273J172J4756J6541m145O067k604K115
16515A79754N086j4300N3l794j4038P084Q976n010m278q844j226J6429m58N754
16501A71188n755k126M457M997q225n623N279j2754K5910m000Q776L764j6095
16488A69793P522K7743R88l600Q702j0740j365N71m58R934Q70j1644R590j8496
16474A89410L867k01j66L679j1358J3179k023p226o670O687K264j832m912j799
16460A82899l1k074N498P540L211M677r423K586M803j560P845p173K0186p444
16446B11540N134k664O045J1608m406J267l695J0704l434q557M800p473n260r11
16432B14698o033J027l573Q344J038q781K915O581l090k364q139J403j2114l320
16418A88592P252p750L437N644J040k62N547J3348r815j807k812r10K1857K2207
16404B45568o394j134J8300j049n794J2008j2830L155j0341j1192Q766m371j843
16391B32849q562N030r800J4782k728R148j212J817P917O321N244J7045M669n694
16377B76826J2398j4387J1482J2668M852p918J75J8349N089J1257R085M477K663
16364C47016Q128j495n893q556m334P292M55J0312n990k599k151L463L311j0608
16350C38351o940O503J3735P490j6760N227p443j2376J2300Q824M272k171J4978
16337C65990J3560P393J924J3911j474L04k104L511N105r885k617O112n755K566
16323C98541J9286K324m725j269J1159O527J2057J1739K1395L724N588J8401j5767
16310D88980k143J1220l607o928P302J4220l472Q869M8m129J4445J535J9944M490
16296E50774N892J5274J2158J8887J544r518j3714R664K343n115j3959j461J5893
16283E88662m81R080O911k459r94K0265O958K3566K3086r043J826K3981K1777
16270G13135K0330J5814J9289J8285Q930L4037K1167L1243J6345J7785L1717L1765
16258I79842M304R500K8138Q006J9496J0355K6450K5046K4613K3640L649J3553
16246A176592K6149K1677L9642K2942J4800M0680J9690K7476L0816K1877K1463
16235A463804K4661M9533M6874K2798M0165M2997L8477M5344N2569N5312N3814
16224A936348N8826M6033N7669O9274N2072M1283N5264P2055P1838P0890P9277
16213B610829Q8514P7209Q1807P8563Q1920J00391R0580J01487P1495P7823R5949
16202C556567J06341Q4350Q0766P2518P4727Q8152M7350O8965N4106N7785N2666
16191D344293N0414M6385J7652P501J6667J0595J3286J979J3572J4245k788p284
16179D526517k5202p946j3880l376J224j411q230J1460M649J4674K8444Q037K1333
16166D556293L3733L9381M7066M3560M8047N6966O2337P8660O5528P1943Q0037
16155E183551Q4615Q9574P5710P9860O4017O1004P0676P8544O0734N1528N8297
16144E958110M4828K8557M4355O1453M2141L3911L4021M2558K5570L6081K9675
16133F381260K6693J3910J8228J6520J1858J9122K8895K1105M4894N7332L8794
16122F678611M4368L3751M7233N4879N3577M8033P5782N5071O7083N7534M9593
16111G265515L1266N7123L5977K3995L3387J0862K9741J7371K9631P446K2991
16100G565305J8334k465O205K1528O3K260j234j097q525j4966j3796O521j16j45
16086G577872K709k2885k064k307J3024n261L621j506J4044K6165J1655K9305
16074G644372K8838L0022K8813K9240M3461K4802K1554J8763L5428J5017P225
16063G927535K9127J2014K6938L247P922L87k0237j9604j1030l2029m9480o7814
16051G806976p1896p7481o0404p0359o8654o3707r7757q0589q7312q1706q2029
16040F965082q4185r2608r1711q4219q9712r1402r3634p9155p8459o4564p2298
16029F043135o6245n8164n2382o1304o1732l7373n4319l5111m1803l4593m9245
16018E490864l3264l0860l8310j3219j803j7018j8388k6759j1035j1302k9204
16007E259702k5024l4257l1596n1288k4798m8807n4086l7545k6383l7760l7070
15996D851088l5616m9724l5608n7219m0380n3183n5498m9037n8598l4220m6105
15985D335900l9896m2516m1759m3115j6156j7061l1090j0678k1377j3233p273
15974D051746j0353L463P752P981j9400O950J0254r980q170l7691j1902k4747
15962C965903l2286j6932l5652l5508k9908k9819n4196n5176l0223l9772n0040
15951C556391l3182j6958l7396l8126k2011k0253j9284q899k448J3322J2852L7486
15939C421494M5790P1274Q9013R2473J11400N7921o831p8386j65590k23119k76914
15928C138525k71027k47014k16207j77343j45388j29304j18422q0514j02454q6479
15918A564373o4798o4370n8148n5453l8352n1102m5186n6464m8201k1629l1960
15907A028710k1974l6534l0021l8715r007j7035j4897r981p618m443j7451q03
15895H20231r740j4391k0733j3570l188j8219k0325j3058j3881r885k1961k5004
15883F36276j3135j6254k7220j0352j8485j8270k3118j3177M823r179J953r232
15871D84630o1r339p560J3134r665j2037k1044o023j3306N38k1601j068k0489
15858C76109Q48K172l542L203P264J6599j7281J2725J45K174J198J1908M63l817
15844D10168R536Q561m462R45j0819n846j5499M291r999M117J0782j8683N269
15831C88361J6465q684M225K739q456J5857J949k90j3717k2548q174K3909j1031
15818C80605k6819j2194k0625K636k3173l4103o534k4907q903j3824r403M827
15806B07583m122k74R930R119n646j0348j970N862J988j672r480l952P162N133
15792B09313N939Q390J7981R731K25r44j4184k749j0563j4148k0080k7447j6312
15779A45152j3677l3819j8614p699C4243L527J1122J3118k1L060r0J4392J2087
15766I1438M445R055L03K6213R86L68K3999k504m399M022j5938l954k6360l502
15752A04172j8693l815K11R235J8469L330R883J4692J6034m610R711l811R471
15739A64279n260j4067j007L052P241j1688K332p63j3446j431j02o22K2995K6909
15725A78422N993L5523J6140O690J1056j2010J0965o293J8658K760p980L841r095
15712B54670k5423l3026j2740l5169l724k5424j5120j3022r382p608j0784M228
15700F7476l61J0795K9128J3360Q703K7617J9358J7633M251j949j5542J7267P642
15687B05378j0850k099j0613j0558l082j8083k1348j4834l0194k1331L549J738
15675F7673R975N850N8J3697K5255L4316K4715M2045J8314L0894K9366K4216M9516
15662C75890M772J5343N473j567J896j4130n278m851j5018N713j0683l0195l8956
15649B88409k8796j2813l2022l7174k4165j1317n226r507j9529l427j4648j7720
15637G2065k2264o849o055A0146a1979J914n468l442b332A2679N255G781d923
15623a0956j1140o643j1157j7068M704N093j608J6843J2816h808b969m802A9856
15609C3474L211L498A9956G868b3407l7941k0403j0198k9291m997M679j8680R037
15596a31201J1400J9796L3054L1953a0771A7706L0699L3035J2203N590M247j4697
15584H8783j4443j3686k8824H247a2157q731k681K673q315a2890A5449J4382J4603
15571D4434K1412O657K4441K2652m466j8095k7108j1963A9226a413m813G324Q683
15558A6007K9855J4532K3889K3702J8989K8328J5984m715l96q285k7608k0824
15546A09458j8345k0242B6399o546D615q03b167j2692A0839K5058K2214K0343
15534G8454L1242J6925K6747L6307J7295L7227N0611M4948L9944M2099M6843J8464
15522D87106R947K5151J7836J1952J0001K133J4490N694l137k2174n6875l4943
15510D67181n3578o8098m2883k3822l2001j8924L296R530q269J307K0868K5591
15498B80198K6099K5896N1665M3368J7620J4671J8071R446N156N734J1033K9267
15486E38224K5547J7656J7587L3667N1527M8781L7345J7398J3682k7260k2492
15475G51662k2732l0387k0026J3487K0921K3362K2766K0740K9202K1664K9048
15464H59707L2315L2411K7544L1402K7060L1995L2016L5977N2243M1192K5576
15453A229438K57o846m057l2499j0603j183K8924L2404K5654J3862J8204N984
15441A299539m207L282j6513l7364n1019n4296n5512n7199p1256o1261k8444k7455
15429H38295k6737K25J1137M0809K5900L2839K1579K8174K5374M9518N8177N0766
15417A156056N7488P9921Q2341N4730N6010N4106P1299P3759R6983J00080J11290
15406A994063J33000J32929J50989J74552J69799J68573J59722J72624J75787
15397C432038J93759K12584K24497K42059K55065K50485K68015L01337L17276
15388E697115L41515L90943M48272N20641N73367O65344P63775Q79124J027959
15379A1308055J215107J444542J725078K106302K542676L088005L677043M379163
15371C1485971N193371O186000P366008Q774389J0445018J2418955J4748454J7400101
15363A14018267K0238336K3126863K6268743K9729497L2953095L4595753L2076322
15356C13006876K1883254M170537j4239910k7982465l7550552m3027694m1914712
15349A74345334l5164409k7248491k0611416j5646128j2019446r289230p231187
15342D7135027n717449m584902l800726l279618k927179k676745k462412k233019
15334A9452977j988225j720819j468672j228888j063282r27211q43053p52206
15326I460621o93108o15740n42858n26811m67130m34755l98348l25489k98297
15317E158085k69312k27664j99177j65107j84852j63895j62248j23688j10982
15308C551160j04381r5954q5389p7813q3461p1957o4809o8767p0763q9518q2699
15297B655649r8153q4149o2895p0601n1969n0601m4848n9414n6721o5072p8674
15286A932552p6043p2058o7802o2742q0836q6087r3389j02405q9079j01074j01469
15275I99568j00151j16472j11301q4180o1359o1550m6805l7643l3423j8242p487
15264C20955j9123r81j9942k0261l3804m6812n5771m5033k796r887J6910K8860
15252A12315L5099K6546M107K145K58j735J4379J9125J442j0902n342j465J2600
15239B08572r605m400j1297k7188k5230m2858l6379B2287m94K0289K9660L8571
15227A10313L2120J6782K7119R884O387J1778m826J7691l391r984J3335J6814
15215B44022K5812M5821L8244L4736J3633J2027Q806j763J7407j8403j2079l733
15203D04530Q851q021j4427k6492k7651k1446k1082k3762l8920k7184l9888k1611
15191A42897l1523j3983j2783j9483l128J3046K1780K9512K8976L9340K8366L3652
15179B56669M1979N928K4776J1610R138J9627j066K398M96j6369j4317k0562k7516
15166B92791k0825k7962l1846j4653k6083j3506n250R31J947K0169K3693J2565
15154B11971L3394K6254K4094J2060R706j13j7431k7632l4786j8085l1399l0333
15142A57700P062n92J5318K8993K1690K0767K1761j670K940M559l279l453l3760
15129B38036k0392l0939l1851p908j147m514L435J0429K8288K0078L4733L2229
15117B70477K0565K9775K1138K133N320k399k4127j0771k8545J818l3919k4548
15105B26917k2381j8214k1370j1382J342k507J5901J6664K3026J7011J0607K5837
15093B61451J2983l0320j3540q020M239j3545j2108k5091j5229l628r108k091
15081A45993J3512l647J4334o721j9190q241k0275k0595j9704k0785j8828M464
15069D0317j6583B077d157j5000j7874j4941l2132m1960k9811j8755k6404j6333
15057b17367J0178j994o490J8015j741N508q698N148K0471K4967J9243J5508K8563
15044h8689L6666J8469e70A1363R663M0487Q207Q671J4546N655j5824m416K837
15031H1189k6865j9321j5868h574k3335j1505J4530p93O69m009m615J854M582
15018c1196p45i890B1726J1114J9746J1617J157J1177k697J4037K208k0473k573
15005F7039k1611m347A2703a8574o020k0813j8582k3787j3710j8592o413J727
14993a24764K1473J2054r74K9569J5072J0433a7596g053I220D020M465J7294L575
14980B9354J4403n339j0445A3326a067k35o847m360K139D833J8733J389k662l086
14966A9207O786r08K9242P294P420J6151J3399P402o322j8438j2363j3582j6739
14953C8549q20P634J2619l694M891K0001K7705Q750J1992N789P711P093Q487N720
14939A62427O273N308o95p946n952j7552j0759k2438j5108j8214k2101j5736k627
14926C4880K5315J1157j112M454J5555M4363K3769K1885J8835P99J3750q443L341
14913B08548k3463q193k7832l1012q081l458j3028j707J1106j7881J2711l901
14901I3809l5099j4000j6286I485a9158j9228j0398j3327n086j1437n219R969
14889g3884L176j3310J942j297J2365R106q488J0245O689M362J008k505k843J9500
14875c3934J0021j2914M867O69J0093m574l227j1587m198O220R421a4250C880
14861F028J5944J5335R45J5167K257M190p905J7809J1255J2969m511k841j278
14848H5364k350J945j2211r086M682J476r252M637Q181K383J215J0239J4111J6529
14834A17863q686L485l783j363q74j737M656j1301r12Q414O485m66J3070J3746
14820A38597P331n604L239P748M971m415m26M231R890K3907j8449M944j664k554
14806A71746J0375m337l468O829j2364J321j1038M853J3321k8193m565q257o465
14793A29758m728j283j8343J408j4695p211k9167q856Q535K303R433J7640J7076
14780A01870O827K5638J2202J8197J3889O545J4299K9360K8783L2796M6243O1327
14768C97976O4759R6987J23027J19859J57117J71363J72977J91358J80612J45236
14758A821271L3938o5838j31601j87814k29992k21477j79033j51766j30849p6021
14748D80818p6115o1246n8465k4385k0298l5452j9206j5306L696j0228r924K61
14736A54150J2975j7757l243k8271j3443r762p062k934j3162j6151k754j236j2560
14723C8790m903j4663F922j796M563g95A3055N388M932J6707J942k964J6212J4437
14709F9709K707j3581O219R696l716l069r540j569j0092N982j1079O363L328r380
14695D1978P806r580r935k69l091o701N036k588m277n288F486J0729E828J1303
14681A7131j316N098K2919M536L059j4946p061p759F001f560I799O398G802c679
14666H169J4580p934m154J2882D727K1957k749l418N167A2698R176Q622k307j290
14652B6899j1747l209J8240L569P216A9835N406j765L453Q591L201C916d702A781
14637H857M913K1081P938P69M445m884N584o216M2K5376o045j2836J512j1365
14623C9171P58R401K2728k6058O045k458J1011q473o798K4941l82j0153K402J4548
14609G6683Q16P697m593j388l489j6091k0043q989j1400k334l598K616O429K638
14595B4954o49J179J6236n391o366k141l18j744l746r475K293j781F422e006j679
14580f685n274j5057m228o36M414m751r705P714J5205g775a30G618L470a107j767
14565b874n7j0909p053p328k637J4296o276N473M102F556R454P461Q145J5463
14551D7079R960R980O238k947Q451J667p11l4j908j2618p063P387l724k0578J1776
14536E2955k827R16N625j0866o005r239q496m360k01P616O414M932p468K764o590
14521B5170I847B639K675A185L841O849P391r442a464A0737J0333B708F3K240
14507B303a610q173oB068N208J4300j0767J0688o7o75J725o741J1732K827r960
14492B0338Q728q743C729h452p653n173J373Q532E478P378l462J0421j993p699
14478A0123J5036L230q604p710N296P66M947m122o947b613j6059n35K893l223
14464a9537k18a662f81l846L86H825C807L072a334D517A688K280O208J1848o706
14449A5318L132L0635J480J3453K3672J0704m167m758J8873l27N782R822o042
14436A17577r306M38J6306r622l860N426J6483q897j0035o175K880j7187m560
14423H9468j1965r633m404k1436j2084J6284K631l453K2828J296j764l077O606
14410G1297j3800J5613J0764j8749K197Q098o028j0530j299J974j2575N853K849
14397E5664j4929L456R263K66j4807K0163K5969l831K793K03J1347J73k0752Q071
14383H3049j2500J3301j1834j5931K065N67J1010l791Q791j1718R401j582j437
14370F9391Q090J2764L303n754J3092J052J327n102j7647Q08l007j126o339r253
14356F1599k509L720k270l332o99R580o77n862q949l223J0041o491M013L381N970
14341F4292R207J4900N579K827j0352P041J5267O843L51L643m51J6198J93q824
14327A26714O859P75M531P15o72j549j080j830K574K0n265J3179q420p970N16
14312A29097j0050O339M575J3062j024N890n03J238Q320J4353j1940J5264L474
14299A78095N617P722j2774N747l880L558k539j5715J05J1000m618J279j1713
14286A61884r763O894Q036j7726q832O982q59N829K8515j764j9487J0966j3117
14273A57558P408j2552m282K4895k8326R109J4296P190m313K047k740j2506N587
14260A63371O287j61J2608Q975j204J0244J105M430J247J208P013k103n316K149
14246B09853r26k597L676Q59K098J0210p333P619j960n395j612J0371p56J445
14232B25552M465jP442N488R590J500L309J0317J5055J435J9852R666p234J611
14218C08047p732K2796J5636K1187K3710j0427Q887K0270k48k102m045q30J5902
14205D11051J9991J1754k544J2321Q281J3681O941J7351P661Q860J3770J7979
14193E47097J6109K187J0237J8781K5818K6727L0576J8707m081K4559K4918J0965
14181G52600Q147j409K3634o28J0985J6153J9799K5195J4328J9710K2921L4930
14169I46365K7009J4981K2666P994K2610K7529J4521Q307L902J1736J3521L1059
14157A152200L0632J6641K1053L0602J6029J2555K6676J4678K4626L5345J1209
14146A392246J1708J6963J9420K3444R489K4827J6827J0443K0943K6519J1344
14135A584173K2583J8118K0731J9780K0064K6221N728O676J7809K8677J0367J5229
14123A796156p826K6740J5979M645P079K2116K050J5718K5143L001J5857J4680
14111A941338K2342J6888o32J0561P275L518J2713J0511J3128N083J6392j4320
14099B044797Q943l604j0912J1856K0378L509p259K9K0618L811l509J2361R993
14086B111011P91J9432o057K898K3694N100Q624N304J0819R341K613K69J096P443
14072B202378K2999J5650j329k608J1997L383O309j2448O368N37J0109O043J3938
14059B283326N490J437R968N283J3501J090J9785K7081K0907L0223J7208K1650
14047B456949K3241J5876L2050J5536J4041K7305L2724J5226L7415J9383K5615
14036B715361L8347L2422L8620K4039N0236M7405N2541N4157N3168M4764O0015
14025C211075P1198M7188N8314N9000N2707O7588P7118M7535O2242N8164O9083
14014C881212O8763N1879O0884O8975O9453O1095P7287P0430O6505O6343P6242
14003D619068R8376R7400R2938R7398J01070R1735R1715J06523R1479R5474R5779
13992E678955P6542P7054O1644N3361M3784N3101M6264J7064K6862K4434K4900
13981F183965K0926M5686K3726L6502N6985N2937P1822O0700O8943O2959O9767
13970F754918P0290O2834O0092O4490O7513M7303M2283L9907J7791L7383J7660
13959G282464q11L4741K3477J2645J3162L7906M2413M6212L7271M6945O2553N5923
13947G694901O7464O5700P1153P1278P1570O4679P3214Q2688P8166O2630O5673
13936H469116P7389N2090O6641Q0508M4467N9848O6258O6766M4968M9975P0156
13925I148182N1907M9279M5843L9080L5094K7130M2816K6979K8705K2985J3313
13914I531313J5657Q307J6141J082J9446Q462N744J5028J626j6574L471j180q840
13901I599683j2738j4594j4169j1172j3579k2415l9213k8178j5811k9134l3907
13890I364773k9771k2806l3324j9842l4414k5091k6335m5909l6807m0324m0306
13879I009844m6591l6454n4744l9902l7058l6788k0631q599l812j0407K0724J0728
13867H746310L8419M6980N0845L9569O7347P5442N5777M9989N0893L8995L1813
13856I292379K0356K3183Q791m206K111j5780L076l997R102J4989L3500L5611
13844I419115M9719P3606R6700Q3534P4820J13124J11751J04508J05500J01513
13834A0333890R7564P8327N8288M8749M9847M2556J5326J784M684o329n115j4271
13822A0705300J7699P252j549J8018L8870M6017N2291N8551O9109P1207O4346
13811A1147111R0293P1479P7720P2363Q8736O8906O4120O5459O6697O2961N9744
13800A1935589M3018N4635O5277P0399N8536N0418N9740L8696O7984O3466L8938
13789A2546696N4175M4760L7755M1630L3678L7423K9730K8837O526J5904J7420
13778A2894534J4150q804Q225N284q64J680n179j0551j1663j7763j8172l5863
13766A2815014l3374k4695m0088k4370m3622k4615l9442l6205m8331m8850m9729
13755A2401693m7097o3046q1329o3691j01968r6980q9954j31750j39294j23305
13745A1463279j35545j44460j37524j43887j44303j41471j50769j64574j49322
13736A0151424j50225j54399j51266j71319j71595j74278j60927j58940j67597
13727H690878j60933j64766j64446j36600j41075j41687j42721j47523j29392
13718G361735j14928j36219j30268j22648j09867j19796j33301j24206j26896
13709F243606j16087j30024j13889j37713j41741j12285j14601j27537j24814
13700E124915j12502j07856j11243j18702j05019j04670j18407j02911r7037r3105
13690D053463j10062j04590r8388q8691q5112q2426p1458p1253o8181n7112l9497
13679C176693n3448m7136n6791m0123k1260k8609k8435r532k7736k4886M139q442
13667B834434j1503j2775k3023p750L869K343j3365m150L644O005K675j8505n739
13654B756160K877L252j404p736Q886K86L251J8867j4228J2231O646L315N082
13641B797485j2527Q025J4495J7653J6667J3941O201R568O326J6142J3415Q471
13629B915862J7720J4162J5298L38R790j1014j5306r399m574j5717j7139N550
13617B905571J0071L378N773J8509J5610J9507J7528L2320J5861K0189J4002q134
13605C070185j4009k2187m5184l1254l7671m3415j1212j3753M460r776l8163j1455
13593B796566j25j8198q659r7j3591j7835j8222M462j8411j8364r567n935J2199
13580B684223O827J6300L933J9299K4905P351k3215l6678m8600p0788o6722n9438
13568B457397o6387n7192m1800j7629q028k189J2064J5525K5007N1544N0211M1578
13556B460101K6893p723j9817n1574q0564p2772q7296q5568p1605l8087k7072
13545A944916k3962j555n799j5779k4505l7316l5914j0624j9868j1909k3571l3571
13533A700543m0116k8704l4935j3437L64L104J4295K5676L5901K9220K4568n215
13521A711264l5625o4942q5823r3828r5934o8147o4592n0492k9309k4729k402
13510A095441o202J2984K1513K4947K3677M6307J0660k4269j1905k2138n3130
13499A117885n5689o2144n4864l4925m1581k9338j2540k1260j3696j8367j5610
13488G57871k2318j6861j6597k2955p814j0070j0774k2906j0983k7577o479k764
13476E79773J7169J7478K0057J0592Q225l401j8754k2817m0548l9532l1864k3089
13464D73289n0388k9279j8011k0437j4906m6j978o324N497P469o568J2476J8269
13451C69063J0041j1524j7597j8315j5027j4815j9693j8541k6556N222o341l401
13439B32516j6446k44j177k1127J907j981n571L893k019j5912J235L522n375J1404
13425A84625K289q02L614l614r827k73P389k3621n16k213l217l838L399J142J559
13410A56096l730P405k637L102j3057j1307O904p732L65k0230J8228o920j004
13397A25483j3570j0829R86O916P748L511j0198q022J1406m14K842j084r782L681
13383A08674Q732j1059J2582O117r574K785L649n107o924l813J2333N43M335J8649
13369A41922n84j4932J133J0284o525j8992K402j1672J3477N067j1593p690J2760
13356A15057J0297o116j0700j3843J1735n403q884P86J9226r097K055K874o885
13343A01102j2036Q962J0711K299J048M474q860o190N784K700p454R556Q651k3636
13329I7111J2025P160j0813m864O322Q36J0972m845j6726m094J1138k226k060
13316I9936J267l343L857J1491j0959j3661K080M85R025p355p32m438K32r935
13302G7950O35J7335r154Q393Mk753m270m046m848l408L983l216K061J3555p258
13287H4963m575m137K550R556j6534o784L943P225o964J7842n772L867O471J1948
13273A03599k901j5023Q786m742j505R409r56k897M852L457j2027q762Q934R520
13259I9744k814o942J5831q047j405r86K661L038K909P375o771j2496p64m286
13245H7047m389q081L150P153j410o24P808n164N522K61j4518M654M951J1058
13231I7418K575k493N863J4630r895j1324q446L399J2693m908N243n460k793N753
13217A02255m917p70q533O084K403l757j3220o88O124P411p612m768N155M291
13203H9458R134p05k602N640R865k2810q058O976l6R764p055P87J3542r279n235
13188H9386P792j7220j1211K247j6077O476q236j342L996R347K384r017j0091
13175D8434k792J0241r045j2243J1536O311j1018J2012q251Nk90m338J757p817
13161C4502Q027J013L451j608j1012j2669R010J9735m046R352j2928k606l738
13148C6483J989o524q709J3333j2770P873K629m62J268Q678O990j1329J024m07
13134D0066j1450O569Q194j0969M402Q372j6491O98j2590N42N369M473j08p360
13120A9717n256F173Q437O164o680E572J204Q461J9438j2890j43k081l396M823
13106B0988L196j1870J3841m441r733E944J0526j044F516J1694o307J707m801
13093H809d28C480J0591D771J6644A0348J0121j486N481j320k351J1154j1243
13080B0704J420M254j174R67p698k469L140E074J3431L516k702J1955N822q124
13066B8972o087O562m37m426j850l036L715N390O664L146M836q145o306M75j0018
13051A9455p61M139A0718Q478J56H160K201D260L784J4782r976C00R491j244k51
13036H296Q804l550J938O683l636n106a535A2501J937h190C190P046q9J3637K04
13021B3988j0175o033K127J1240k101J235E922q2J0585J0989q026a258D746J3171
13007A7917l798C878A869E59Q874l350M966e68D57K890K950c351B582b522j1652
12992a4174a23E286H30c540l895c41op345m295j2929q93b699G335g123G322c420
12975B274O995j38L07e522l110F518D08R037m072j540R782C103R073m208i669
12959e40q366m179N466j8868c933l44j5784J929M520e252j345k972J140l532m296
12944a6257L656A348Q392k858A091J714c191a485E156a285J71A603a222E263j766
12929C497i711L831K594G118m73j388M195O825j608a247A0568j694N087k192B396
12913e046F138N418d041B906N776l68m54R140E380f951A45O370A891b188j41j2241
12897a4570l140c336r6k28C506C44b412O63j644m586n705m319g413K680j265A384
12880a2848c746k966J135D436f467j808I782f749m719i94j0427L261n095c386
12865d185o265e034b309k689o569K831H103a35E407L771i11j1910O06b735m160
12850f895r307L147j319L957A811C8a6707j540L758m874P363o083b777a098o785
12835g883H15J169a9786O754E432m69a0086m95M754B869M607h478J065m337d056
12819a836j9r990J282j881e89F57J105a115j3466L488j0041n874R455f364l02
12804f666K27k8271J5885N243j916k313r954f088E871r18e571l188n975c052F075
12788a0509m536j497n43L456e286o62h58I687b644r019J655R71j0191K24L272
12773a5732k839J752O180l303K406c531p115k173m33j30d234m324J188Q79A726
12757E160b795D144g386l585J483L744J037j2042m883L373a425p706M090B823
12742b278j5684P962A732M596K446F95a630q575b587F881K40a3850j321g350J941
12727e409a450B024l44M863a045F621R816m62B143R19J0148n178k451K95N70c321
12710a438B268f034K069H26J426P917C55K18R139C206g900j564a378H559E2b884
12693a1397J393M040K744O56j0976a651H500A591f342l450b675I862C22L459O61
12678D442I87M977a4269a819H83N501b129m823B823b947A2843D784G29P822L933
12663A2484J017o468B355K695a828E241j518M414N336F28h16m719n923M448F20
12647h115o871b274I833A982b1197c780C208e137A832a020F870d138j628C888
12632F050a1129l572a674j3981d522j772q65n049m544e856o746L729H40k15N518
12617F143M39P511k506a3691f091a159j414D317o74c334F941d19q334j0975K318
12602a7410o20j03Q34p781P716k735N944g87n554A91M705B105d736m886K576B011
12585c501E58J8753h899k836L390p193N511K955j181C445a410E65f657q236J235
12570a3658G61a124o679o442a75p997j2089g369q378K777K077c767j2232N093
12556a0906c0B685b801k908n376L695B721L279f414j4141N016B266M482e538b061
12540A2088k53A219a2313C920c96C409L636B787M102J3546p083D438N543a4172
12525a2927L871I450l250a391B464N510A7J289a799c83C448L893a736B016J0345
12510A2361l565j105C779P459a68j893j510p270m628M109n954P408A462J717K411
12495E590c596a021F400g135a517E472a0266o73k703m846f950m761K581a636j6964
12480a8600M289c55A065l62J694g226l100d361P79l344p120J680M968I68J1615
12465A2583O629n075K978P87H636m114J707P550D502a1832N25N567J527G544B774
12449F210J424d173F9a0040m661j381O228b375j3270j156e616P97j1669k308a358
12433f530m729j39L760a592p062L71e51k319k365B495g576n52j989k557B847K227
12417E074b786k451k198A1679A499a1280o89J006c056j0131O054D128f574j6533
12403b3107J732K165i582c854j0937f490B455d350l622n785E098P572k925k643
12389G102B527a2366m898A035b930p091J828J771k283q463g210F01J128e250q639
12374a3889M326o952lm307Q06M388P783p529m629c373G41i727I59e948o400A0089
12357I213F92b0956N113c343D437L884c374A115l28N164M473d194C018M490a474
12341i625j045A2633K033c659m828C533L13g633a634L15k4887nJ2717L793p003
12326a6704n082q895P455d377D952a437j3176K200j3256J2387a608m831k990K394
12312g035c86A3739M996q688f659L011Q76j5053O095d305L85l386m466E1b491
12296B679Q70a1198M969m777K002b341r012j193K191L403H74O33a2297j6957a3043
12280d014m789j562K862k220h95E493K694d39o20B458K357j270i599M299C33d884
12263A766e560J247K121n96m278J206b212n514A0258p05D470J451N221q17q54
12248I471h818a857A648J455O125c44j4395g099q410P666A498a1459m13a267j2433
12233a3700Q63K550j1406D830a965k006r315L084Q81J933j671k623A38h805L160
12218e645R15J895C892g04G881A462Q261m193i033n350C187M178b0920g800D998
12202f583n741M301p033K987a465C920j157d869L36A715m33a1618K208J183L391
12187d836A0446c027A433k71a0634N164E238J096A70d66l345k018G298f070r134
12172a5204D101M253m059e686D479p26i44n733D603A701J224R978a2554L733M86
12157h335a660k045m101m527J412a332k401o072d171J18n615K928J000n658J276
12142a0122I880G5K457a1598j1790a1241c05p680k1567O735i183M08k0452P119
12128b2108a0297o929Q242C478i472j7981q55J2925f664j4268k692g941e06q754
12114i260d516A268a0531j2927O129k092c08B588O532k430f444K412o39g56o980
12099g736K69q105N827K391B781i263E135L846a1532q49l70n334k379N705e461
12083c234O69I043a0966M165A4573K795G885m50H43d684j2855k330g295j8218
12069b5513R675a846A852a524j5463k436Q902m370K785k709H529A100a5230N039
12055a0191L311B858b729A0514l207a410j077F008d15l065G398J787i525c498
12040c60j0102L650J983o120k128n716O422a149p366j0420G507a090j917l084
12026f091m854A198e86p338P81k178j1007E895b812J105A974g162q684J572l450
12011a7724f885L091q557e806o98o118L229j2911B843g613n264Q50j6907J1644
11997a7290f039b523P43n532A491O673h428c721A675h135j3990Q689M665L474
11983e297p954c391K13m589G58K242K184M579b145C567E67L110K918O027A394
11967f780B93L06d248J66k843K525k566j210q436g028C374j259n11e976j918n239
11951a3133D295J344P640A332l77J067d18q146a44r497d434A481h205j2181O971
11936a3415C215j465a713l332l889D760b485j3102a479F05c177A610a1300n916
11922a7216E907o48b488m955a512j9535a0110K884j906a13G336O111F035P212
11908A3247r25a416B121N489n13K201P662E912a6516c463D046j321Q585e52D699
11892A5090E74b385C423a654C138C22O753A874h572K759j0428d538k073n032B069
11876A3053l441M54J323C572R63J249J821j167i199L48C089e876b604I100P91
11861I891D746b2F99N669K565a1040M396D633K809b597D788R023D930k312O576
11846I194m064O524N349p744d240B660K314K196M954b638j345a458A5197F275
11831E98M883c993K28A4835J2085j0423B559K1904o136N10p44o593m569M755K155
11816A3841D530J0676N830H237g173E305O227K660M641m195A572J972J623M22
11802E589O874m170j10M880m733B824J1459R33l734J948o6j513B90J484e157B551
11785A1677b179A1403c279R76A6772B999P018D350g81D53d172k114J60l863A334
11769B274N803c507m715k294b939j52A114N877k383J1473B862a874q187A231a615
11753i014j953l825J847K626l863J476j96A417M375l23A257L037h186j2798d891
11737A619L07m09K625b932Q55A261e515a024k505D580P46A885c015d86B623e979
11720C451P214n7D001J1346J04l267p0J343m673d507k979D156i487L022A1275
11704G069l167c605p579D900N828O271A821b155A731R86G91J1072N352o057k026
11689I132D566J1817b08q64E828k116i218A1535E523c912j2864m46O259J227D430
11673G736L54C566j28L167RI42h524B809c87r094l88M546C582a0234c772j257
11657e029r916j044P702L578K031e78A8680g26q495m582a132r620L088K240q940
11642a4364I147l656C03b1463i778K012A132a939q13d64n15n03m13p260G781B461
11625a5617K292L67N376K798d50j3066L349C200g716j0044c498j0759N960b318
11610I801C286e223j205j702l561K494o805h04A812a2957A334d395b149r229C8
11594A0784C829g24E429d508k771K74q912k336f833b895j1130A14L885N453a550
11578i106b430l989A636a1562c813A76a913A985J4671m346n408C428A246P573
11564H819a0142L278j542D048k27c619q716D442A100M45J1903o070A727b3177
11549b5134h685A4501k742N358o679d047A290J0322B609A198f361j0665d135A961
11534F052e776k323l578e820H805D356k17Q486A860i32A4244K679l880D124J6285
11519B0409m680o952A596a0486a785l257C310a630A088J727K321k10N300l259
11505F967L410L690G020M728K971p209J62P383m869B652r50M792b339l153R57
11490d535A285a6505e397K529H07P748D181N399K191C224b051E226J881L463M92
11475A1062l872A697b525B564d92j0022m894q58e004o048q031J271h236K208a677
11459b44j91G002M519k576D143M227e95k047B031a3190H360P171l552l619L881
11444A2241C860Q392K5b4I78K527k47k84N658a2581G257i840d9B2308q571l862
11428I875R273n608B111K964K872K792C362J3920F806i7D161i446n371c06G930
11412C504P584m903L640O227J470J14H176f646p24e74E575K87d552B967N089Q944
11396A7000m455j726b044nA2448n949c004J480G949K382L452l731A335m73R288
11381A0150P121r21C218k0P049B604c192A2393a707r939K390K229L278l542B800
11365a2052c046m856L377C040p82j96b906j0248l919e148j6874P326O131b320
11350C632b294c48C359k99K858Q362B761e336E209A936e80j927E01a920G242J7920
11334B5162j1786a948p378e34I942R44d359r14F979i637J355j81p78M428C146
11318A4411C370e293l240A510e026a265A629K446M486B01h36C998M494c979F683
11302A2366l005B115a5256g614a627c41B351f645m676G626l780a759A0989d562
11287a1934c80A5332Q283F535b059A825a847Q08A013d29p773K393m666c572k88
11272c860n328c180H02c746l831F009e215j025m983j963f255l574o398N904M370
11257e953k31o489h81b0G272j831a3184e673A977i151L558a097j044D754a019
11241A4450A693O382Q540n472A517Q367B505J956I18f998k268H255P499D801R92
11226E793C16g717n573J796k427b618q514l78n386L169Q63o933R502I432C584
11210c273O73D151d831j9504K187L987L006d582j619J826j3850m993J0730c045
11195a3048K990o393q749P882e634D611j697a1883n041e339m371L787j1373M523
11181a2773j6388J2791P257o01j035l340N334m999K935g66k566J642l623p269
11167a2582i02j914j669D044e672B950a458j0620N11q553R318a47j676A691e394
11151A010J9263E202M866i93n690a990d31n140b524C613e411r286j907D024q02
11136C222J976B136a6505c139j4333J443c413E786J888K2a1887K594q181P667
11122i807M435j3629P735d633N28J602C95a0722A0258f965j227C24a223r962g24
11106a2675l309K914b77E223A217f231J26i72n607b913J382K71A1382O580D692
11090D104N052k393I39d529k4715a2060m567n770f887k890M509p130k329d49j7047
11075a7496k497f730P74F274A085a1102D32J499i51l950l016j0181L169m50O883
11060h496b768C037M784L584m707a19j93j5438O674c362p84j1720g661m076d614
11044A3044F73a3914d366F129c335j4865Q131N35b963F85b842q780d832I248D52
11028a2169L311b652p322m155j7563e827B913d161D024J052k160O245A351a2194
11013h19A66f772m539J479C103h32q88m257b338C321a888q077K041J044r782A797
10996C479e15C710P328N655l614k912j566d495a316e63B714E74P149l755K7j382
10980B613g410G649J3796n45r975J1642j756O178J2191J01J1062j394j4215N706
10966D0440k907j0062A2934B302a059D416Q580K767a9921l484a0926N426j652
10953g152p389M837j191K704k53n316L378L342B46h76o58B31a0301E441B491d037
10936a3625K840n984K776m127f987Q08L075B210r90a559n332o665q25O427J727
10921f227b995j2200a471C775L061B057b97p780a360F519a0634d69A918b330C028
10905e977k323l57K558n930F70N790g111j0007g530J840l568m83c320E510J14
10890E624J1182D461L939L916A797N566O007h908j402i24k0067h468F638J5410
10876B2048A0788c465j1590M144J333b24m969m911C489a6227H924j076L298K42
10862A1388A087c686k965j0371l43M966d385J038c90A618q9L599b008A2111j259
10847A0852a63m828m177a215C24i987K113c857E798J5298d61r730G99Q130L736
10832A2665J408n934A956b401j054Q7J237G749d128A8632b198j0453K210c103
10817d62j945m095B305b122n561K137j1439e081l940D717K804g288p667d4H80
10801a0119j307J620R4K565a104p786J087I291A594O19h547E224f362n393L228
10786h527j740D859q95J434c656j3126M040A2502g652a349D325f286b889j776
10772d665L55j1993g311j0871h916n352J433g77c39D034g137K688r867O375n126
10757a3067d140l43n95j5598j941f693p941j1254a1561D153g609a643A611D82
10742d146I979k078a576g27q730B291b282k825F442j228J816E93h222b30j3567
10727a3797N724b530j4203n752Q123O086h57A0198f738F955J569a205l826C862
10712A039f255E198R303A748M03J204N961m263b036F824G8M229A919N731A187
10696i718L530b586D07L211e100J47K248F161g731j7049P099K851N839d056D725
10680b754j1301K465D229N653P809H345A500J0065n490L005b536l566I473J962
10666A1435k824A413g339p832o531d375E703M602d500k899p88p284O590m294f429
10650B312L510J249l031h841c726B132b266j281o577q233a349A154m55Q694e98
10634F260h141k677j888q401P792N327a407r067k351b554k535I886O627a796C84
10618h454q064K735f233n237J875M163g86A492J2709o612k110P322n521f178j6513
10603b2691n50g279J233m996j164o014c10H869K921a104D507a813n881l80g49
10587d232n101a183A062M547J0169m928e14p600r518N82M404N358J5o032r59M836
10571i428c625j774E332A099d092G402O370L202F95i232b872A699K018K537h773
10555D657A729h239j4104c501J707C391O107G88c385n044A440N04d866m930C120
10539a2140a465k340Q3D112i56F102o55A282a015G337B124d267I097d878m832
10524i710b603A0797K532i773M489F652h94j2685Q06J069Q71b664B558c204O27
10509b577a65p291j0517j628b787n65p863k662i86A2483b300K21f22C44K480R00
10493C724J0847b233j296k816m311j764K777D738K226B12K760J3135C544b893
10478C428g825c378A326a5030N716M97L654m921G826b957j2400J03b36n298j9973
10463b5507O074k36j895K740D640I22a385C819c64q149J957f4E746L113M494E350
10446e529J931A3832J208k115e737A82K52N181O457C648N162D23O876j250L704
10431I753B305K76K947d698a208A2325J0046j800F831K89L81J800M457C47J0749
10416A1096Q572r664m095J1117q16b171j534D286D07J648c551l497F133I1N872
10401E963P000D993h275D059J1428K934d84C49Q689B937Q55j661a2216N925A5667
10385H200Q884m071J0089n664F362B229M562M625A671J2772C718l80J2231K912
10371A8481L671o375g341j0900R36c591A4018B130a099G237N927L585q05D129
10356E809P304K0A821M283B932f689q84B336J1589k690l166j882j529M629J989
10341A1276Q229n148j674M780P16F827a2881A0162d14l574f16o806j654b035j889
10326c924o284K616B84L37L049r45J1975o949a0210K316H076M926n757C524I28
10310C105D03d786j126A149b460D382j662O629o68J865f78H35c075A4192P681
10295B1873F885b55k013l714O8j882E780A171e242C625a0478L533B532P335J490
10280A1357N708E439h882k21A903h30k71q057A5444n530D129J1769F463j681J004
10265E786e558j212l026r945A121c890j2178L975n72M366i35A174J1225m867A029
10249A0656M197C642a5503N332J404q00M129l92G643B85f792q09K206B494j081
10234A413a842D58h053F321B665K084P420g348p191f099K139j1229f552b559A595
10218B160d849l426c752j883E28J4713m841C674j004d537p475j030a302o89C405
10202b533I494D038f728b145j1632O557A694R411a426C831l77A116a0293c996
10187A357a3482M990C202J6216F046g598J7L066j416e92C477d352D530c91E516
10171A0246b952M23B063O123L305k866a0359d125A4038n817b101A060Q331L576
10157A2967E673L782d422P35D980a956k390j778e03j5225P782A679e860K325b44
10141H715k545i96B621a4306k4r910M889B940a0882N52f44q69E461f580j8670
10126b5250a0506A29N79a4589K994K167l094l681N951L973o992L567j3403h632
10111e991e25l8o543a720H93b644E395Q223D79a1298J238G03a139j0996K132K057
10095g946a836A2780e978K226n137b616D498h77j6741j067j913k765R592o230
10081b0001P97K115J274K940C007i740o725l53c237d24j8089L771j178j109j743
10066a8772f435o755K532H699h708K877B177h313m640d988J253m806K975B140
10051h120E555K190b103B319D18M100r98e339p529L373B260c173j1088O330j586
10036i517n599N108m23o998Q305k89D696J03a1985L982E85K999P379n51A323e787
10019B995J1321F921b252j4314P529A506a50C61c456B592f438j312a598j215D291
10003C326h731L275D178A171g25H172E15i144M76M186b212j8113k313j1g105a384
9986g286l840l988h92j35p141L794F461K228h364F49c706j0317J934l56K031J368
9970i046D798A363J0881D521e827b811q317f06j82n846q91a336j466r714M884
9955g632E146i387b497H761g916c364B113M699B616g175c366J82k033r223r430
9940b3870h706A434f501l627a067r040g46k29p62D739c698h97E178c203J065m607
9924f745L3a316j4430e329h55A405a7768R48F17K874a042j1736b186a7j347D35
9907d805g20F785B888A361e603j2775M13N729j408k138j3627J3743f604B976p54
9892B222a1654d818j4692e462n010k874a752A438g009n624j162L339p61l415l47
9877a4979J503l247P2N126c105F946g057o890b330B274c598E7h923K003a717j92
9861a909k063O01D239d326j3320P780c159M04p698G0a0266l522p55L64d095p914
9845a2009c892A733L551B233f697a776l589j737J825J760d35B799r24d171C749
9829a775o863c551j167L16m699A804O166e514C717c649j2402K162M886K572a441
9813a0314M176m571c778m846l150d072E418J7f999J304b769O77B978J130N061
9798I169A038a1614d823K272j3666N497c917r364N196q280L108o262g031b612
9783f377j2734g176A0640k52A584K69h577a069A541d618r491M666M136l369n327
9768a4003l366g265p994e493q61a914m990K293o708l440H976D323c322k881j2104
9753a8307h206l260K402m783J892j0195b935A2107g57o292d83a80j244j139j0469
9738a3032e920B479j013e004A804h251I99K725J013a173C082H31g910H413B832
9722C486a75E060A801c972a774j0339M406L712o303k342c720k853q084O561k558
9707a0654o088N558o717P990g88o976J488b512g31G904B390c584A081a497m916
9692f413c170n372L412l596B514a463j1709k388O849L132o901a722@d242r663
9677a3905L358J512k502N674A601h926b364P50E219G62d695C221l87a136o527
9662g663r304n945P451K833p528c250C548A503K946K75L68d125J101F159P162
9647A3321K430a485j3072O061D542O064E148e318q639M435a754o952l315l68K416
9632i973J498n803C336A221L280d703a658i0m361M73J688I59O325i538B705L861
9616F566M278D226f878a841j1830d116j1622e868o358b567p67j5509M811f460
9601D68J281F37e170p7C954d812C791a209m779B641a214l482a441F131k949C99
9584F651O154E113A060d291H241R156b456r656k969O319B220i852c629m311L345
9569d595A241J1643a433n734b751q922H861a1453n053J309A193N466B385c436
9554H263C777i310b449n094r263P908j435j1031f206j3965A843M660B007c603
9539e999j865j5234J0517o354M548c235r032a108m520F59a4727P203B208g053
9524i113m870d383G66O23b347l641B812L496A77a945j813am093C692a5598a926
9507f982b151j3829A95Q025b2B1545I946l313k630b621l021F31O996L987M079
9492A5693l699B811d838k979E457k346A077d717n787q83d526j2620K629e308j0164
9477a5472j969G94L894d889l379r76J831k909K679D35a3301N849L96a442K94n962
9461g110Q44j47L176b94H957p9B661a1990h59C837e225m713F28d931o054B391
9444C314h720L913H97M272g159K707B751b629A4977j796f12k686l918j064c94
9428F432c125j520a772B253h552j9859P648a814B081M93d038F022A551a4033b065
9412i244m233K215a649I343K804n963K970i840C142p28c335D328L353B598a2517
9396I704h193l272c210m337O76F533Q245i677j980J241j380d916E48A12a265C950
9379e841E40Q485m490E0a1476e679p218j720J009d90l52j1105B1429E256f107
9363A835J2464a386p491G765J3349l412E727J1982H516B027d640m795D11J0943
9349A1354B500L219b653m9B053R05e78k975q707e525b182p418d234q10j247B155
9332i36j2042N055B244M050h10B462q98M008e22j793M83B2636A1304a930n916
9317g846j5072f229A0670d572q077M901b230A0624h888l817b542A8591E702a1821
9302e390m081c468q934c004r57m131E315f490j0083K255N516m984O290L220A3085
9286C216E4O524J2073o938l990l55A573L179d721l037B473J1685E071P966F152
9270G604c485q628J226F279K443L35k287A764O282D014J1679o62F976j579a549
9254A3941K96e242R60P6j475M96I111h59J3I175J499N063E192A887O956D346b944
9236F543c96B05Q752A150L357f85A068h59r749D058J165j283Q273J770K02A42
9219E08M029j163K67a967B836A120g736J523m492M459j631q729L726N51G885L341
9203A1226D230J2200o467e790e97C068e86b83q491j3306a0877e12q446M042q045
9188a2961n258M700e266b037o814j1525j35c077A079h302o198f065A147g12m629
9173e341o014p674h880d207a945F976g57H76c31m180j396H64a156m933G48f209
9156h529F195K973f246J375h33C867c37p447H753L395h232a999A0943M34b333
9140H893M619f891A613J3236m565E89K686Q030a527A376A49b225D49f048l263
9125i311K7c769m326B28e469B149c098G079i07G875j064a0950K672b469A730g822
9108H322J2938D052g214K29j9295K841g339c193o01k610h08G72i7E219B100d625
9091b6437i613l148j0265N732N629N758l692o794M621e554K31j740m940K962n50
9076i591L108m292m185M488j2444e938l171n445d172j2409L712o622J006O364
9062a2121J748M330K683e5F465K464J986e79j1953o527n835P675B270i987h04
9046a0572q384g929j60k342m391K066N559j5196Q611g71q860o16k991M709q085
9031a6614o6f440k904m005P73l827e039R7A1466C313p83a049B516R234C337c263
9014a4701O311h69m948k296l549M92e532k108K608e13o625n442e933b143m738
8999f881c387J117q573H85e009a994h75o915n11K328F624L442e92r208d97l534
8983d031q749q273O253C34b868J261j2672l668e751m143b200c33r772J052k81
8968i334c410H59a1848k798c377p168B940g081p80B507e024n466K044o76m103
8953a3225B4Q355a713p209K980b593l692m731M365o791k24M770K793q401K123
8938a2381K838B398a526B626d579J792f14H10g509L434B266a080l648m807A0813
8922A218i713d685e79G95L768L308L576l737J83f259j2401f547G355B83d457C289
8905G901N426J416d381I172D012P195h450q163K121N099d580j0941b64m64k312
8890c040j0684O123A03K094d767l036L074F76i873o94j64J440j1023d88B264K419
8874D683b028E065B036d048J249m318K972j3306P270m623O921b776G597B137q32
8859A305a6p033K23E427a0946l53b807D758K403G57K655M29O28j098M284K871
8843A0526j971A552K208d67o53m982l565G075K436C129E6a0487b404l15K8k934
8827e625J909C604d116C677E67Q371B105e47k096o512G909g831b068l801n736
8812a1605A554J550a909m137k809h8A0637j811i649m228E798B290g722A854R99
8797B853A193A79c177o993F63J869h031D353J3275l302o345J919j714Q66J51k09
8781H994i942J697c500F126a400j2172p04f43E697R641l649L775n99N234Q487
8766B8586A1735O161L142p442m899g055N74F840i283d108n406k416K841B204l44
8751A860h157A553J771a943Q16j0656C492J5490F731a0555N275j463a700f61A632
8735a0939K084D43b568D835a218m699l451N22B961J8120I392d830a371B892a6146
8719a0569M184D289L674N268o142C210Q79L801b126A037J0094B348J870L787k284
8704E721IK193N811p5l645O098l572j731R18f22A060J2280J604d823q030M803
8688h050k558d187g20G507a04F218M755B722C6J2811l439M252n455b869A2875
8672A2882B27b265k364l783c55r832p599f276D372J503c083G158J227A878M135
8657F013Q850b939j4008C762c383B325M719B262n55G68Q815d11j652A2020l80
8642A1640E318a34l938q943J413N495F998a0856K820B46R31M274O888K140C625
8626E354J2473k141D960A71M218e212k563k7o774c19C84Q565j81j104a6167M944
8610a1223I986l311c852J476e05F363N66B682d102r582M077n112r11d556F776
8594C065a2910L949J400p066m297O882b854A79J184P791d158o268E374j217a0365
8578c603H572a3991F301b934j2132N679c896B27L232H4b485J231O20A1901e538
8562b763F461a861F130A910e05m692k270L388l115B100e903m935F456R338F273
8546E523A797c474C238K30c753m591F52K155a887j411k838q457J852L145j764
8531a1360b507n68k170n046d529k213D103P946H17k68L030K155N711C687l16K784
8515F155i14j294j1410j156L74K860d863A0225O159n789A095i803m258d361I77
8499b373E890b77j021j276A51M519r28j37C4J339a0317a490n351l91J511r514
8483a5235J55m852h179o731L507H202i801j443c387K72H244A314f682m798E484
8467A1989a0129D25Q875D234d526c06G996d157F470a206E1R827A002J071N841
8452G914a3207k057E009d81I043D278B59d995f79A2763k804N54k645k070N56R46
8436G300c681G78O426B71p0a0593G264M843d276D053i888L264g00j2776e819D190
8419A3293D689h317L097H625J778n058o12b230k816n473b857B931A53M944j590
8404C507d413a80A384c605k312C363c709q576L657d173F508b455l563b166p872
8389a0038M315B134c421J41R67p389b172c98k849J617F796R896f535j857j2317
8374b0709f759I288j013J453A908O755b922j1684D563a608k440A4511l046m849
8360F616n17K208a467I739F95f265m284d921b383l28L20A320J0119D033E91O918
8344G509A442c375J386n015a095n413o124N190C835G59e265k414g15r066m483
8329a4264c595R86n737k781k568F387g527p312A3438a54A838a553j947B248R97
8314C245b289l757k496q7k489N383E83J092a1936p466B043J6913l981g990L991
8299c999j6479i388G505c740e89D347L052d233j2477d028j866b152C979c024M5
8284b979A269a643m901H57b448C951b515E782i73E59P85O149M173D616M813b208
8267b91q355M30a718j577r88o181l859j441b411A5758a84n503B592J350P979l298
8251H623A900D67m1h68A0688p85l82L668l958m515b037I666m688J88j310K724
8235F580J652l10k836B084O283j069o74h09l263A983D65a489F121k998O87A001
8218I49K982d249j4604D84g545J502E974c399C056P885J63B993b987n66B813a0445
8201A372d585C987L852B757J55q68Q340b476m117j597l299d790F33g010Q13L91
8185e806E096a885l130F308b305r794e669a702I0L768j67d613j2750A345a023
8169b616k038j1169J866O57r106J909f861m1p111e717C342c833B831J87Q796b66
8152e991C528J0165O98k502B970e744b772A2113l821a0019o990m739e242K482
8138b760n732b097A220a193j3580g250b675o514L619K618H603j437B973i574C678
8122e127j496m474d994g12B313f726j19b695B259J0881l999C319a1018a654H257
8106A1476A178M853A131O517h780d031D40N131J368F31c523A653J6622E128f292
8090i236m589O646q18r530B052f028m477D86a576B418i398l001a60E910C40L722
8074D062f152K108B813a2025m462Q123l340K718A4558F056d788j2247f642m100
8060a0742o437O214d909n05p687k924J809N873A5486n419C391i801c513I869l654
8045F215A794L36G37a3049b696k914C367f231G92d254j121b482A059N12l73d192
8028F683J3445l949O724Q259j250L493J4215n62J0509K2401N476j932m013j7496
8014F2003k101k6638A4640l020d90A427N149j451N961d475I38K815a090F421b678
7998a209H291f24H54M444D0b761j3281A309f32r068c77G107Q541N660A0405A783
7981a145F506k059P691E204j091L957c333G425M476K173J267J5803L037L866J4427
7966E2474Q023J955K3449P282K1353L0654K0292j7893k8340p127l4503j9299j0842
7953D7478j0739j055r899r217J714M756r660L036F219J48M054D850k197f972G410
7937E463J7633p714k486C28a529G161C476M96P982E036e921A578h014a657A3278
7921H530d134p615N00B530J7585n247o493M000E024M358j239J3629q100J7720
7907C1392k329N093J3651N165K286k655K3786j7161q832K40j0946r396j0936n350
7893A4008M247L881j0247D857M084j637K196b863F68L192O475k487e26C55a570
7877i354o458f707J744D451d044l930L783l505J265q97e55F030P380E958j904
7862D054a436j7737P752g44D035c462l818D187f29m314K060n780M299n89n148
7847a0101a365J02E765J1918c87A923b982h5H785B246a6485e422I894m102J042
7832F834h350C033h561A701e58o449l892NA5465m522A039K210g036D822N452b716
7815A06c862I5a857H04Q019a181j5331H04R740j24J160A416g521m894k11L834
7799h792K124D999M723A018f837J469b539N06F608o16f441k707J651m147K050
7784i594J877k34a257B45B6a918p61r992k088b778A486p30a0762o014g576a827
7767E267K791a448k45C837K869g014J208A22h018j696B79K022p74n48a043q572
7751i615c226H286B291a2293e663f49o79F340A996a3813a066r958l754I035K302
7736A1337R551C171A189d626b265e67j2015j0562M727h842D93e514B365J5347
7722A7712E320P530G98L98R025h12F21h346C151L826d505q397c804l208q469g158
7705e871k700q430h102n80j182r072M868Q70c745A352c829b64A3945J9409j1764
7690B1590m652l956l789C58K750J1701D638g42G949P099J11p371B550q05K949
7675D694O012b688A462c296j725j606b473G359M034L951o52A16a2573a795l172
7660d967j2309M83Q118m582A139E43a682k378e01k690j787D647G30f463l968j5959
7644b6390M272I438C795f680J138a567o188R18R3m272N246m139o777g06A0015
7628E71a456m715I562B585Q756M331F41M873r59f421m326a852k110p836j108M406
7612h500M60l286p92G020j68L77e055m879j551o774d492b071m996a0o867l792
7596a0669E263a851l741A224d32E565g17o639l710M177o608e829B437c4A0596
7580A4679A844J033J142f257K840j0295A881L819B739b665p406o793P334n570
7566a5100D058r40a0867c804n278d384j0071l150O361i95k359m771A2296E064
7551a5712E917P204F442j503b340n768K93a606A47g199L6a137j8289M931A4056
7535F354R611J728H437j125i202j1504J0208m8A328M30C3M275P28Q29a244A045
7518a0253B639O364a04D361g867l152C072Ca6827M827a155j0951L372l075g93
7502F345J913j087a0491j1836m44e655E588c514l182C122a5453M434c449i91p189
7487h180b157L24r879A73i338M195k610c185j1485L803b264l721I68a527l330
7472d857m116E750b972n28l193o441A0317C508G71g436c590J204o058K092b861
7456D925a3344f149i90j2157K177q437j043f948j5744r42A538P638K355j931A714
7440e09G525M892B508K002j54A756b504F077d534j0662g13J42m204a677N1p37
7424b363L66A3349D992f383j0922O638M247n63A0711a3415M15c192E236F17O43
7409A260c842b65A22Q815d703j1577B056a335n481E532J143j954F14a9674e237
7393a083l566D433a817l286g73p679K455B130K043c980m925a636p061n154b048
7377e1l614l300G304k644q69J741k329g425b86k091q246L981B692J483G98L376
7361D174d847C927J640K684R47O748G88P751l370H7c348j226A6499m277m346e766
7344A776M93b831H220Q617l861j097C423a3312b3A532K458H74i99A0570b317K73
7328b044m328J796H081a980K97G780R90A347K183J789c578a523j1638k245L474
7313a1932k799J722l163a783P18i2q074n025a721k867A411b726j4155L090K013
7298a1778a692F208j767a033j9764M228C902J384d226o299m215a396m274o620
7284a2290e302k02m554q354d598H185a647F793J259g001A0009C003a1291J6k309
7269a3584O133j898K557N21m920b219I51c388F909n45j303g129j7559R257d311
7253a083j638k449j271m976r989M111e389H25R237n0a36q92H501b811Q27I355
7236b148E109N662m28D687L709A442a2602o24d364A6779e896J687A1333E29a417
7220e050F259R598p72M264L033A0560a994m804B038f024p638K942e232E769i11
7204B358a2499J598a495n035l035c323A0911n18k170B529J469b1312N273G472
7189a0502n926P750J418a206I231a431o347j890L256b562n753A664g070l381p864
7174a8315d604E97a2669k51j0179f335n076A640c15B262K439E95c359A962K421
7159D383f475L90n645L262a025C624g757L799E241k034a694F474B286M292K745
7144I323e943b728D655b690A0639C568f358P72k496k110C615L593J602c392j079
7129d471r409p338c112j8295R865N72c982I93a2393m889K029K215a304E246A024
7113A108b317o242J665i69A189b285I07f002l33l880k876j0640N926f826c001
7097C384G71I4b119m995N41C787e330a97n038B234N228J437L015f614j0451O519
7081a0546k038e909Q06q310d913K92q873N376I284A791L220Q155l87P743N72k493
7065A8601E150M29g27n08H381e212a139n901K851a586B045M364J296C01a2526
7049d433o872B833g377r926B021J347a1448L305A241b140p284k544k188d678F5
7033G530k765a3734b488D185j248h128q719m891R872L735D044c745p27A2208o067
7018F141a3222M468B912e789A980M253A815a073j5665e887G53M885J4558C150
7003a2492f010i34C7e582b161K11n029o193j777a834j0097N241J976D488A341
6987g32p432j544K849J976C653N095e591A51J0067D599h61k941Q12m932r631g237
6970E986Q223D62a1948F185a0621q698h948c817J16B981d805H07b938m244j313
6955h495L778r497g032c073j854C07f464j930A1206k006A847h54B334j028f956
6939e844m563A894L387r65e485A037f096p662B306m75J2686J218e635j932j0022
6924a7589L322n777h408K066l533a237C565A465P332iE100K517f277D616N69J2211
6908A7396D010e125p129m938e638a072A312e327B118o01i148l627b173p453Q56
6893h770a84q028h24p516c59D487J18j503K811g628b847G560j893n67a0199K513
6877g686B516L731M950b128p056J833j21c414k720J715J429E373e7B489J0131
6862A2620m463J44a749K97D46L439M600A726K847J467c037r132A0109d073o174
6847a0247d907A742Q105a902A3212o177g362K685F013M293D239M900a690o119
6833g809J656F04M474i9A854J214E46a0878b551B22O288P93J639a29r759a811
6816c019i1q077j617c235m113P57H90f376F601f407K760k447n553c393o161G250
6799h297E112j207K135N945e825n440J478q305J417c533M44J233D859J7519E342
6783f142h27A4124C026c97A1694b878A670b108p986a15I118m412P536E674e666
6767g437b761C89L615A991a7006G116O529C966M317f618a292j610l686j333k974
6752a0895A815H15a179A023b07k834q24k628I110N16k689J326g2k987A330O983
6736H313f59n800k72k324C157f59n007a020A333O774j240H34O249a373A486J4907
6720A6393p916F23e601b737r231A0197D919a1247e452j070k871O7E606j976a562
6704f115p801O458Q31L222A251b98F485N863C493k45g91H299L284A992c588A657
6687A5851e288r926P279D5a028n17k534a173F505j35c378j1288q724Q683f501
6671c613l23O97a14F196B017d353j0701C044J1321j461j57c135q252d457G649
6655g311C129b400m587f6q963a266H244K637O314D36g271A5766m497d153F941
6639B991M694i57j0140J966l362Q69b915B68K627K943L21h38q785b683H30g58
6622D216f39j537A3211J491f07o888A2392a138M15o570J448n157L969a859c5p618
6606g653D049M331C790O689C122P974b0941d559J512A286J95c295m40q340M756
6591g319E564j579M013R146B530a211m195k049A889H21e157A975J374J262c840
6575H269B614f574n091k625e711g72r154O58c530k633o034K818E672K289F07c027
6558F784e714j999I325A364c943G01L089G0d412k058p55O40A318O912k835A04
6541a8646B498L256k497f385J739H659j218J0197o56n987E88c133n270r438m255
6526b2096B028J0952d384I168E08f534c221j3695e776m180M398A591Q172d356
6511f518O65j0135j258k355N559i16G266B940J0016m161a174J19l860A113a601
6495i808K533L050p468J115I025A914i317j5P22E354R08a538a0l329j100j0386
6479a4825l136g920F573a2608q652J0018B850O445f384F857d250M78A490a0038
6464i343a073k560M28I49f602J6C565E94a693E880N303K529F42P266k756O456
6448A1608b587m750b820o981L52L741a205j782L39H188j174B688J2647m414l733
6433G188b512l825D5K682h833a294C265a476m338A006J0712L288F851f574j1510
6418a8084e709B280f041M35A134b069gB036b54f7j1706K157A4248B06d085J369
6402b716r379c857n650go056j2655h163K667G328J413c120n61j1108E182a0455
6386b21j1410J84J089m518e947b876n668L536C631g306B687O57a515j0840b652
6370a3308n249c33I126B042f87j6299c085a418C68Q561j93B764c545G34K577d2
6353a3688j972D097N571a0351l052c854r280o990e394A056g632k977p26k292J057
6338a2570b513k294l782c500k01a563j691E702a0165j26n803c503A1922C11a2239
6322a1660N504K861r204j1558a0169p07N218n671l135K037L849d003N52A3439
6307E477h74C638K990a0941p039h353n712B896K412j515L297e841r614O84O435
6292h336Q89b399A8009o299c382l077k147j923i28j359G702k233e624A7850B578
6276f77A569a1219O32F87L656j335L604b883q92f4b1j090q161j569N025L06q615
6259a4125M753c116o299E349C76f531l723b202L04n254j102O57D574b632j6352
6244a8984O044a818D03d20j3716m405g368b70k213j2312j0527q85J1051N864n125
6229a4417A0579l487A839b443G432B502c157l247m890d430b048r49p980M385j955
6214h547L742D931K160C10M205A404J784G75e429A4551K105C874c062n630F29
6198g856l510A956l55a6526f548D189l11L74J310K373l20O129a0123j823c042
6182B474Q912a7653G49O81c690l683L127A3448F173B312d960P97o98j377a079
6166b622D200R51j582J1549D28N349B41a607l495k668j0054B395Q677m777M90
6151F785B298F2P698C373a0243F668M018D396a301j523C145L092M777J397n482
6136F929Q452l974E396K934R579K635G512b381l886G6R096d468G141k980Q323
6121A2484E461g318j011C723K527B056a1670L062F201i361A742a213l872j01l542
6106h728k964m27B482M824f023b486L02j428F410F49a672A332f542b529k039C029
6089d203l583j024d190I057j409h009L780a960M02F434k764a1164A095J952e468
6073D268j891Q440H00b08F571O9C103P865K960d43q570K002n200B183K039A073
6056C328M044J0499k567A015O229R908n644a415m79B985P6b328d17I684J445P069
6040A8198B243f792B529P677m647j081J728a2206C87L408d318G73b3080Q088K571
6025a2421A834Q653l67J785l547P465C387a4964e423k899j1197g120j709j0696
6011a9525e867H514f63K15A771K888K883M607n942k311a279C802N44J742J0135
5996A6223C295c237H992J434J574a882k620A2646E9a747E007B088K083a1888M063
5981g825a828A235b047G38N7b767f64j7827a553r21D215a829d0o890c030E055
5964a265m737C836A306M552N586e478F593a2169D197J3306B841K569J936j05a482
5948b2980a0341c475j242K084k313j0114d842E213a66B659b314m712p407K245
5934a2188A85K089J303J581a0680A68g27E384P062j308l862a0302I86m92M85c734
5917h724b530E086N12j035A749e42C139Bf413k135A0464i13j3160L659b003e67
5900f246b352C912J788k571c208m927K077o585L206C263F74J0068D121d803k730
5885g533j758J833J47o371B524O491B678J639i224k116o167g376K039A818f186
5869f684Q20o772J186M239J666M33B856j197a2086a782j0668N296c543j671e69
5853a1505L001k762a660A4242p37a345E691J69j959C32M005j31b032R75D67g189
5836b798k689E302K092D68g816c373j1470N556B56a2510j3N618l74l519M467A1257
5819B1659h088J554k866c278p162E578L023f167K790p381M721K899j3728o30f967
5803B86J543K46d003j5617P697p575L169a215A015c508G75c472j1145j920R2A0769
5786c100p547b882C875O086d492D052A515f30r72C529K20d901C353M677e599b545
5769D440A867e410a947j763N95B593A13J462J463e91r180d604C339J128a415A617
5752E141a861m041r873O735j2793j1451J6045P250f78m586H419b001j0139M796
5738g344L638C589L532j27A975L90b713ng95l02l455C119J1927m279n326L032
5722H473l204N390f945o922e708l612F367J1941j584e19l693A3812D551b70k322
5707b592a181A983a4149D890l05i229o628m924M463F031R260f565r65p21m057
5692a2308r073N563M090e405k224L682r46j7052K829k367i108b028p070L053C890
5676e759n147d101j41R30G282B849N770A667a5091a22E375B363d175J412A4390
5660A4442l647f61F221R4h467I766F79P153b020D72c377J426k452n888A475a513
5643I884B47a975C531R831J966a151r403o7L331B244j089N840J138j79C789k45
5627C544M441B442c773A1696J374B540j104a987j530B750O442B774f094o909b859
5611E268a187j0256L389J50B941j021a728D284A537L983b016l508k197L506c00
5595C641d342l931C340h266p092d073a806r327d200j510b474D483f001q619j215
5580a5835P850ML440A07J331M671N28C138K061J2517C492K572A242c08E002f012
5563f431p740E825N791D186L753A234c271C669K85a445n582Q16b167l982B994
5547C935a910j636a488A1587J0067m173g43j33D358J182e699K411D026O592a803
5531f957F579K930c857k869F11h420c779E920e549p962N924m252j763d453C935
5515B825P856i872c278E604k633c655j4277p66i081j177K193p26C012J5617C448
5499f881b599A520N502P389h30q395B938n56m58N845b503b07l587f15A6225l985
5483A2240b0345e663E806c092n593L530G256P596a578E694J2192E715k773d855
5468B490L809J096a0175a176B0684o339E912H99b357j320a102C707a2528L260
5454i268C006Q7j355h912J030E43p4f014o917a633A310a952A452J711L91f369
5437B160b029j0692a120o89b29j1221a648G752h437a638l333J003H815k723a696
5421f615b258j030m97A621M68N943b85F924L530D734A488h18H639N389C728e320
5404h178E417B313h00k918C785l0b034H018d674o58o88C911f7E424P938l853J36
5387I645G15c634J293A2072C956a9845g270a898o280k009b761G937M52f724j601
5372h325L015J628J205B121M454B495b01D23c704q883b439l747B748a296m398
5357e694G399o54j073N456D310b667A5901L103o264k901J394M756l626n533b409
5341a0475G719K981n224P860F611O825C646P935e901b126D592c85j5229l770g01
5325a6361d727a196A949b114n112J515o55k864A159f387a991A027f171r451f484
5309b369l065b201e13n376r057d022H713C77a7673O744J30K562D166h10o777c42
5292d455E120j064Q622C631a1843c640j0814B803J2836f842K162d12j3622A808
5277A1280L997C035e727J348g93l195k42A0405k199L001H74e166o435A115h990
5261a989D39J153k10J281h096A360J32g749B137h878K690k866b870k822D168a5044
5244f128L039N62p919K539k736d297m196K13E873f926K721A3820P316r378m306
5229G452d82k85G963N567n336a9217h295a012r975d154j2715g75j1499C454B24
5213a2779e268J59b385q897n741Q130g61E563a304m13D896i31D755I68a2456L924
5197h532N40B903B1a4344K920b247B889K186h953c876F63b847C892L105J2144
5182A9141B919J2107C070i31B613a0130D932I68f766D024a806k335n850c550o675
5167a0225j063G94c784D084I91b194P69o765K052k810J813b786n851J274b739
5151D166P392C739d992l771A491M523B574a926a55G146C343C51M01Q886A216O792
5135H008a023o37O25B247P138B766e043A7060F135A817Q504C047B06i782A166
5119B013O026Q16B270m87A12e249A298c729A008P23a2186l709B093N141P170Q385
5103B2789a84I33O224a596j4764L496L330A042J5077D818L003g97A0146d837m653
5088i490c861p190D262j773N113f953k5586J3787e353Q72A62d926a084G179c701
5072e711O71J412J458j8756L936c798a611D484O798n285Q696O763A719N735c365
5056f726A3353b690H574m93k201R152d45o216D104c817m139L611l431j0401J333
5041a6844k533J731M139N698N58j84n08a961B249N900J015A499O418B073O026
5026H099A830K917j532J21c04H068A381J6152K584I76L657H11L578a853C82b715
5009g897J598o055b748j0874a019I594d748A129c516n607e37G225a447A6229F183
4993a4527c936B459P369k301a2073L528b045O11A0839E374k038N923Q38c959r71
4978d930N77m078A4614d445q942A733Q94a9391Q549c922j878a752E289Q120a408
4962i025c237G799A967O17J1453B853b631n455L799B74a3130M223n54M025p88
4947f224H934j894j008c492r883k452b877C360d89C587K025c89n6m755n295a241
4930b752J127n005k838b312A454b122o485A151a473j435A050L588N373l80R719
4915A9350o236M671c510k387B870P704a976B677J0033n060A428h66C080N333J1443
4900A9856n870k45m771K976k858l298R52B787J213c813J064j987B736H19i933
4884a0477m388c976q590c885C125j200a826k925J973B857B81a507o241L327k705
4869g126f20a56p20b5j0453m174b153H410Q2N591C484A608g824G975L051g480
4852a2111K631p285P469j699J717c010Q29A958i24H432L09g446m167K719A63a0234
4835g188D474c162l862k585n646L766c429O03a37I717A713a0397d249j745J983
4820d011r016A4969C870N083E92K46jk71J0624a271D555h982G23J146J598c105
4803e466B416Q598N811H056C367M355C358J2348A852L163L584b080b85D10L912
4788D322J0798E034O346l664d393A1718E307M52J25b02l29l820r25D044N795R967
4772A9806c074M15g60A1409J332E899c468o360i26C6L66a467D574O559l990B560
4755G103A97K487L449j233c61o384C78a321q851F74L655K31g16b72r627l088d866
4737I374k118e44C127r00p10a1714J605E167O835l588a681F037M872C521j388
4722B133g007A417N855g928m910K972c666D956K170l164o78N877J591B938g843
4706E497Q512B192Q621l340h354m977e509C986O941J124A755N028B131K376f645
4690a398C151g540l810N525f35j7653L144c584a645k167G364k71A415g890J567
4675f323k17N60D477J457J36d4cj788p331o116O917E794a725G8f508j1971a362
4657f125q996g330B415L603g823B426P717D053P697k990i408K143F633j44c637
4641a1763c460A1475m513a7124N449b022I55K825A112J301J2621k715A427J7437
4627A8864o497a5090d416F912L725m426B245Q106l874B685J308J23P35R26B786
4611H638b267k52E034J171J1581j919F175P274K031m525a883o958J576n168F57
4595E534Q848P55fn675n986l241L531F136L457M7O354F318j68k803j304L561K951
4578H555M593E365g15j032A908G63f835K965q766a179iB366O298g38A0814i998
4561a7231g024a484m947m075c05j880j161Q67q468e61I494d556o060b469F326
4545C836K115k009g316F93d881j3467f527C562J3112D962A334J891J224F48d642
4529a3144k125B393b498j426j2693d206B940f31G896C717e29C69M179K819l574
4514C793r47K388B208b008e07r661J594b490m216k35k053J762B030a081p319B163
4497a6521h40a49j930B07a862C105a0659b774E320k483p44i65A898a2859e710
4481G727b968G10g910A354c454n59P69B874R642i12r920D575c780H1R596C028
4464c332C454i029K482B491Q536R376E394L978H42r9L49l13g243G582A824c444
4447d571H81c221A7127j453o792P515f558B528P383J114K208A521e821g51A725
4431E472L773A415g380A2129K324m175j217Q056q084B762a4531M332O13L796i48
4415E29N633f348G802k232b91m036C44a151r533m20F638O711n184C280P309A056
4398c920d76J43F07b834E767B497R067E375B223M908a005F86d472L02k716J169
4382e717a589A0948n061k406J4976b548G447B380N581R801f38j954m733D097M388
4367H485D029J267i28p432D378n59L713M079B176L794d949J385a056A240d211
4351a0246b01H277J017C109E16J504J2532D012g19D122gE302A981c134E64a6998
4334C485L630a3544f481A0069m909a7100P397J256k963q406N303N661a237p661
4320h898K682a988j5327g885b20q163l86B021c927j08A942b718A185a945k0394
4305b2339L653C524K742M82E58J0812N098G03h933c819a904A591j71a0388c276
4289C662j758b203G588K780A054a1508C091J1972n192m079J216g20o789J160A775
4273A7931G703B78O515a112k36E570c945j2202M954M250K579R16k878B834a7368
4257e043C867f797A6125G038k32o13B930J0987o741A802K200M638c501m443K145
4242e799B063P996m49j359m057a1170A696O660A507J692e232k137J70C411g390
4226f188G109e61j586H730f019j827a107M56j1151r008O790j275L295K507a381
4210b571a074B40J933b14I328k898d215E468K532J1804a40j1186I58a0038a333
4194H579C721N88i617J298o653L753A7473b13B959J3691A704f758l589e019B928
4178B206a1981m437c268E462j788K144J1662m810l121B994n23a1193L016A225
4163g714K009j1241B849Q270k10K746k96D272Q511j066E311r57g369o92c386A094
4146a2144A97a894I379Q244B435e0F232k387A291a0349a073A558k17a102j9944
4131b1046b354K3C930J0481o671d144o268p948e334k259k656F686L449J097D87
4115e004J008m556E841J239k467J2051C984a0487M865F216j20M206a73o010K581
4100c602p417l827G67L220K124P305b985E73r8a1118B150N42d958A6759n902d967
4083G92P39O773h19l965a349m257k695m077K175E678A155a0435F94J5631D465
4067g806D773M963k271a857q252j484d816D103J127A623P851c858B32h48D914
4051D755b287L78k734j788A569J0412b734m368r11M15d87A6505l440m491C330
4035G307A566e67B23M119A895Q130C154K659o4M535L588n841c37j6143D398a125
4018A220c874a674r412m971N387L496m714M1c293o842j2356R790A743L181K749
4003G673a688A90d581J189E194h8I019C502I78J704K709N581b315j842A917N413
3987G330l98j828a542K57o289L01I155O940j131Q013q877l121d323K67D117b087
3970f06j569C644K841k767A625b567J190o633F178O507n27j535b26H688e93r094
3954i687M111A0834E011h41j6231E29c680o162i63A224i06n019B050a027F042
3938f759j4233O813e387j335i08k392j2327A694J1573f159J546B006J361c592
3923h028A149N222a219k59r425F093J2732p056i224m321B984e245J787Q92H982
3907d308O45Q41j001C123c328G938j789M576b322k193A45a0072n537b272F372
3891E716j229b033b98m591H949L302J15h97B221Q256b222j595J143H68J16a4063
3874g385B313j98K358L51k033O775B634a0876d755A587b84m973J630B451J751
3859D202e923A0186j975B618q77K406h333F400O322j696O81a813l727r175G789
3843b986p142o668P770b410r827J365O46C316J0341o038l780n34j387O821E83
3827C155j575b240j003C112P554k224K328B126h16k124n480F037O136D858d504
3811d678C195a0906K244E568A328a0607N000C174J875B484N494c785j1765a113
3796a7696c00H149d688J635j848K06J139m902o677g078L36E4b604k615C647A771
3779g862b932j3446M314d060J71E722j130N423c817n201L133I24L463i752n174
3764a4926d959B1552r90p619a677j793E121K178O313n300N76g407c323j202a157
3748A732H10h5l841m208B034a830j0434f95A0175d66A2453Q214F657Q135C998
3732E045g77F151O54i49F71g331m236c880J323j485f36H119A096c647D307O428
3716A0735E084k412b481C583G18a1588N774r982g186b959m460k805n992O425k004
3701a1795c970A2313K372F200b843E305E49M617d901k914k685K721F65b0115P521
3686a2594c591D339J759e367q62j685E636J0116c639A599d081o302B920N96N693
3671I209D334M94O721k092b994j556D081L938a787G522B65P03a1248r28A3465
3655A0577l095c837F652c741E911J0109j346m363B402K713b7j540D362h253q04
3640i057F23g830C697R579K030k822E397J018b32A1783a3124n853f389M20E740
3624i022D530K563L831l723j191a893g25A4145d056J212m007n950b971b50A8526
3608A3626L634K69o949j259p97J197B183a6655J067a094p082P05J594E656M285
3593I941K216H70a0804k768B866M72e92p62A782a480k010A1310a409j7777i329
3577b269m468l171M925G685l051K113H07a454j335A414P798H84a0889h03k141
3562b944l609b75m040A1842l379A414J1083f23k091B036L665a652o940c113A1440
3546A1698J180E762e612D069g82C455g871E14P474j671a110A056a3637d610A3466
3530A2574E548j640p1e562m210c429I223b636E830J335a675r932H045K187m150
3515F082L41l193r51J616a2225j472e266G52Q077C816b505C772L02j653J906J705
3499F032e82j647C453h626a668m943A996a706C824C38K330R262D828G55c825J032
3483b793C000g461L558G32J722K961a2581j774f232A654a1825M563E210c615A0370
3467A5642a352A4390E387i91G702d472p548H57N783k676J889d9F002c171o035
3452i206F100J877B42J0979m927j593J0015D939j077J6222I917h070a63l938n35
3437d636J033m819K144b222a70D473L40g446J443e62r468b387j601q6o91K335
3421b430A453K78a4203c765I747G66a137A427J0628k861k056A318J661c428j671
3406e099j4541Q268N402j0732N260a953I81c43l786p878l588N810o917f475f90
3390a6545N865C605P04i828L197a068n537B475J2694A099g521l275K968c415n879
3375i294b369j279k534A4966n014j074B93J397J3173D907A194K392j376K565A830
3359a7689E718J1673I13N553h215c710A702R939K598C949P45A052Q173k727B593
3343b210p482q790c407A0531E059N26k731a8377a556A2003D413K452b484G195
3328C054j32f635H83J3533G073H68L724d548j3289G782a024o645l038a560K05
3313a355G239J7807r665l072K662c736A352J4070D827h88B951q72c490H163E62
3297A4874j3E137M135k419K794E99N98Q10d311m065L975f77j6834N33Q437j571
3281a0112b853G953a144C191a254A002K129N738K367k814p33e157P79A251M51
3266A702M299K095A590f916J89a928r135a93A2936D650a757D655j957J1291A607
3250A852G19R979B224K499R011a685H238k252M030K483A782M120Q125a703G060
3234A1557l486d177A0126R99a0577f79H78N23n24O137K852c198j5520g734F159
3218e255a726I85J287J746c955l135l876F341M961A262a7216L9B668h2C131a670
3201a0746K462b822A072N582h079E505P281K3o187g052C446h92n169H139N85N757
3185A4481C441e758E399L975D526h591D258a520D448B62c613a506A3927D510K588
3170G098f29j0841o232o672d06j2804L923a158N72B990M899a112D480c262A471
3154A3825k306m851a715F856h22A7125k968B224Q147D182M885l692f255m421J256
3139i420A250O525L946D862j356j509c76m58j045A1820A383O436M292b167r177
3124a1344M409B517A253b73l391J394p13h36F113i86A474Q187N067K19F379f436
3107B682J3155B733m61O848m379d65B007r29d067m75j442m429q39o52L534g31
3090B400L136b245p242A1149q17m562d037j1619A688P255A90K627h626B37M316
3075D553g098J182r448f163F892K2B447a929R40o789m819m708Q263c220A0525
3059A1510e783A000a065k513n213I159A561J4171M870H19K23K382A603M30G15
3043f220k684o107K428f122k699b673I903c828o17l222I26i793b208E187h657
3027D865b908j336C270M288j478a0417M63C456c963k954j445b474l950l481c379
3011a037l037k618n44j621A258f569F97L535b617j412D226c466j0559P57N814
2996g454B07N687K600j121f431l724h67m907G72M495f247K618I134I73D34P975
2980H409p50e728B32b001l570r83k361I963j420N95Q745n542I37i917J926L626
2964d365m432j895A623i27C598g2E454g950L910C839J002L197b013D374a194B6424
2947A4518B218f893j39E73M330L489c243J91K31N00A989J3767l840L087K924G028
2930I871h590o170A230f601o912A069O545l41g672j452D853b424J38D086R142
2915A3228a217k251k026K692j912r988d692k254A699b976C806P410D516A937B71
2899e166F44a638L24E971a0665a530d03C941P348l21d45A643d835H777Q212j969
2883A5020O946r709K008b913k71A1443J4B106q07C6N766d666m63B261O348J630
2867A0239Q376E061A052J6732c04n811q576C067M767l94h595d05A3123f380F003
2851G167n78J489J532A086N50l20L322R716l547K183j68k750J342C807a553k607
2835d160B354h610E346L224D30R981B278J7066r629e244H081Q141O575B197h093
2819A180b957r461Q30A1805a25A1294k107K135j796J133K465A980M618K234a204
2803h955M458a017G641G03d452I023N687E382O63a5637f788c153l258k85j548
2788h244m080A1645K025f33k380A437J1738l495M317N736m568d510G461k970h858
2772F80f972f05A3362D669g50A563G81a95F730e02P3l03m848K105m45p189c022
2754E34O54b030G470c51q388c776J806k229j531A1272E626L763C307g168J518
2739e650a587k599k223a613o881A798b818P16d28n592D51N338e612k518H253j105
2723G148k015a89F178B056Q168c005A214g623e93B536N111L450i405B856e959
2707C750N505A252D63Q612M337P978G829k843K521l515K90a075C56i924D860J544
2691F404a634j508l449H773f485j696L982E923N91B475K735K087k143K836K796
2676A0786D140f360B183O702a409j341i39k006E751J2648n495C300j289J1584
2662A3595B375K507a946r650L941L208l004k245a930k517j1242c405l95E799B742
2646a563N17A249K208g800p854d944K399A185M403b412j219a366A5499m934l948
2631F617L819P751f36q643J513a232B893a189n985A863Q210J772j530a857j0808
2616a2665J085L924c788k509f01I082e81j2749J969c786H483c996f89I432j826
2601G606B061p63R078f2C955q80L699A819c75l025a057A2002J307b176l62j2502
2585a5040J069c810D004O756Q894p757o33m338d566A1470j171r93k461P511J292
2570A5648k918D292c57E821B727J7750q568h432b194B381Q578M126l074J833d087
2554a0129M259A486J5892a305E342r9A912K089A506n45J2685k075B377K604J2267
2539A7248p547j191M745M370j101c504A006M397g172F391L737c714A1793L716
2525A5509n893f354A140O557j7L301n122M699q02D681R141n167J4810j1506d157
2509c578a291A3185m063c16k725m6A0031J510C749a2285m541b477H189M366a1753
2493h986a53A1342O097n363r43B644i796C57J0067f624a341D355a3120M109B986
2477E567j576a644B23d876l692D380A440J613E29L494d626r522c598J643H656
2461A2050c47l925I121l466d367A0306L764m572b853o752d028l187q77b371E650
2445D769B130a589G860c679n037a55C046J833J7401I133d985E397d448A848M205
2430F053a415C036Q03b808l554E097J517a879C101i368q960M538F496B054M935
2415F989j649a4740b839A0442g287A183N067M115O676f421A2487A138d915B4932
2400A8263I7a710n278a353N79m94I644j163a017D626j632F43J0275J912E821a1092
2383a3476I614C713f635A367O405J3458H484O135C836J204O035b056p995c245
2368A917J900j102d875a892o732c218B065N395K930m900b216M51j315N00l177
2353e757k90k610a310E702P06O747l362e4I00i755K109a234A482J1296q94k283
2337I601K741m088a3206b453q39G666i336O41G99a2928B346d438K045j784g61
2321F257N724N551j018D648l68j507a317q087d230n133j2011a638k441o400C941
2305A935d24A3219J3704A0417G89L4M13N530h649a856A3991l240a213B187a5066
2289f246o841q155R71g965C753d010c49o702a273A5313l396E369K751h267c006
2273c275A0594K966h560D651O424c828F577k477j924P074f13D232N187D30J372
2258A802L654n12e62E930d514j817H322p21g420b815G14a2714A390K593c73A440
2241c42n419b046j810D670L116M432k211M055A622M25O196C194N309b836B101
2225B718J591l75R245M221K723K140a0899j591a670H442A523i71E633O88K108
2210H429a1172E212n86n3L855L915A144A40f758E569Q251o009J195B868K316M26
2194E610b484r646A2982D231A405L764N059k42j42a2091D96J1434j055M121o251
2179H745l530a32p78H655l38B477j055f032A0150f23r40D404N92J7521C594b0206
2162b0053i349H215j011A268d120a013q628C732I1J7682F605c321C133a036G176
2146H071a947l430o493M63M182j3310R785g95A4317F484O713m251C105A045O421
2131G466J853d524P47J281k118F378c164A3d9I868D711P209J473B291O031C536
2114C787K188a873j1086b287A4200N151B594h176m743b030j835p076j041B598
2099c341a44E857A63i037H90K872e496b025A1642D720e33C204J323F14a1316n45
2083a1861M404b08F185A838d896j702l666A182K759L407B122J2636G276j789A727
2067g592C340K988C135c311E436j704j541O161d6r836J840a316m363K370j882
2052e191J324C109J415A979J0624B120c622A59g570b934j0601d233r013k098O856
2037h488a399n199a878G85d888A5237E775f861n606e464E17K320J455J960J5020
2022B1272l086H225O084B284a2422d707n335k226N188o644Q25e386k556q910l68
2007a7220Q418c017j231l687n833m620J231L487M127C919m02K344N994p75r97
1992A0083i343M076a193B77R621K08B640O958j704j180J180a384k538A1544j619
1977I925C954O003H46J315J0476Q245A0381C733B4N507r36P322j110p12K099R62
1961A3156o310C15b870n4E557B89L532R971A085Q837j893B499J3645k408A995
1945e618G558j545J521c254A543Q536O515b499J134A2464d39o563n253p176g871
1929H624g07D701h298c674l8A512P491j587j550O48Q400A3b34B871P470J758E162
1911F958k033c593A498N690M088n598R546D302b604q49g11l17D689j713d164l555
1895g719j6064C935r1d270l113a554j417h26H244P641F615f286b622k182k779
1880g583a246m785e50E141R455o049N225n325m71J2654D476C32O432J4182j0376
1865A0570a222G772Q872d49j824E217M204R090F220a6426c177B291M346J103R847
1850A7587H604B847b557i6k355H66N706c304G487a197C538q00a1193c272E052
1834a0716k615A392P26f047C813b519q282N130F420J666i78n979p515K69E429
1818A38f392m534K799C905j220f76A1977j960g580A0645L926i74B68N523A621
1802E447b930G439J2195d476j71A2064m647i14j318B816L005J0099F688A369J618
1787B987J767K585E26K434J329K257k342c182J447D346D72L613N499c249r224
1772a2473A374L670P417E561j866j841g859b958E65d830o345M540a557A2717j049
1757A1668l274A43h160b059A0477B936q11J1035B757M507K990b064l39r042e416
1741c500G87Q11g427b733C002M036A98K0635R277I044N613k696a458c55I058B562
1724b1233h871j01j247b318G844e739E123R508e430A117g701b698B824d734a610
1708d405K55A6144F181h307A130c818D172J443L720K017B238g82F105P50b048
1692a2314L446C70O27P827B454Q230a478C57J0465n073J685K823D965L445O518
1677A4928J353J068C575A203M226g67l986L17m224C609K703d55b24H350j481e817
1660e090c20H086D50P738j954a669n024K307C632K114k349h466B0L106Q167Q36
1644A2129N520p626D625L192P161B230c197A451a843n990K723h08l80E483N109
1629A0592k972k140L629A462M672k44k36e196A0965k306c150D246h489K523B657
1613c829J462A2985C819a6466k842A600P335C626M342J02b3j6115H945i93p769
1598h762B391f206d48D162j965a893o668k178I147C812K262j792j052M097A924
1582A130J480d788m802H240K705J424l984K780k498k277j716e00G68d775j434
1567f209J892F038I15i293L87k257o627A0630r6A066P530A171j82P564B045c405
1550B402P130k887D38b902j2817c163B116h198K802H575A721N59K606J1929p091
1535I724I40c166r060D170g132m844m252L168e398a048k477D734J0695b463I714
1519A2196m643f290p232C928a30l731G41M004b086F233J0983B360i407G51b401
1503b137E998K058l196B293N774A090O447a981H027Q713C831i32j692A2497l790
1488H707a1661F432L792a193A7591n836C111J3435l595E756b187A93P406B814
1473A7263K790k047E108R67c623P4n995L557J825o681K787c029j543o27A591M330
1457E921j402h399c352l928E023e755M06F769h143n823E912c497j582r68D191
1441A4692f66j186A827a63E006o48j693l93e846B018L465M225K279C99c416k307
1425e723j162A9827j67r153D738e073j1407O047a983k359A1574N799q044K38A947
1409b889k813E498n7d860j867G367l304a2495G878J880J241j800c307k795F018
1393B86d035K50j128C550O329k791c77H673j007b547E309K231B416e113e72I889
1376d342k103q315c918k50D362O305a687j717l120a898k99A971d392C13c537j720
1360e257b422A4549j3n233K649B146N233A558b338I633D373L512O092a905j2081
1345a3986k011f410D068A054i889l302e331B040M543r19f062b292o965r82B364
1329b729I865J3567G695d779b72E280Q73a265q724b537o674a733E368n66K381
1314G183l87A226R811j040a326l096k0019g595A586b586E226O241n326qF02K474
1298C076N527J026B564L562P38g202a643k735n048C705j644a418F202N17C273
1282B802K669a65G757l124K741J310J380f83j3642h36A1799h739K07D223a247
1266i497L839b332f67A2787B228d178q831C063P424a697D951Q188E483O300l526
1251H257C824R467l088J47k880j020k751a135A0042N082L148a220m141F214B366
1235b44m644j015B720f343o197A0861d424B176a4160K552H984L936L161j352l196
1220A1533K946J27n27E863I40R398H75O658j868A328g136J178A691Q878C941L100
1204G041a011o718C15J293J117p08J0232n185e151B911K140J750Q19l174A337
1188A884J1797B694a2772d749d97j1753J768E24L055J2019E688J773P854B136
1173G514B802N16q24i50r130j706c871P86p382e091H41l07a6838J452e383B956
1156c146j523f09F614L126A758M736h775B164H74K113c863a047m657j1529N715
1141a1518i07F543M371B644c261D293L879m27l39C399r42K715A171L331a0114
1125g550B115d848B308M879A903D1i296r824R282L082K645d65o929F840d463D438
1108c048p417i37C245P73a1E771K75b227B348F28e108E738k794KK158K38a4003
1090h951c155E02L674Q596J22E840k177c951J710E646Q612B524B5K563f916J907
1074e009A836J284A471d02m856g57D566N761m306O650j641l473f270d70E387a185
1057C057b0461f203L027q21f02G520O484l500J106k344K739B517g382B49Q711
1042H960i848d114A1424E301j799J017b81j2856I918j277C929d588B733J8125
1028B0858l716n906K619j913j284Eg105H703K080O180H417l11j517j482d63j5800
1012a6263K937a293r603q62b600P4j710D832J0428n59a791B1N717C51i472L258
996f214o558C63K614b20p231m398a042b98q603p426b202o249J982j1756g675B785
979C856A849d570C416g418b96D530i363k391M716I865f099r719m499K386L105
964a4826l691M371c272B930C08d992B431G11f530a513F350d74m075a60m691i10
947a298F984g654p15b842o193A845M581q98j553M717a519D562J0574k861M406
932A6681k433O160c35A812J1318k580m435B295M55J621A088N681A533J54c023
916h714a905H576d175j37J589N93l814b455A5759K502k252D120P113n072J2859
901A9020F052B444d067e50A0192c208n928B099a000n688M89j265l123M355P2K22
885e938a285l521r544B949N404h737C753K088K361R458C578o86H99a958B479a459
868A5796k603b074C364L666a731A46J427P855N933M141G178J590B874a45A9963
852A0983C346M148AK576b216b78n451B62c903A8450r096a572B0116q598A165K510
836C675j828b542l015a756A7420G246N650D198A747J3343R032A0332b789L10A3435
820A706b297A223M978L064J0326I321k379N364n597M401J030k270N374l884b950
804b409m367G321l621h88H145a881B250J1082m899l150a428l478o83m255K42h69
787D470O216a395l021m340I751K936F009j053M046M813l147m276e531j2866D523
771G083i13C585e06j476r02P28k938A92L390b119o066A1068h30r202A301J8951
755B0252m648F136j397d320o532d744j069B458i388j4771P899A395K877G47J2405
740A3152B859d468D725K222J823j656e83k237r109M904J966C904M311A983a676
724G438O248b767C070J4015K24E326j555b003j741r63K318D704g303L479B324
708A3567D590d727K040F876a261j147E35a145D876c006Q71j4577K051M509j668
693a1820e483D15O676j939g71k444D503q73b683K64H747c228F40K067K447Q863
677A4017E123K453j754k614N00N357K797l456N23e390r521e982j3919i549M633
662d916m07b379G460J1887o179n824k847c176B080J667O951L323R29l987C364
646F056R05K008a093k393A797J011b24k53r03A750i069L819D92e640k06O12p557
629a2791b45n87m360E894C74f855k987b703I055j438r95L179B21d465D496i07
612D267J034d266C972F65J068P148b164p567q589R001F323k429J1547N922m342
597A7021F083J1843o249C710A8e826l51m661A0286j869a4030d73A07a808D903
581C12R926e5r404b840j265D532j872D3J2709n965d730k116A000a1343k640e893
564a151F260B536K90a989E440P099a99F033N022C444g7A443M486k342K825b076
547a3808c389A0445q89e401K047C437a0986b858A4305E179h736L324F0O152k581
532C631B50J2728k438h26l314B539M89J6844o268e632h51B790j148c054B151g387
515e136E051N777a438D297J35i338c680C935L479C454d56k955B357e519a720m537
499f257a304B609N929C192c30E472m75A327J234l55d900C145a02m724H404R063
483A7467A206J505K471J832j824K425a920A0692J596l144l69l714c022A212e37
467c578a1j0474C627c007J64m771b647k285F505O004o009r42N78B408b55A571
450a299B680M67J0247j363I94M216K807C167C41J94P729d884j1264b526C959F69
433d664a053C407f594J424E802f600F03J1579r97L658I88L458j714K487P175o049
417F345L663L786j032H77b511E553b283r98j610K394B41b90n958F40Q655j77r27
400H191a826H328M216J87c89j602A084N598k816b354N95k350D710b803p82p63
384d348j98J907B987L805A809b602J207A76c91I19J675O148R27h726j2310i016
367i035a499D3b890E905R31B647P104j065c570C135C45i787j419c723l628l102
351a0453D846L352d24F309P648b074m829A640J855J518R28p42J050J231C098L049
335F147L762l328B728L842J943B537A63J160M205d086A412L482j408K62e714K452
319c262j044l857C573N854A508L447r21c065J115C978N57N251A336a311B958A332
302D016J84a037H36N250A688L582L514C607J426I3h597M246a462F937p37i424
285i05B796Q067D491d723F777N010L805p539j569A055M248A957Q9c708g93A701
268a657D70N470N787r79A95a105k216k62M27o588R61K997k703J483I613J348B05
250a1867I3N256j007a245J57b07H075B292J638C70h984L911C611O691m378h65
233B039L120K955C341f21G860C856e29j1244F49K947K933L806l277a548A812h38
216a0120d422a259k578B859N312b676r7A008K391K643e038J541C195q21O296l840
200D830a024E750J0337C399b512F78d37B389e7j104A954F91J842d86b29j222F979
182A0048c04n992J233B948a882n739L176E067J527K184K82J357D90f958H175l181
166D994f284J833E522a039L93I724k309N213E63R07O368l732d385l265a505H798
149I034d071F679L099j876k101j281J529G74N371B688a808k162M9l54g12A3237
132D112a522o325A232O287j625b657D4J4237k203L407F304f20I38K393p65b36
115D828L306K510D834M053k962A480N400L46C586a0036c219F993q90b746H010
99a318n195j280K412K15J696j418n720g34n342K674E625J352J434r76c057A177
82A006K94b068L38A833a378A56J77i25E817K327B070J791N496m73n32k806L065
65H611F03N00c387D822f7j3006C96K519P182F46M887f782J524H752A978j99b484
47I61N911L871B422b359n56A022f045l730B104O358d761E115O432d374K157P07
31a510A081L535B051g532C296i96I28N365o9j163R55J789A698e630D681i77j2507
14a3484f509b05I095k612L201L092r94C319J496r94c166n01C195O619
0I814
##END=
