##TITLE=13C-DEPT90: A_Laurent_190525 14/1 Sample 2 in d2o, 298 K
##JCAMPDX= 6.0         $$ Bruker NMR JCAMP-DX V2.0
##DATA TYPE= NMR SPECTRUM
##DATA CLASS= XYDATA
##ORIGIN= Bruker BioSpin GmbH
##OWNER= aci
##LONG DATE= 2025/05/19 11:56:27+0000
$$ TopSpin 5.0.0
$$ 2026-09-17 13:15:20.480 +0200  matthias@Matthiass-MacBook-Pro.local
$$ Compression mode = diff/dup
##.OBSERVE FREQUENCY= 125.79928392
##.OBSERVE NUCLEUS= ^13C
##.ACQUISITION MODE= SIMULTANEOUS (DQD)
##.ACQUISITION SCHEME= undefined
##.AVERAGES= 64
##.DIGITISER RES= 21
##SPECTROMETER/DATA SYSTEM= spect
##.PULSE SEQUENCE= deptsp90
##.SOLVENT NAME= D2O
##.SHIFT REFERENCE= INTERNAL, D2O, 1, 190.3774
##AUDIT TRAIL= $$ (NUMBER, WHEN, WHO, WHERE, PROCESS, VERSION, WHAT)
$$ ##TITLE= Audit trail, TopSpin 3.5 pl 7
$$ ##JCAMPDX= 5.01
$$ ##ORIGIN= Bruker BioSpin GmbH
$$ ##OWNER= aci
$$ $$ /opt/topspin3.2/data/aci/nmr/A_Laurent_190525/14/pdata/1/auditp.txt
$$ ##AUDIT TRAIL=  $$ (NUMBER, WHEN, WHO, WHERE, PROCESS, VERSION, WHAT)
(   1,<2025-05-19 13:52:37.796 +0200>,<aci>,<chem-nmr500>,<go4>,<TopSpin 3.5.7>,
      <acquisition in progress>)
(   2,<2025-05-19 13:56:21.053 +0200>,<aci>,<chem-nmr500>,<proc1d>,<TopSpin 3.5.7>,
      <Start of raw data processing
       efp LB = 2 FT_mod = 6 PKNL = 1 PHC0 = -215.0488 PHC1 = -329.9563 SI = 32K 
       data hash MD5: 32K
       5C 28 4B 7E C9 E6 EB 78 F8 81 E5 0F A4 A4 B4 22>)
(   3,<2025-05-21 12:01:31.614 +0200>,<aci>,<chem-nmr500>,<disknew>,<TopSpin 3.5.7>,
      <processed data deleted>)
$$ $$ /Users/matthias/Documents/NMR/NMR Spectra/Data Stuff/Guvacine/14/pdata/1/auditp.txt
(   4,<2026-09-15T13:50:42.798+0200>,<matthias>,<Matthiass-MacBook-Pro.local>,<proc1d>,<TopSpin 5.0.0>,
      <Start of raw data processing
       em LB = 2 SI = 32K
       fid data hash MD5: 64K
       3A BE 22 D1 15 8D 85 55 1F 10 79 04 66 AA 0B EC
       data hash MD5: 32K
       7F 28 C7 33 6E AD 65 70 A1 9C DB 29 B8 AD 74 3F>)
(   5,<2026-09-15T13:50:42.887+0200>,<matthias>,<Matthiass-MacBook-Pro.local>,<proc1d>,<TopSpin 5.0.0>,
      <ft FT_mod = 6 PKNL = 1 SI = 32K
       data hash MD5: 32K
       95 36 37 EB 98 C4 93 EB 31 0B E5 C2 73 4D 8A 43>)
(   6,<2026-09-15T13:50:43.005+0200>,<matthias>,<Matthiass-MacBook-Pro.local>,<proc1d>,<TopSpin 5.0.0>,
      <apk
       data hash MD5: 32K
       4E AC 28 7A FD 01 6C CA CB C4 65 9E FA 6C 44 28>)
(   7,<2026-09-15T13:50:43.095+0200>,<matthias>,<Matthiass-MacBook-Pro.local>,<proc1d>,<TopSpin 5.0.0>,
      <abs n ABSG = 5
       data hash MD5: 32K
       55 40 F7 B0 9B B8 2F 46 67 82 B0 A2 FA 12 87 49>)
$$ ##END=
$$ 
$$ $$ hash MD5
$$ $$ 62 2B 63 99 ED EB E7 24 B0 E2 6E A7 42 0A AF 45
##$RELAX= 
##$BRUKER FILE EXP=cpdprg2
$$ 1 pcpd*3:180
$$   pcpd*4:0
$$   pcpd*2:180
$$   pcpd*3:0
$$   pcpd  :180
$$   pcpd*2:0
$$   pcpd*4:180
$$   pcpd*2:0
$$   pcpd*3:180
$$ 2 pcpd*3:0
$$   pcpd*4:180
$$   pcpd*2:0
$$   pcpd*3:180
$$   pcpd  :0
$$   pcpd*2:180
$$   pcpd*4:0
$$   pcpd*2:180
$$   pcpd*3:0
$$   lo to 2 times 2
$$ 3 pcpd*3:180
$$   pcpd*4:0
$$   pcpd*2:180
$$   pcpd*3:0
$$   pcpd  :180
$$   pcpd*2:0
$$   pcpd*4:180
$$   pcpd*2:0
$$   pcpd*3:180
$$   jump to 1
##$RELAX= 
##$BRUKER FILE EXP=format.temp
$$ EDIT_PAR COMMAND FILE
$$ 
$$ DI_MODE         LONG
$$ ED_ENTRY        ACQU
$$ ORDER           FILE
$$ 
$$ 
$$ HEADER		"F2 - Acquisition Parameters"
$$ T_NAME		Date_
$$ 		TYPE	R64
$$ 		CLASS	ACQU
$$ 		SUBRANGE 0.0 50000000
$$ 		REL	"Date_=itodate(DATE)"
$$ 		INV_REL	"DATE=datetoi(Date_,DATE)"
$$ 		FORMAT	"%14.0f"
$$ 		TEXT	" "
$$ END
$$ T_NAME		Time
$$ 		TYPE	R32
$$ 		CLASS	ACQU
$$ 		SUBRANGE 0.0 1000000
$$ 		REL	"Time=itotime(DATE)"
$$ 		INV_REL	"DATE=timetoi(Time,DATE)"
$$ 		FORMAT	"%14.2f h"
$$ 		TEXT	" "
$$ END
$$ NAME		INSTRUM
$$ 		TEXT	" "
$$ END
$$ NAME		PROBHD
$$ 		FORMAT	"%14.14s"
$$ 		TEXT	" "
$$ END
$$ NAME		PULPROG
$$ 		TEXT	" "
$$ END
$$ NAME		TD
$$ 		TEXT	" "
$$ END
$$ NAME		SOLVENT
$$ 		TEXT	" "
$$ END
$$ NAME		NS
$$ 		TEXT	" "
$$ END
$$ NAME		DS
$$ 		TEXT	" "
$$ END
$$ T_NAME		SWH
$$ 		TYPE	R32
$$ 		CLASS	ACQU
$$ 		SUBRANGE 0.0 1e8
$$ 		REL	"SWH=SW*SFO1"
$$ 		INV_REL "SW=SWH/SFO1"
$$ 		UNIT	"Hz"
$$ 		FORMAT	"%14.3f Hz"
$$ 		TEXT	" "
$$ END
$$ T_NAME          FIDRES
$$                 TYPE    R32
$$                 CLASS   ACQU
$$                 SUBRANGE 0.0 100000
$$                 REL     "FIDRES=2*SW*SFO1/TD"
$$                 INV_REL "TD = nextpow(2*SW*SFO1/FIDRES)"
$$ 		UNIT	"Hz"
$$ 		FORMAT	"%14.6f Hz"
$$ 		TEXT	" "
$$ END
$$ T_NAME          AQ
$$ 		TYPE	R32
$$ 		CLASS	ACQU
$$ 		SUBRANGE 0.0 1000
$$ 		REL	"AQ=aqcalc(SW,SFO1,TD,DIGTYP)"
$$ 		INV_REL	"TD=tdcalc(SW,SFO1,1.0e6*AQ,DIGTYP)"
$$ 		UNIT	"sec"
$$ 		FORMAT	"%14.7f sec"
$$ 		TEXT	" "
$$ END
$$ NAME		RG
$$ 		TEXT	" "
$$ END
$$ T_NAME          DW
$$ 		TYPE	R32
$$ 		CLASS	ACQU
$$ 		SUBRANGE 0.0 1000000
$$ 		REL	"DW=1/(2*SW*SFO1)"
$$ 		INV_REL	"SW=1000000/(2*(0.005+DW)*SFO1)"
$$ 		UNIT	"usec"
$$ 		FORMAT	"%14.3lf usec"
$$ 		TEXT	" "
$$ END
$$ NAME		DE
$$ 		FORMAT	"%14.2f usec"
$$ 		TEXT	" "
$$ END
$$ NAME		TE
$$ 		FORMAT	"%14.1f K"
$$ 		TEXT	" "
$$ END
$$ T_NAME		CNST2
$$ 		TYPE	R32
$$ 		CLASS	ACQU
$$ 		SUBRANGE -1e38 1e38
$$ 		REL	"CNST2=CNST[2]"
$$ 		INV_REL	"CNST[2]=CNST2"
$$ 		FORMAT	"%14.7f"
$$ 		TEXT	" "
$$ END
$$ T_NAME		D1
$$ 		TYPE	R32
$$ 		CLASS	ACQU
$$ 		SUBRANGE 0.0 1e38
$$ 		REL	"D1=D[1]"
$$ 		INV_REL	"D[1]=D1"
$$ 		UNIT	"sec"
$$ 		FORMAT	"%14.8f sec"
$$ 		TEXT	" "
$$ END
$$ T_NAME		D2
$$ 		TYPE	R32
$$ 		CLASS	ACQU
$$ 		SUBRANGE 0.0 1e38
$$ 		REL	"D2=D[2]"
$$ 		INV_REL	"D[2]=D2"
$$ 		UNIT	"sec"
$$ 		FORMAT	"%14.8f sec"
$$ 		TEXT	" "
$$ END
$$ T_NAME		D12
$$ 		TYPE	R32
$$ 		CLASS	ACQU
$$ 		SUBRANGE 0.0 1e38
$$ 		REL	"D12=D[12]"
$$ 		INV_REL	"D[12]=D12"
$$ 		UNIT	"sec"
$$ 		FORMAT	"%14.8f sec"
$$ 		TEXT	" "
$$ END
$$ NAME		TD0
$$ 		TEXT	" "
$$ END
$$ NAME		SFO1
$$ 		FORMAT	"%14.7f MHz"
$$ 		TEXT	" "
$$ END
$$ NAME		NUC1
$$ 		NONEDIT
$$ 		TEXT	" "
$$ END
$$ T_NAME		P1
$$ 		TYPE	R32
$$ 		CLASS	ACQU
$$ 		SUBRANGE 0.0 1.0e10
$$ 		REL	"P1=P[1]"
$$ 		INV_REL	"P[1]=P1"
$$ 		UNIT	"usec"
$$ 		FORMAT	"%14.2f usec"
$$ 		TEXT	" "
$$ END
$$ T_NAME		P13
$$ 		TYPE	R32
$$ 		CLASS	ACQU
$$ 		SUBRANGE 0.0 1.0e10
$$ 		REL	"P13=P[13]"
$$ 		INV_REL	"P[13]=P13"
$$ 		UNIT	"usec"
$$ 		FORMAT	"%14.2f usec"
$$ 		TEXT	" "
$$ END
$$ T_NAME		PLW0
$$ 		TYPE	R32
$$ 		CLASS	ACQU
$$ 		REL	"PLW0=PLW[0]"
$$ 		INV_REL	"PLW[0]=PLW0"
$$ 		UNIT	"W"
$$ 		FORMAT	"%14.8f W"
$$ 		TEXT	"power PLW0 "
$$ END
$$ T_NAME		PLW1
$$ 		TYPE	R32
$$ 		CLASS	ACQU
$$ 		REL	"PLW1=PLW[1]"
$$ 		INV_REL	"PLW[1]=PLW1"
$$ 		UNIT	"W"
$$ 		FORMAT	"%14.8f W"
$$ 		TEXT	"power PLW1 "
$$ END
$$ NAME		SPNAM[5]
$$ 		TEXT	" "
$$ END
$$ T_NAME		SPOAL5
$$ 		TYPE	R32
$$ 		CLASS	ACQU
$$ 		SUBRANGE -1.0 1.0
$$ 		REL	"SPOAL5=SPOAL[5]"
$$ 		INV_REL	"SPOAL[5]=SPOAL5"
$$ 		FORMAT	"%14.3f"
$$ 		TEXT	" "
$$ END
$$ T_NAME		SPOFFS5
$$ 		TYPE	R32
$$ 		CLASS	ACQU
$$ 		SUBRANGE -1e38 1e38
$$ 		REL	"SPOFFS5=SPOFFS[5]"
$$ 		INV_REL	"SPOFFS[0]=SPOFFS0"
$$ 		UNIT	"Hz"
$$ 		FORMAT	"%14.2f Hz"
$$ 		TEXT	" "
$$ END
$$ T_NAME		SPW5
$$ 		TYPE	R32
$$ 		CLASS	ACQU
$$ 		REL	"SPW5=SPW[5]"
$$ 		INV_REL	"SPW[5]=SPW5"
$$ 		UNIT	"W"
$$ 		FORMAT	"%14.8f W"
$$ 		TEXT	"shaped pulse power SPW5"
$$ END
$$ NAME		SFO2
$$ 		FORMAT	"%14.7f MHz"
$$ 		TEXT	" "
$$ END
$$ NAME		NUC2
$$ 		NONEDIT
$$ 		TEXT	" "
$$ END
$$ NAME		CPDPRG[2]
$$ 		TEXT	" "
$$ END
$$ T_NAME		P3
$$ 		TYPE	R32
$$ 		CLASS	ACQU
$$ 		SUBRANGE 0.0 1.0e10
$$ 		REL	"P3=P[3]"
$$ 		INV_REL	"P[3]=P3"
$$ 		UNIT	"usec"
$$ 		FORMAT	"%14.2f usec"
$$ 		TEXT	" "
$$ END
$$ T_NAME		P4
$$ 		TYPE	R32
$$ 		CLASS	ACQU
$$ 		SUBRANGE 0.0 1.0e10
$$ 		REL	"P4=P[4]"
$$ 		INV_REL	"P[4]=P4"
$$ 		UNIT	"usec"
$$ 		FORMAT	"%14.2f usec"
$$ 		TEXT	" "
$$ END
$$ T_NAME		PCPD2
$$ 		TYPE	R32
$$ 		CLASS	ACQU
$$ 		SUBRANGE 0 1e38
$$ 		REL	"PCPD2=PCPD[2]"
$$ 		INV_REL	"PCPD[2]=PCPD2"
$$ 		UNIT	"usec"
$$ 		FORMAT	"%14.2f usec"
$$ 		TEXT	" "
$$ END
$$ T_NAME		PLW2
$$ 		TYPE	R32
$$ 		CLASS	ACQU
$$ 		REL	"PLW2=PLW[2]"
$$ 		INV_REL	"PLW[2]=PLW2"
$$ 		UNIT	"W"
$$ 		FORMAT	"%14.8f W"
$$ 		TEXT	"power PLW2 "
$$ END
$$ T_NAME		PLW12
$$ 		TYPE	R32
$$ 		CLASS	ACQU
$$ 		REL	"PLW12=PLW[12]"
$$ 		INV_REL	"PLW[12]=PLW12"
$$ 		UNIT	"W"
$$ 		FORMAT	"%14.8f W"
$$ 		TEXT	"power PLW12 "
$$ END
##$RELAX= 
##$BRUKER FILE EXP=scon2
$$ ##TITLE= Parameter file, TopSpin 3.5 pl 7
$$ ##JCAMPDX= 5.0
$$ ##DATATYPE= Parameter Values
$$ ##NPOINTS= 2	$$ modification sequence number
$$ ##ORIGIN= Bruker BioSpin GmbH
$$ ##OWNER= aci
$$ $$ 2025-05-19 13:52:37.650 +0200  aci@chem-nmr500
$$ $$ /opt/topspin3.2/data/aci/nmr/A_Laurent_190525/14/scon2
$$ $$ process /opt/topspin3.5pl7/prog/mod/go4
$$ ##$BLKTR= (0..19)
$$ 3 3 3 3 3 3 3 3 3 3 3 3 3 3 3 3 3 3 3 3
$$ ##$DE1= 4.5
$$ ##$DEADC= 0.5
$$ ##$DEPA= 4.5
$$ ##$DERX= 1.5
$$ ##$FILCOR= 0
$$ ##$GRADCHAN= 0
$$ ##$GRADPRE= (0..1)
$$ 10 10
$$ ##$HD_BLKTR= (0..19)
$$ 1 1 1 1 1 1 1 1 1 1 1 1 1 1 1 1 1 1 1 1
$$ ##$HD_DE1= 5
$$ ##$HD_DEADC= 0
$$ ##$HD_DEPA= 2.5
$$ ##$HD_DERX= 0
$$ ##END=
##$RELAX= 
##$BRUKER FILE EXP=acqum
$$ ##TITLE= Parameter file, TopSpin 3.5 pl 7
$$ ##JCAMPDX= 5.0
$$ ##DATATYPE= Parameter Values
$$ ##NPOINTS= 1	$$ modification sequence number
$$ ##ORIGIN= Bruker BioSpin GmbH
$$ ##OWNER= aci
$$ $$ 2025-05-19 13:22:57.164 +0200  aci@chem-nmr500
$$ $$ /opt/topspin3.2/data/aci/nmr/A_Laurent_190525/14/acqum
$$ $$ process /opt/topspin3.5pl7/prog/mod/edparproc
$$ ##$COMMENT= <>
$$ ##$ECF= 1
$$ ##$ECHOLST= (0..15)
$$ 1 1 1 1 1 1 1 1 1 1 1 1 1 1 1 1
$$ ##$ECOLLST= (0..15)
$$ 1 1 1 1 1 1 1 1 1 1 1 1 1 1 1 1
$$ ##$FLIPA= 0
$$ ##$FOV1= 0
$$ ##$FOV2= 0
$$ ##$FOV3= 0
$$ ##$FRARE= 1
$$ ##$HEADER= <>
$$ ##$INSTIT= <>
$$ ##$METHOD= <>
$$ ##$NECHOES= 1
$$ ##$NPROJEC= 1
$$ ##$NSLICES= 1
$$ ##$PATPOS= 0
$$ ##$RUNEXAM= -1
$$ ##$SDIST= 1
$$ ##$SOANGLE= 0
$$ ##$SORIENT= 0
$$ ##$SOT= <>
$$ ##$SPOS= 0
$$ ##$SPOSDIR= <>
$$ ##$STHICK= 3
$$ ##$T2DIST= 30
$$ ##$TINV= 50
$$ ##$TREC= 2700
$$ ##$TREP= 3000
$$ ##$TSCAN= 50000
$$ ##END=
##$RELAX= 
##$BRUKER FILE EXP=spnam5
$$ ##TITLE= sm. comp. Chirp: 60kHz, 2ms
$$ ##JCAMP-DX= 5.00 Bruker JCAMP library
$$ ##DATA TYPE= Shape Data
$$ ##ORIGIN= Bruker BioSpin GmbH
$$ ##OWNER= <demo>
$$ ##DATE= 2005/09/22
$$ ##TIME= 18:40:13
$$ ##$SHAPE_PARAMETERS= Type: CompositeSmoothedChirp Add Const. Phase -84.0
$$ ##MINX= 0.000000E00
$$ ##MAXX= 1.000000E02
$$ ##MINY= 1.110750E-01
$$ ##MAXY= 3.599617E02
$$ ##$SHAPE_EXMODE= CompositeAdiabatic
$$ ##$SHAPE_TOTROT= 1.800000E02
$$ ##$SHAPE_TYPE= Refocussing
$$ ##$SHAPE_USER_DEF= 
$$ ##$SHAPE_REPHFAC= 
$$ ##$SHAPE_BWFAC= 8.099400E01
$$ ##$SHAPE_BWFAC50= 
$$ ##$SHAPE_INTEGFAC= 2.558317E-02
$$ ##$SHAPE_MODE= 0
$$ ##NPOINTS= 4000
$$ ##XYPOINTS= (XY..XY)
$$ 0.000000E00, 1.833013E02
$$ 7.893367E-01, 1.779122E02
$$ 1.578624E00, 1.725338E02
$$ 2.367813E00, 1.671662E02
$$ 3.156855E00, 1.618093E02
$$ 3.945700E00, 1.564633E02
$$ 4.734299E00, 1.511282E02
$$ 5.522603E00, 1.458037E02
$$ 6.310563E00, 1.404901E02
$$ 7.098130E00, 1.351873E02
$$ 7.885255E00, 1.298954E02
$$ 8.671888E00, 1.246142E02
$$ 9.457981E00, 1.193437E02
$$ 1.024348E01, 1.140841E02
$$ 1.102835E01, 1.088353E02
$$ 1.181253E01, 1.035973E02
$$ 1.259597E01, 9.837015E01
$$ 1.337863E01, 9.315375E01
$$ 1.416045E01, 8.794815E01
$$ 1.494139E01, 8.275335E01
$$ 1.572140E01, 7.756935E01
$$ 1.650044E01, 7.239615E01
$$ 1.727844E01, 6.723375E01
$$ 1.805537E01, 6.208215E01
$$ 1.883117E01, 5.694135E01
$$ 1.960579E01, 5.181135E01
$$ 2.037920E01, 4.669215E01
$$ 2.115134E01, 4.158375E01
$$ 2.192216E01, 3.648615E01
$$ 2.269161E01, 3.139935E01
$$ 2.345965E01, 2.632335E01
$$ 2.422623E01, 2.125815E01
$$ 2.499130E01, 1.620375E01
$$ 2.575481E01, 1.116015E01
$$ 2.651671E01, 6.127350E00
$$ 2.727697E01, 1.105350E00
$$ 2.803552E01, 3.560941E02
$$ 2.879233E01, 3.510937E02
$$ 2.954734E01, 3.461042E02
$$ 3.030052E01, 3.411253E02
$$ 3.105180E01, 3.361573E02
$$ 3.180115E01, 3.312001E02
$$ 3.254852E01, 3.262537E02
$$ 3.329386E01, 3.213182E02
$$ 3.403713E01, 3.163933E02
$$ 3.477828E01, 3.114793E02
$$ 3.551726E01, 3.065761E02
$$ 3.625402E01, 3.016837E02
$$ 3.698853E01, 2.968021E02
$$ 3.772073E01, 2.919314E02
$$ 3.845058E01, 2.870713E02
$$ 3.917804E01, 2.822221E02
$$ 3.990306E01, 2.773837E02
$$ 4.062559E01, 2.725561E02
$$ 4.134558E01, 2.677394E02
$$ 4.206301E01, 2.629333E02
$$ 4.277781E01, 2.581382E02
$$ 4.348994E01, 2.533537E02
$$ 4.419937E01, 2.485802E02
$$ 4.490604E01, 2.438174E02
$$ 4.560992E01, 2.390654E02
$$ 4.631095E01, 2.343241E02
$$ 4.700910E01, 2.295937E02
$$ 4.770431E01, 2.248741E02
$$ 4.839656E01, 2.201653E02
$$ 4.908579E01, 2.154674E02
$$ 4.977196E01, 2.107801E02
$$ 5.045503E01, 2.061038E02
$$ 5.113496E01, 2.014381E02
$$ 5.181170E01, 1.967834E02
$$ 5.248522E01, 1.921393E02
$$ 5.315546E01, 1.875062E02
$$ 5.382239E01, 1.828837E02
$$ 5.448597E01, 1.782721E02
$$ 5.514615E01, 1.736713E02
$$ 5.580290E01, 1.690813E02
$$ 5.645617E01, 1.645021E02
$$ 5.710592E01, 1.599337E02
$$ 5.775212E01, 1.553761E02
$$ 5.839471E01, 1.508293E02
$$ 5.903367E01, 1.462934E02
$$ 5.966895E01, 1.417682E02
$$ 6.030051E01, 1.372537E02
$$ 6.092832E01, 1.327501E02
$$ 6.155232E01, 1.282573E02
$$ 6.217250E01, 1.237754E02
$$ 6.278880E01, 1.193041E02
$$ 6.340118E01, 1.148438E02
$$ 6.400962E01, 1.103941E02
$$ 6.461407E01, 1.059553E02
$$ 6.521449E01, 1.015274E02
$$ 6.581085E01, 9.711015E01
$$ 6.640311E01, 9.270375E01
$$ 6.699124E01, 8.830815E01
$$ 6.757518E01, 8.392335E01
$$ 6.815492E01, 7.954935E01
$$ 6.873041E01, 7.518615E01
$$ 6.930162E01, 7.083375E01
$$ 6.986851E01, 6.649215E01
$$ 7.043105E01, 6.216135E01
$$ 7.098920E01, 5.784135E01
$$ 7.154293E01, 5.353215E01
$$ 7.209220E01, 4.923375E01
$$ 7.263698E01, 4.494615E01
$$ 7.317723E01, 4.066935E01
$$ 7.371292E01, 3.640335E01
$$ 7.424402E01, 3.214815E01
$$ 7.477049E01, 2.790375E01
$$ 7.529231E01, 2.367015E01
$$ 7.580943E01, 1.944735E01
$$ 7.632183E01, 1.523535E01
$$ 7.682948E01, 1.103415E01
$$ 7.733233E01, 6.843750E00
$$ 7.783037E01, 2.664150E00
$$ 7.832356E01, 3.584954E02
$$ 7.881187E01, 3.543373E02
$$ 7.929527E01, 3.501902E02
$$ 7.977373E01, 3.460537E02
$$ 8.024722E01, 3.419282E02
$$ 8.071571E01, 3.378133E02
$$ 8.117917E01, 3.337094E02
$$ 8.163757E01, 3.296161E02
$$ 8.209089E01, 3.255337E02
$$ 8.253909E01, 3.214621E02
$$ 8.298215E01, 3.174013E02
$$ 8.342003E01, 3.133514E02
$$ 8.385272E01, 3.093122E02
$$ 8.428019E01, 3.052837E02
$$ 8.470240E01, 3.012662E02
$$ 8.511934E01, 2.972593E02
$$ 8.553097E01, 2.932634E02
$$ 8.593728E01, 2.892781E02
$$ 8.633823E01, 2.853038E02
$$ 8.673380E01, 2.813401E02
$$ 8.712396E01, 2.773873E02
$$ 8.750870E01, 2.734453E02
$$ 8.788799E01, 2.695142E02
$$ 8.826180E01, 2.655938E02
$$ 8.863011E01, 2.616842E02
$$ 8.899290E01, 2.577854E02
$$ 8.935014E01, 2.538973E02
$$ 8.970182E01, 2.500202E02
$$ 9.004790E01, 2.461537E02
$$ 9.038838E01, 2.422981E02
$$ 9.072323E01, 2.384533E02
$$ 9.105242E01, 2.346193E02
$$ 9.137594E01, 2.307962E02
$$ 9.169376E01, 2.269838E02
$$ 9.200588E01, 2.231821E02
$$ 9.231226E01, 2.193914E02
$$ 9.261288E01, 2.156114E02
$$ 9.290774E01, 2.118421E02
$$ 9.319681E01, 2.080838E02
$$ 9.348008E01, 2.043361E02
$$ 9.375751E01, 2.005993E02
$$ 9.402911E01, 1.968733E02
$$ 9.429485E01, 1.931581E02
$$ 9.455471E01, 1.894537E02
$$ 9.480868E01, 1.857602E02
$$ 9.505675E01, 1.820774E02
$$ 9.529889E01, 1.784053E02
$$ 9.553510E01, 1.747442E02
$$ 9.576535E01, 1.710937E02
$$ 9.598963E01, 1.674542E02
$$ 9.620794E01, 1.638253E02
$$ 9.642025E01, 1.602074E02
$$ 9.662655E01, 1.566001E02
$$ 9.682683E01, 1.530037E02
$$ 9.702108E01, 1.494181E02
$$ 9.720928E01, 1.458434E02
$$ 9.739143E01, 1.422794E02
$$ 9.756751E01, 1.387261E02
$$ 9.773751E01, 1.351837E02
$$ 9.790142E01, 1.316521E02
$$ 9.805923E01, 1.281314E02
$$ 9.821093E01, 1.246213E02
$$ 9.835651E01, 1.211222E02
$$ 9.849597E01, 1.176337E02
$$ 9.862928E01, 1.141562E02
$$ 9.875646E01, 1.106893E02
$$ 9.887747E01, 1.072333E02
$$ 9.899233E01, 1.037881E02
$$ 9.910102E01, 1.003537E02
$$ 9.920354E01, 9.693015E01
$$ 9.929987E01, 9.351735E01
$$ 9.939002E01, 9.011535E01
$$ 9.947397E01, 8.672415E01
$$ 9.955173E01, 8.334375E01
$$ 9.962328E01, 7.997415E01
$$ 9.968863E01, 7.661535E01
$$ 9.974776E01, 7.326735E01
$$ 9.980069E01, 6.993015E01
$$ 9.984739E01, 6.660375E01
$$ 9.988787E01, 6.328815E01
$$ 9.992213E01, 5.998335E01
$$ 9.995016E01, 5.668935E01
$$ 9.997196E01, 5.340615E01
$$ 9.998754E01, 5.013375E01
$$ 9.999688E01, 4.687215E01
$$ 1.000000E02, 4.362135E01
$$ 1.000000E02, 4.038135E01
$$ 1.000000E02, 3.715215E01
$$ 1.000000E02, 3.393375E01
$$ 1.000000E02, 3.072615E01
$$ 1.000000E02, 2.752935E01
$$ 1.000000E02, 2.434335E01
$$ 1.000000E02, 2.116815E01
$$ 1.000000E02, 1.800375E01
$$ 1.000000E02, 1.485015E01
$$ 1.000000E02, 1.170735E01
$$ 1.000000E02, 8.575350E00
$$ 1.000000E02, 5.454150E00
$$ 1.000000E02, 2.343750E00
$$ 1.000000E02, 3.592442E02
$$ 1.000000E02, 3.561554E02
$$ 1.000000E02, 3.530773E02
$$ 1.000000E02, 3.500102E02
$$ 1.000000E02, 3.469537E02
$$ 1.000000E02, 3.439082E02
$$ 1.000000E02, 3.408734E02
$$ 1.000000E02, 3.378493E02
$$ 1.000000E02, 3.348362E02
$$ 1.000000E02, 3.318337E02
$$ 1.000000E02, 3.288422E02
$$ 1.000000E02, 3.258613E02
$$ 1.000000E02, 3.228914E02
$$ 1.000000E02, 3.199322E02
$$ 1.000000E02, 3.169838E02
$$ 1.000000E02, 3.140461E02
$$ 1.000000E02, 3.111193E02
$$ 1.000000E02, 3.082033E02
$$ 1.000000E02, 3.052981E02
$$ 1.000000E02, 3.024038E02
$$ 1.000000E02, 2.995201E02
$$ 1.000000E02, 2.966474E02
$$ 1.000000E02, 2.937853E02
$$ 1.000000E02, 2.909342E02
$$ 1.000000E02, 2.880937E02
$$ 1.000000E02, 2.852642E02
$$ 1.000000E02, 2.824453E02
$$ 1.000000E02, 2.796373E02
$$ 1.000000E02, 2.768402E02
$$ 1.000000E02, 2.740537E02
$$ 1.000000E02, 2.712782E02
$$ 1.000000E02, 2.685133E02
$$ 1.000000E02, 2.657594E02
$$ 1.000000E02, 2.630161E02
$$ 1.000000E02, 2.602838E02
$$ 1.000000E02, 2.575622E02
$$ 1.000000E02, 2.548513E02
$$ 1.000000E02, 2.521513E02
$$ 1.000000E02, 2.494621E02
$$ 1.000000E02, 2.467838E02
$$ 1.000000E02, 2.441161E02
$$ 1.000000E02, 2.414593E02
$$ 1.000000E02, 2.388133E02
$$ 1.000000E02, 2.361781E02
$$ 1.000000E02, 2.335537E02
$$ 1.000000E02, 2.309401E02
$$ 1.000000E02, 2.283374E02
$$ 1.000000E02, 2.257454E02
$$ 1.000000E02, 2.231642E02
$$ 1.000000E02, 2.205938E02
$$ 1.000000E02, 2.180342E02
$$ 1.000000E02, 2.154853E02
$$ 1.000000E02, 2.129473E02
$$ 1.000000E02, 2.104201E02
$$ 1.000000E02, 2.079038E02
$$ 1.000000E02, 2.053982E02
$$ 1.000000E02, 2.029034E02
$$ 1.000000E02, 2.004194E02
$$ 1.000000E02, 1.979462E02
$$ 1.000000E02, 1.954838E02
$$ 1.000000E02, 1.930322E02
$$ 1.000000E02, 1.905913E02
$$ 1.000000E02, 1.881613E02
$$ 1.000000E02, 1.857421E02
$$ 1.000000E02, 1.833337E02
$$ 1.000000E02, 1.809362E02
$$ 1.000000E02, 1.785494E02
$$ 1.000000E02, 1.761733E02
$$ 1.000000E02, 1.738082E02
$$ 1.000000E02, 1.714538E02
$$ 1.000000E02, 1.691101E02
$$ 1.000000E02, 1.667773E02
$$ 1.000000E02, 1.644553E02
$$ 1.000000E02, 1.621441E02
$$ 1.000000E02, 1.598437E02
$$ 1.000000E02, 1.575542E02
$$ 1.000000E02, 1.552753E02
$$ 1.000000E02, 1.530073E02
$$ 1.000000E02, 1.507502E02
$$ 1.000000E02, 1.485038E02
$$ 1.000000E02, 1.462681E02
$$ 1.000000E02, 1.440433E02
$$ 1.000000E02, 1.418293E02
$$ 1.000000E02, 1.396261E02
$$ 1.000000E02, 1.374338E02
$$ 1.000000E02, 1.352521E02
$$ 1.000000E02, 1.330814E02
$$ 1.000000E02, 1.309214E02
$$ 1.000000E02, 1.287722E02
$$ 1.000000E02, 1.266337E02
$$ 1.000000E02, 1.245061E02
$$ 1.000000E02, 1.223893E02
$$ 1.000000E02, 1.202833E02
$$ 1.000000E02, 1.181881E02
$$ 1.000000E02, 1.161037E02
$$ 1.000000E02, 1.140301E02
$$ 1.000000E02, 1.119673E02
$$ 1.000000E02, 1.099154E02
$$ 1.000000E02, 1.078741E02
$$ 1.000000E02, 1.058438E02
$$ 1.000000E02, 1.038241E02
$$ 1.000000E02, 1.018153E02
$$ 1.000000E02, 9.981735E01
$$ 1.000000E02, 9.783015E01
$$ 1.000000E02, 9.585375E01
$$ 1.000000E02, 9.388815E01
$$ 1.000000E02, 9.193335E01
$$ 1.000000E02, 8.998935E01
$$ 1.000000E02, 8.805615E01
$$ 1.000000E02, 8.613375E01
$$ 1.000000E02, 8.422215E01
$$ 1.000000E02, 8.232135E01
$$ 1.000000E02, 8.043135E01
$$ 1.000000E02, 7.855215E01
$$ 1.000000E02, 7.668375E01
$$ 1.000000E02, 7.482615E01
$$ 1.000000E02, 7.297935E01
$$ 1.000000E02, 7.114335E01
$$ 1.000000E02, 6.931815E01
$$ 1.000000E02, 6.750375E01
$$ 1.000000E02, 6.570015E01
$$ 1.000000E02, 6.390735E01
$$ 1.000000E02, 6.212535E01
$$ 1.000000E02, 6.035415E01
$$ 1.000000E02, 5.859375E01
$$ 1.000000E02, 5.684415E01
$$ 1.000000E02, 5.510535E01
$$ 1.000000E02, 5.337735E01
$$ 1.000000E02, 5.166015E01
$$ 1.000000E02, 4.995375E01
$$ 1.000000E02, 4.825815E01
$$ 1.000000E02, 4.657335E01
$$ 1.000000E02, 4.489935E01
$$ 1.000000E02, 4.323615E01
$$ 1.000000E02, 4.158375E01
$$ 1.000000E02, 3.994215E01
$$ 1.000000E02, 3.831135E01
$$ 1.000000E02, 3.669135E01
$$ 1.000000E02, 3.508215E01
$$ 1.000000E02, 3.348375E01
$$ 1.000000E02, 3.189615E01
$$ 1.000000E02, 3.031935E01
$$ 1.000000E02, 2.875335E01
$$ 1.000000E02, 2.719815E01
$$ 1.000000E02, 2.565375E01
$$ 1.000000E02, 2.412015E01
$$ 1.000000E02, 2.259735E01
$$ 1.000000E02, 2.108535E01
$$ 1.000000E02, 1.958415E01
$$ 1.000000E02, 1.809375E01
$$ 1.000000E02, 1.661415E01
$$ 1.000000E02, 1.514535E01
$$ 1.000000E02, 1.368735E01
$$ 1.000000E02, 1.224015E01
$$ 1.000000E02, 1.080375E01
$$ 1.000000E02, 9.378150E00
$$ 1.000000E02, 7.963350E00
$$ 1.000000E02, 6.559350E00
$$ 1.000000E02, 5.166150E00
$$ 1.000000E02, 3.783750E00
$$ 1.000000E02, 2.412150E00
$$ 1.000000E02, 1.051350E00
$$ 1.000000E02, 3.597014E02
$$ 1.000000E02, 3.583622E02
$$ 1.000000E02, 3.570338E02
$$ 1.000000E02, 3.557161E02
$$ 1.000000E02, 3.544094E02
$$ 1.000000E02, 3.531133E02
$$ 1.000000E02, 3.518282E02
$$ 1.000000E02, 3.505538E02
$$ 1.000000E02, 3.492902E02
$$ 1.000000E02, 3.480373E02
$$ 1.000000E02, 3.467954E02
$$ 1.000000E02, 3.455642E02
$$ 1.000000E02, 3.443438E02
$$ 1.000000E02, 3.431342E02
$$ 1.000000E02, 3.419353E02
$$ 1.000000E02, 3.407474E02
$$ 1.000000E02, 3.395702E02
$$ 1.000000E02, 3.384038E02
$$ 1.000000E02, 3.372482E02
$$ 1.000000E02, 3.361034E02
$$ 1.000000E02, 3.349693E02
$$ 1.000000E02, 3.338461E02
$$ 1.000000E02, 3.327338E02
$$ 1.000000E02, 3.316322E02
$$ 1.000000E02, 3.305413E02
$$ 1.000000E02, 3.294614E02
$$ 1.000000E02, 3.283922E02
$$ 1.000000E02, 3.273338E02
$$ 1.000000E02, 3.262862E02
$$ 1.000000E02, 3.252494E02
$$ 1.000000E02, 3.242234E02
$$ 1.000000E02, 3.232082E02
$$ 1.000000E02, 3.222038E02
$$ 1.000000E02, 3.212102E02
$$ 1.000000E02, 3.202274E02
$$ 1.000000E02, 3.192554E02
$$ 1.000000E02, 3.182942E02
$$ 1.000000E02, 3.173438E02
$$ 1.000000E02, 3.164042E02
$$ 1.000000E02, 3.154754E02
$$ 1.000000E02, 3.145574E02
$$ 1.000000E02, 3.136502E02
$$ 1.000000E02, 3.127537E02
$$ 1.000000E02, 3.118682E02
$$ 1.000000E02, 3.109933E02
$$ 1.000000E02, 3.101294E02
$$ 1.000000E02, 3.092762E02
$$ 1.000000E02, 3.084338E02
$$ 1.000000E02, 3.076022E02
$$ 1.000000E02, 3.067814E02
$$ 1.000000E02, 3.059714E02
$$ 1.000000E02, 3.051722E02
$$ 1.000000E02, 3.043838E02
$$ 1.000000E02, 3.036062E02
$$ 1.000000E02, 3.028393E02
$$ 1.000000E02, 3.020834E02
$$ 1.000000E02, 3.013382E02
$$ 1.000000E02, 3.006038E02
$$ 1.000000E02, 2.998802E02
$$ 1.000000E02, 2.991674E02
$$ 1.000000E02, 2.984654E02
$$ 1.000000E02, 2.977742E02
$$ 1.000000E02, 2.970938E02
$$ 1.000000E02, 2.964242E02
$$ 1.000000E02, 2.957654E02
$$ 1.000000E02, 2.951174E02
$$ 1.000000E02, 2.944802E02
$$ 1.000000E02, 2.938538E02
$$ 1.000000E02, 2.932382E02
$$ 1.000000E02, 2.926334E02
$$ 1.000000E02, 2.920394E02
$$ 1.000000E02, 2.914562E02
$$ 1.000000E02, 2.908837E02
$$ 1.000000E02, 2.903221E02
$$ 1.000000E02, 2.897714E02
$$ 1.000000E02, 2.892314E02
$$ 1.000000E02, 2.887022E02
$$ 1.000000E02, 2.881838E02
$$ 1.000000E02, 2.876762E02
$$ 1.000000E02, 2.871794E02
$$ 1.000000E02, 2.866934E02
$$ 1.000000E02, 2.862182E02
$$ 1.000000E02, 2.857537E02
$$ 1.000000E02, 2.853002E02
$$ 1.000000E02, 2.848574E02
$$ 1.000000E02, 2.844254E02
$$ 1.000000E02, 2.840042E02
$$ 1.000000E02, 2.835938E02
$$ 1.000000E02, 2.831942E02
$$ 1.000000E02, 2.828054E02
$$ 1.000000E02, 2.824274E02
$$ 1.000000E02, 2.820602E02
$$ 1.000000E02, 2.817038E02
$$ 1.000000E02, 2.813582E02
$$ 1.000000E02, 2.810234E02
$$ 1.000000E02, 2.806994E02
$$ 1.000000E02, 2.803862E02
$$ 1.000000E02, 2.800838E02
$$ 1.000000E02, 2.797922E02
$$ 1.000000E02, 2.795114E02
$$ 1.000000E02, 2.792414E02
$$ 1.000000E02, 2.789822E02
$$ 1.000000E02, 2.787338E02
$$ 1.000000E02, 2.784962E02
$$ 1.000000E02, 2.782694E02
$$ 1.000000E02, 2.780534E02
$$ 1.000000E02, 2.778482E02
$$ 1.000000E02, 2.776538E02
$$ 1.000000E02, 2.774702E02
$$ 1.000000E02, 2.772974E02
$$ 1.000000E02, 2.771354E02
$$ 1.000000E02, 2.769842E02
$$ 1.000000E02, 2.768438E02
$$ 1.000000E02, 2.767142E02
$$ 1.000000E02, 2.765954E02
$$ 1.000000E02, 2.764874E02
$$ 1.000000E02, 2.763902E02
$$ 1.000000E02, 2.763038E02
$$ 1.000000E02, 2.762282E02
$$ 1.000000E02, 2.761634E02
$$ 1.000000E02, 2.761094E02
$$ 1.000000E02, 2.760662E02
$$ 1.000000E02, 2.760338E02
$$ 1.000000E02, 2.760122E02
$$ 1.000000E02, 2.760014E02
$$ 1.000000E02, 2.760014E02
$$ 1.000000E02, 2.760122E02
$$ 1.000000E02, 2.760338E02
$$ 1.000000E02, 2.760662E02
$$ 1.000000E02, 2.761094E02
$$ 1.000000E02, 2.761634E02
$$ 1.000000E02, 2.762282E02
$$ 1.000000E02, 2.763038E02
$$ 1.000000E02, 2.763902E02
$$ 1.000000E02, 2.764874E02
$$ 1.000000E02, 2.765954E02
$$ 1.000000E02, 2.767142E02
$$ 1.000000E02, 2.768438E02
$$ 1.000000E02, 2.769842E02
$$ 1.000000E02, 2.771354E02
$$ 1.000000E02, 2.772974E02
$$ 1.000000E02, 2.774702E02
$$ 1.000000E02, 2.776538E02
$$ 1.000000E02, 2.778482E02
$$ 1.000000E02, 2.780534E02
$$ 1.000000E02, 2.782694E02
$$ 1.000000E02, 2.784962E02
$$ 1.000000E02, 2.787338E02
$$ 1.000000E02, 2.789822E02
$$ 1.000000E02, 2.792414E02
$$ 1.000000E02, 2.795114E02
$$ 1.000000E02, 2.797922E02
$$ 1.000000E02, 2.800838E02
$$ 1.000000E02, 2.803862E02
$$ 1.000000E02, 2.806994E02
$$ 1.000000E02, 2.810234E02
$$ 1.000000E02, 2.813582E02
$$ 1.000000E02, 2.817038E02
$$ 1.000000E02, 2.820602E02
$$ 1.000000E02, 2.824274E02
$$ 1.000000E02, 2.828054E02
$$ 1.000000E02, 2.831942E02
$$ 1.000000E02, 2.835938E02
$$ 1.000000E02, 2.840042E02
$$ 1.000000E02, 2.844254E02
$$ 1.000000E02, 2.848574E02
$$ 1.000000E02, 2.853002E02
$$ 1.000000E02, 2.857537E02
$$ 1.000000E02, 2.862182E02
$$ 1.000000E02, 2.866934E02
$$ 1.000000E02, 2.871794E02
$$ 1.000000E02, 2.876762E02
$$ 1.000000E02, 2.881838E02
$$ 1.000000E02, 2.887022E02
$$ 1.000000E02, 2.892314E02
$$ 1.000000E02, 2.897714E02
$$ 1.000000E02, 2.903221E02
$$ 1.000000E02, 2.908837E02
$$ 1.000000E02, 2.914562E02
$$ 1.000000E02, 2.920394E02
$$ 1.000000E02, 2.926334E02
$$ 1.000000E02, 2.932382E02
$$ 1.000000E02, 2.938538E02
$$ 1.000000E02, 2.944802E02
$$ 1.000000E02, 2.951174E02
$$ 1.000000E02, 2.957654E02
$$ 1.000000E02, 2.964242E02
$$ 1.000000E02, 2.970938E02
$$ 1.000000E02, 2.977742E02
$$ 1.000000E02, 2.984654E02
$$ 1.000000E02, 2.991674E02
$$ 1.000000E02, 2.998802E02
$$ 1.000000E02, 3.006038E02
$$ 1.000000E02, 3.013382E02
$$ 1.000000E02, 3.020834E02
$$ 1.000000E02, 3.028393E02
$$ 1.000000E02, 3.036062E02
$$ 1.000000E02, 3.043838E02
$$ 1.000000E02, 3.051722E02
$$ 1.000000E02, 3.059714E02
$$ 1.000000E02, 3.067814E02
$$ 1.000000E02, 3.076022E02
$$ 1.000000E02, 3.084338E02
$$ 1.000000E02, 3.092762E02
$$ 1.000000E02, 3.101294E02
$$ 1.000000E02, 3.109933E02
$$ 1.000000E02, 3.118682E02
$$ 1.000000E02, 3.127537E02
$$ 1.000000E02, 3.136502E02
$$ 1.000000E02, 3.145574E02
$$ 1.000000E02, 3.154754E02
$$ 1.000000E02, 3.164042E02
$$ 1.000000E02, 3.173438E02
$$ 1.000000E02, 3.182942E02
$$ 1.000000E02, 3.192554E02
$$ 1.000000E02, 3.202274E02
$$ 1.000000E02, 3.212102E02
$$ 1.000000E02, 3.222038E02
$$ 1.000000E02, 3.232082E02
$$ 1.000000E02, 3.242234E02
$$ 1.000000E02, 3.252494E02
$$ 1.000000E02, 3.262862E02
$$ 1.000000E02, 3.273338E02
$$ 1.000000E02, 3.283922E02
$$ 1.000000E02, 3.294614E02
$$ 1.000000E02, 3.305413E02
$$ 1.000000E02, 3.316322E02
$$ 1.000000E02, 3.327338E02
$$ 1.000000E02, 3.338461E02
$$ 1.000000E02, 3.349693E02
$$ 1.000000E02, 3.361034E02
$$ 1.000000E02, 3.372482E02
$$ 1.000000E02, 3.384038E02
$$ 1.000000E02, 3.395702E02
$$ 1.000000E02, 3.407474E02
$$ 1.000000E02, 3.419353E02
$$ 1.000000E02, 3.431342E02
$$ 1.000000E02, 3.443438E02
$$ 1.000000E02, 3.455642E02
$$ 1.000000E02, 3.467954E02
$$ 1.000000E02, 3.480373E02
$$ 1.000000E02, 3.492902E02
$$ 1.000000E02, 3.505538E02
$$ 1.000000E02, 3.518282E02
$$ 1.000000E02, 3.531133E02
$$ 1.000000E02, 3.544094E02
$$ 1.000000E02, 3.557161E02
$$ 1.000000E02, 3.570338E02
$$ 1.000000E02, 3.583622E02
$$ 1.000000E02, 3.597014E02
$$ 1.000000E02, 1.051350E00
$$ 1.000000E02, 2.412150E00
$$ 1.000000E02, 3.783750E00
$$ 1.000000E02, 5.166150E00
$$ 1.000000E02, 6.559350E00
$$ 1.000000E02, 7.963350E00
$$ 1.000000E02, 9.378150E00
$$ 1.000000E02, 1.080375E01
$$ 1.000000E02, 1.224015E01
$$ 1.000000E02, 1.368735E01
$$ 1.000000E02, 1.514535E01
$$ 1.000000E02, 1.661415E01
$$ 1.000000E02, 1.809375E01
$$ 1.000000E02, 1.958415E01
$$ 1.000000E02, 2.108535E01
$$ 1.000000E02, 2.259735E01
$$ 1.000000E02, 2.412015E01
$$ 1.000000E02, 2.565375E01
$$ 1.000000E02, 2.719815E01
$$ 1.000000E02, 2.875335E01
$$ 1.000000E02, 3.031935E01
$$ 1.000000E02, 3.189615E01
$$ 1.000000E02, 3.348375E01
$$ 1.000000E02, 3.508215E01
$$ 1.000000E02, 3.669135E01
$$ 1.000000E02, 3.831135E01
$$ 1.000000E02, 3.994215E01
$$ 1.000000E02, 4.158375E01
$$ 1.000000E02, 4.323615E01
$$ 1.000000E02, 4.489935E01
$$ 1.000000E02, 4.657335E01
$$ 1.000000E02, 4.825815E01
$$ 1.000000E02, 4.995375E01
$$ 1.000000E02, 5.166015E01
$$ 1.000000E02, 5.337735E01
$$ 1.000000E02, 5.510535E01
$$ 1.000000E02, 5.684415E01
$$ 1.000000E02, 5.859375E01
$$ 1.000000E02, 6.035415E01
$$ 1.000000E02, 6.212535E01
$$ 1.000000E02, 6.390735E01
$$ 1.000000E02, 6.570015E01
$$ 1.000000E02, 6.750375E01
$$ 1.000000E02, 6.931815E01
$$ 1.000000E02, 7.114335E01
$$ 1.000000E02, 7.297935E01
$$ 1.000000E02, 7.482615E01
$$ 1.000000E02, 7.668375E01
$$ 1.000000E02, 7.855215E01
$$ 1.000000E02, 8.043135E01
$$ 1.000000E02, 8.232135E01
$$ 1.000000E02, 8.422215E01
$$ 1.000000E02, 8.613375E01
$$ 1.000000E02, 8.805615E01
$$ 1.000000E02, 8.998935E01
$$ 1.000000E02, 9.193335E01
$$ 1.000000E02, 9.388815E01
$$ 1.000000E02, 9.585375E01
$$ 1.000000E02, 9.783015E01
$$ 1.000000E02, 9.981735E01
$$ 1.000000E02, 1.018153E02
$$ 1.000000E02, 1.038241E02
$$ 1.000000E02, 1.058438E02
$$ 1.000000E02, 1.078741E02
$$ 1.000000E02, 1.099154E02
$$ 1.000000E02, 1.119673E02
$$ 1.000000E02, 1.140301E02
$$ 1.000000E02, 1.161037E02
$$ 1.000000E02, 1.181881E02
$$ 1.000000E02, 1.202833E02
$$ 1.000000E02, 1.223893E02
$$ 1.000000E02, 1.245061E02
$$ 1.000000E02, 1.266337E02
$$ 1.000000E02, 1.287722E02
$$ 1.000000E02, 1.309214E02
$$ 1.000000E02, 1.330814E02
$$ 1.000000E02, 1.352521E02
$$ 1.000000E02, 1.374338E02
$$ 1.000000E02, 1.396261E02
$$ 1.000000E02, 1.418293E02
$$ 1.000000E02, 1.440433E02
$$ 1.000000E02, 1.462681E02
$$ 1.000000E02, 1.485038E02
$$ 1.000000E02, 1.507502E02
$$ 1.000000E02, 1.530073E02
$$ 1.000000E02, 1.552753E02
$$ 1.000000E02, 1.575542E02
$$ 1.000000E02, 1.598437E02
$$ 1.000000E02, 1.621441E02
$$ 1.000000E02, 1.644553E02
$$ 1.000000E02, 1.667773E02
$$ 1.000000E02, 1.691101E02
$$ 1.000000E02, 1.714538E02
$$ 1.000000E02, 1.738082E02
$$ 1.000000E02, 1.761733E02
$$ 1.000000E02, 1.785494E02
$$ 1.000000E02, 1.809362E02
$$ 1.000000E02, 1.833337E02
$$ 1.000000E02, 1.857421E02
$$ 1.000000E02, 1.881613E02
$$ 1.000000E02, 1.905913E02
$$ 1.000000E02, 1.930322E02
$$ 1.000000E02, 1.954838E02
$$ 1.000000E02, 1.979462E02
$$ 1.000000E02, 2.004194E02
$$ 1.000000E02, 2.029034E02
$$ 1.000000E02, 2.053982E02
$$ 1.000000E02, 2.079038E02
$$ 1.000000E02, 2.104201E02
$$ 1.000000E02, 2.129473E02
$$ 1.000000E02, 2.154853E02
$$ 1.000000E02, 2.180342E02
$$ 1.000000E02, 2.205938E02
$$ 1.000000E02, 2.231642E02
$$ 1.000000E02, 2.257454E02
$$ 1.000000E02, 2.283374E02
$$ 1.000000E02, 2.309401E02
$$ 1.000000E02, 2.335537E02
$$ 1.000000E02, 2.361781E02
$$ 1.000000E02, 2.388133E02
$$ 1.000000E02, 2.414593E02
$$ 1.000000E02, 2.441161E02
$$ 1.000000E02, 2.467838E02
$$ 1.000000E02, 2.494621E02
$$ 1.000000E02, 2.521513E02
$$ 1.000000E02, 2.548513E02
$$ 1.000000E02, 2.575622E02
$$ 1.000000E02, 2.602838E02
$$ 1.000000E02, 2.630161E02
$$ 1.000000E02, 2.657594E02
$$ 1.000000E02, 2.685133E02
$$ 1.000000E02, 2.712782E02
$$ 1.000000E02, 2.740537E02
$$ 1.000000E02, 2.768402E02
$$ 1.000000E02, 2.796373E02
$$ 1.000000E02, 2.824453E02
$$ 1.000000E02, 2.852642E02
$$ 1.000000E02, 2.880937E02
$$ 1.000000E02, 2.909342E02
$$ 1.000000E02, 2.937853E02
$$ 1.000000E02, 2.966474E02
$$ 1.000000E02, 2.995201E02
$$ 1.000000E02, 3.024038E02
$$ 1.000000E02, 3.052981E02
$$ 1.000000E02, 3.082033E02
$$ 1.000000E02, 3.111193E02
$$ 1.000000E02, 3.140461E02
$$ 1.000000E02, 3.169838E02
$$ 1.000000E02, 3.199322E02
$$ 1.000000E02, 3.228914E02
$$ 1.000000E02, 3.258613E02
$$ 1.000000E02, 3.288422E02
$$ 1.000000E02, 3.318337E02
$$ 1.000000E02, 3.348362E02
$$ 1.000000E02, 3.378493E02
$$ 1.000000E02, 3.408734E02
$$ 1.000000E02, 3.439082E02
$$ 1.000000E02, 3.469537E02
$$ 1.000000E02, 3.500102E02
$$ 1.000000E02, 3.530773E02
$$ 1.000000E02, 3.561554E02
$$ 1.000000E02, 3.592442E02
$$ 1.000000E02, 2.343750E00
$$ 1.000000E02, 5.454150E00
$$ 1.000000E02, 8.575350E00
$$ 1.000000E02, 1.170735E01
$$ 1.000000E02, 1.485015E01
$$ 1.000000E02, 1.800375E01
$$ 1.000000E02, 2.116815E01
$$ 1.000000E02, 2.434335E01
$$ 1.000000E02, 2.752935E01
$$ 1.000000E02, 3.072615E01
$$ 1.000000E02, 3.393375E01
$$ 1.000000E02, 3.715215E01
$$ 1.000000E02, 4.038135E01
$$ 1.000000E02, 4.362135E01
$$ 9.999688E01, 4.687215E01
$$ 9.998754E01, 5.013375E01
$$ 9.997196E01, 5.340615E01
$$ 9.995016E01, 5.668935E01
$$ 9.992213E01, 5.998335E01
$$ 9.988787E01, 6.328815E01
$$ 9.984739E01, 6.660375E01
$$ 9.980069E01, 6.993015E01
$$ 9.974776E01, 7.326735E01
$$ 9.968863E01, 7.661535E01
$$ 9.962328E01, 7.997415E01
$$ 9.955173E01, 8.334375E01
$$ 9.947397E01, 8.672415E01
$$ 9.939002E01, 9.011535E01
$$ 9.929987E01, 9.351735E01
$$ 9.920354E01, 9.693015E01
$$ 9.910102E01, 1.003537E02
$$ 9.899233E01, 1.037881E02
$$ 9.887747E01, 1.072333E02
$$ 9.875646E01, 1.106893E02
$$ 9.862928E01, 1.141562E02
$$ 9.849597E01, 1.176337E02
$$ 9.835651E01, 1.211222E02
$$ 9.821093E01, 1.246213E02
$$ 9.805923E01, 1.281314E02
$$ 9.790142E01, 1.316521E02
$$ 9.773751E01, 1.351837E02
$$ 9.756751E01, 1.387261E02
$$ 9.739143E01, 1.422794E02
$$ 9.720928E01, 1.458434E02
$$ 9.702108E01, 1.494181E02
$$ 9.682683E01, 1.530037E02
$$ 9.662655E01, 1.566001E02
$$ 9.642025E01, 1.602074E02
$$ 9.620794E01, 1.638253E02
$$ 9.598963E01, 1.674542E02
$$ 9.576535E01, 1.710937E02
$$ 9.553510E01, 1.747442E02
$$ 9.529889E01, 1.784053E02
$$ 9.505675E01, 1.820774E02
$$ 9.480868E01, 1.857602E02
$$ 9.455471E01, 1.894537E02
$$ 9.429485E01, 1.931581E02
$$ 9.402911E01, 1.968733E02
$$ 9.375751E01, 2.005993E02
$$ 9.348008E01, 2.043361E02
$$ 9.319681E01, 2.080838E02
$$ 9.290774E01, 2.118421E02
$$ 9.261288E01, 2.156114E02
$$ 9.231226E01, 2.193914E02
$$ 9.200588E01, 2.231821E02
$$ 9.169376E01, 2.269838E02
$$ 9.137594E01, 2.307962E02
$$ 9.105242E01, 2.346193E02
$$ 9.072323E01, 2.384533E02
$$ 9.038838E01, 2.422981E02
$$ 9.004790E01, 2.461537E02
$$ 8.970182E01, 2.500202E02
$$ 8.935014E01, 2.538973E02
$$ 8.899290E01, 2.577854E02
$$ 8.863011E01, 2.616842E02
$$ 8.826180E01, 2.655938E02
$$ 8.788799E01, 2.695142E02
$$ 8.750870E01, 2.734453E02
$$ 8.712396E01, 2.773873E02
$$ 8.673380E01, 2.813401E02
$$ 8.633823E01, 2.853038E02
$$ 8.593728E01, 2.892781E02
$$ 8.553097E01, 2.932634E02
$$ 8.511934E01, 2.972593E02
$$ 8.470240E01, 3.012662E02
$$ 8.428019E01, 3.052837E02
$$ 8.385272E01, 3.093122E02
$$ 8.342003E01, 3.133514E02
$$ 8.298215E01, 3.174013E02
$$ 8.253909E01, 3.214621E02
$$ 8.209089E01, 3.255337E02
$$ 8.163757E01, 3.296161E02
$$ 8.117917E01, 3.337094E02
$$ 8.071571E01, 3.378133E02
$$ 8.024722E01, 3.419282E02
$$ 7.977373E01, 3.460537E02
$$ 7.929527E01, 3.501902E02
$$ 7.881187E01, 3.543373E02
$$ 7.832356E01, 3.584954E02
$$ 7.783037E01, 2.664150E00
$$ 7.733233E01, 6.843750E00
$$ 7.682948E01, 1.103415E01
$$ 7.632183E01, 1.523535E01
$$ 7.580943E01, 1.944735E01
$$ 7.529231E01, 2.367015E01
$$ 7.477049E01, 2.790375E01
$$ 7.424402E01, 3.214815E01
$$ 7.371292E01, 3.640335E01
$$ 7.317723E01, 4.066935E01
$$ 7.263698E01, 4.494615E01
$$ 7.209220E01, 4.923375E01
$$ 7.154293E01, 5.353215E01
$$ 7.098920E01, 5.784135E01
$$ 7.043105E01, 6.216135E01
$$ 6.986851E01, 6.649215E01
$$ 6.930162E01, 7.083375E01
$$ 6.873041E01, 7.518615E01
$$ 6.815492E01, 7.954935E01
$$ 6.757518E01, 8.392335E01
$$ 6.699124E01, 8.830815E01
$$ 6.640311E01, 9.270375E01
$$ 6.581085E01, 9.711015E01
$$ 6.521449E01, 1.015274E02
$$ 6.461407E01, 1.059553E02
$$ 6.400962E01, 1.103941E02
$$ 6.340118E01, 1.148438E02
$$ 6.278880E01, 1.193041E02
$$ 6.217250E01, 1.237754E02
$$ 6.155232E01, 1.282573E02
$$ 6.092832E01, 1.327501E02
$$ 6.030051E01, 1.372537E02
$$ 5.966895E01, 1.417682E02
$$ 5.903367E01, 1.462934E02
$$ 5.839471E01, 1.508293E02
$$ 5.775212E01, 1.553761E02
$$ 5.710592E01, 1.599337E02
$$ 5.645617E01, 1.645021E02
$$ 5.580290E01, 1.690813E02
$$ 5.514615E01, 1.736713E02
$$ 5.448597E01, 1.782721E02
$$ 5.382239E01, 1.828837E02
$$ 5.315546E01, 1.875062E02
$$ 5.248522E01, 1.921393E02
$$ 5.181170E01, 1.967834E02
$$ 5.113496E01, 2.014381E02
$$ 5.045503E01, 2.061038E02
$$ 4.977196E01, 2.107801E02
$$ 4.908579E01, 2.154674E02
$$ 4.839656E01, 2.201653E02
$$ 4.770431E01, 2.248741E02
$$ 4.700910E01, 2.295937E02
$$ 4.631095E01, 2.343241E02
$$ 4.560992E01, 2.390654E02
$$ 4.490604E01, 2.438174E02
$$ 4.419937E01, 2.485802E02
$$ 4.348994E01, 2.533537E02
$$ 4.277781E01, 2.581382E02
$$ 4.206301E01, 2.629333E02
$$ 4.134558E01, 2.677394E02
$$ 4.062559E01, 2.725561E02
$$ 3.990306E01, 2.773837E02
$$ 3.917804E01, 2.822221E02
$$ 3.845058E01, 2.870713E02
$$ 3.772073E01, 2.919314E02
$$ 3.698853E01, 2.968021E02
$$ 3.625402E01, 3.016837E02
$$ 3.551726E01, 3.065761E02
$$ 3.477828E01, 3.114793E02
$$ 3.403713E01, 3.163933E02
$$ 3.329386E01, 3.213182E02
$$ 3.254852E01, 3.262537E02
$$ 3.180115E01, 3.312001E02
$$ 3.105180E01, 3.361573E02
$$ 3.030052E01, 3.411253E02
$$ 2.954734E01, 3.461042E02
$$ 2.879233E01, 3.510937E02
$$ 2.803552E01, 3.560941E02
$$ 2.727697E01, 1.105350E00
$$ 2.651671E01, 6.127350E00
$$ 2.575481E01, 1.116015E01
$$ 2.499130E01, 1.620375E01
$$ 2.422623E01, 2.125815E01
$$ 2.345965E01, 2.632335E01
$$ 2.269161E01, 3.139935E01
$$ 2.192216E01, 3.648615E01
$$ 2.115134E01, 4.158375E01
$$ 2.037920E01, 4.669215E01
$$ 1.960579E01, 5.181135E01
$$ 1.883117E01, 5.694135E01
$$ 1.805537E01, 6.208215E01
$$ 1.727844E01, 6.723375E01
$$ 1.650044E01, 7.239615E01
$$ 1.572140E01, 7.756935E01
$$ 1.494139E01, 8.275335E01
$$ 1.416045E01, 8.794815E01
$$ 1.337863E01, 9.315375E01
$$ 1.259597E01, 9.837015E01
$$ 1.181253E01, 1.035973E02
$$ 1.102835E01, 1.088353E02
$$ 1.024348E01, 1.140841E02
$$ 9.457981E00, 1.193437E02
$$ 8.671888E00, 1.246142E02
$$ 7.885255E00, 1.298954E02
$$ 7.098130E00, 1.351873E02
$$ 6.310563E00, 1.404901E02
$$ 5.522603E00, 1.458037E02
$$ 4.734299E00, 1.511282E02
$$ 3.945700E00, 1.564633E02
$$ 3.156855E00, 1.618093E02
$$ 2.367813E00, 1.671662E02
$$ 1.578624E00, 1.725338E02
$$ 7.893367E-01, 1.779122E02
$$ 0.000000E00, 1.833013E02
$$ 0.000000E00, 9.330067E01
$$ 3.936823E-01, 8.790607E01
$$ 7.873584E-01, 8.251687E01
$$ 1.181022E00, 7.713307E01
$$ 1.574668E00, 7.175467E01
$$ 1.968289E00, 6.638167E01
$$ 2.361880E00, 6.101408E01
$$ 2.755434E00, 5.565187E01
$$ 3.148946E00, 5.029508E01
$$ 3.542408E00, 4.494368E01
$$ 3.935816E00, 3.959767E01
$$ 4.329163E00, 3.425707E01
$$ 4.722442E00, 2.892187E01
$$ 5.115649E00, 2.359208E01
$$ 5.508776E00, 1.826768E01
$$ 5.901818E00, 1.294867E01
$$ 6.294768E00, 7.635075E00
$$ 6.687621E00, 2.326875E00
$$ 7.080370E00, 3.570241E02
$$ 7.473009E00, 3.517267E02
$$ 7.865533E00, 3.464347E02
$$ 8.257935E00, 3.411481E02
$$ 8.650208E00, 3.358669E02
$$ 9.042348E00, 3.305911E02
$$ 9.434347E00, 3.253207E02
$$ 9.826200E00, 3.200557E02
$$ 1.021790E01, 3.147961E02
$$ 1.060944E01, 3.095419E02
$$ 1.100082E01, 3.042931E02
$$ 1.139203E01, 2.990497E02
$$ 1.178306E01, 2.938117E02
$$ 1.217391E01, 2.885791E02
$$ 1.256457E01, 2.833519E02
$$ 1.295503E01, 2.781301E02
$$ 1.334530E01, 2.729137E02
$$ 1.373536E01, 2.677027E02
$$ 1.412520E01, 2.624971E02
$$ 1.451483E01, 2.572969E02
$$ 1.490423E01, 2.521021E02
$$ 1.529340E01, 2.469127E02
$$ 1.568233E01, 2.417287E02
$$ 1.607102E01, 2.365501E02
$$ 1.645946E01, 2.313769E02
$$ 1.684764E01, 2.262091E02
$$ 1.723557E01, 2.210467E02
$$ 1.762323E01, 2.158897E02
$$ 1.801061E01, 2.107381E02
$$ 1.839771E01, 2.055919E02
$$ 1.878453E01, 2.004511E02
$$ 1.917106E01, 1.953157E02
$$ 1.955729E01, 1.901857E02
$$ 1.994322E01, 1.850611E02
$$ 2.032884E01, 1.799419E02
$$ 2.071415E01, 1.748281E02
$$ 2.109913E01, 1.697197E02
$$ 2.148379E01, 1.646167E02
$$ 2.186811E01, 1.595191E02
$$ 2.225209E01, 1.544269E02
$$ 2.263573E01, 1.493401E02
$$ 2.301902E01, 1.442587E02
$$ 2.340195E01, 1.391827E02
$$ 2.378452E01, 1.341121E02
$$ 2.416672E01, 1.290469E02
$$ 2.454855E01, 1.239871E02
$$ 2.492999E01, 1.189327E02
$$ 2.531105E01, 1.138837E02
$$ 2.569172E01, 1.088401E02
$$ 2.607199E01, 1.038019E02
$$ 2.645185E01, 9.876907E01
$$ 2.683131E01, 9.374168E01
$$ 2.721035E01, 8.871967E01
$$ 2.758896E01, 8.370307E01
$$ 2.796715E01, 7.869187E01
$$ 2.834491E01, 7.368607E01
$$ 2.872223E01, 6.868567E01
$$ 2.909910E01, 6.369067E01
$$ 2.947552E01, 5.870107E01
$$ 2.985148E01, 5.371687E01
$$ 3.022698E01, 4.873808E01
$$ 3.060201E01, 4.376467E01
$$ 3.097657E01, 3.879668E01
$$ 3.135065E01, 3.383407E01
$$ 3.172424E01, 2.887687E01
$$ 3.209734E01, 2.392508E01
$$ 3.246995E01, 1.897867E01
$$ 3.284205E01, 1.403768E01
$$ 3.321364E01, 9.102075E00
$$ 3.358471E01, 4.171875E00
$$ 3.395527E01, 3.592471E02
$$ 3.432530E01, 3.543277E02
$$ 3.469480E01, 3.494137E02
$$ 3.506376E01, 3.445051E02
$$ 3.543217E01, 3.396019E02
$$ 3.580004E01, 3.347041E02
$$ 3.616735E01, 3.298117E02
$$ 3.653410E01, 3.249247E02
$$ 3.690029E01, 3.200431E02
$$ 3.726590E01, 3.151669E02
$$ 3.763094E01, 3.102961E02
$$ 3.799539E01, 3.054307E02
$$ 3.835925E01, 3.005707E02
$$ 3.872252E01, 2.957161E02
$$ 3.908519E01, 2.908669E02
$$ 3.944726E01, 2.860231E02
$$ 3.980871E01, 2.811847E02
$$ 4.016954E01, 2.763517E02
$$ 4.052975E01, 2.715241E02
$$ 4.088934E01, 2.667019E02
$$ 4.124829E01, 2.618851E02
$$ 4.160660E01, 2.570737E02
$$ 4.196427E01, 2.522677E02
$$ 4.232128E01, 2.474671E02
$$ 4.267764E01, 2.426719E02
$$ 4.303334E01, 2.378821E02
$$ 4.338837E01, 2.330977E02
$$ 4.374273E01, 2.283187E02
$$ 4.409641E01, 2.235451E02
$$ 4.444941E01, 2.187769E02
$$ 4.480172E01, 2.140141E02
$$ 4.515334E01, 2.092567E02
$$ 4.550425E01, 2.045047E02
$$ 4.585446E01, 1.997581E02
$$ 4.620396E01, 1.950169E02
$$ 4.655274E01, 1.902811E02
$$ 4.690080E01, 1.855507E02
$$ 4.724814E01, 1.808257E02
$$ 4.759474E01, 1.761061E02
$$ 4.794060E01, 1.713919E02
$$ 4.828573E01, 1.666831E02
$$ 4.863010E01, 1.619797E02
$$ 4.897372E01, 1.572817E02
$$ 4.931658E01, 1.525891E02
$$ 4.965867E01, 1.479019E02
$$ 5.000000E01, 1.432201E02
$$ 5.034055E01, 1.385437E02
$$ 5.068032E01, 1.338727E02
$$ 5.101931E01, 1.292071E02
$$ 5.135750E01, 1.245469E02
$$ 5.169490E01, 1.198921E02
$$ 5.203150E01, 1.152427E02
$$ 5.236729E01, 1.105987E02
$$ 5.270227E01, 1.059601E02
$$ 5.303643E01, 1.013269E02
$$ 5.336978E01, 9.669908E01
$$ 5.370229E01, 9.207667E01
$$ 5.403397E01, 8.745968E01
$$ 5.436481E01, 8.284807E01
$$ 5.469482E01, 7.824187E01
$$ 5.502397E01, 7.364107E01
$$ 5.535227E01, 6.904567E01
$$ 5.567971E01, 6.445567E01
$$ 5.600629E01, 5.987107E01
$$ 5.633201E01, 5.529187E01
$$ 5.665684E01, 5.071807E01
$$ 5.698081E01, 4.614968E01
$$ 5.730388E01, 4.158668E01
$$ 5.762607E01, 3.702907E01
$$ 5.794737E01, 3.247687E01
$$ 5.826777E01, 2.793007E01
$$ 5.858726E01, 2.338867E01
$$ 5.890585E01, 1.885268E01
$$ 5.922353E01, 1.432207E01
$$ 5.954028E01, 9.796875E00
$$ 5.985612E01, 5.277075E00
$$ 6.017102E01, 7.626750E-01
$$ 6.048499E01, 3.562537E02
$$ 6.079803E01, 3.517501E02
$$ 6.111012E01, 3.472519E02
$$ 6.142127E01, 3.427591E02
$$ 6.173147E01, 3.382717E02
$$ 6.204070E01, 3.337897E02
$$ 6.234898E01, 3.293131E02
$$ 6.265629E01, 3.248419E02
$$ 6.296263E01, 3.203761E02
$$ 6.326799E01, 3.159157E02
$$ 6.357237E01, 3.114607E02
$$ 6.387577E01, 3.070111E02
$$ 6.417818E01, 3.025669E02
$$ 6.447959E01, 2.981281E02
$$ 6.478001E01, 2.936947E02
$$ 6.507941E01, 2.892667E02
$$ 6.537782E01, 2.848441E02
$$ 6.567520E01, 2.804269E02
$$ 6.597157E01, 2.760151E02
$$ 6.626692E01, 2.716087E02
$$ 6.656124E01, 2.672077E02
$$ 6.685453E01, 2.628121E02
$$ 6.714678E01, 2.584219E02
$$ 6.743799E01, 2.540371E02
$$ 6.772816E01, 2.496577E02
$$ 6.801727E01, 2.452837E02
$$ 6.830534E01, 2.409151E02
$$ 6.859234E01, 2.365519E02
$$ 6.887828E01, 2.321941E02
$$ 6.916315E01, 2.278417E02
$$ 6.944696E01, 2.234947E02
$$ 6.972968E01, 2.191531E02
$$ 7.001132E01, 2.148169E02
$$ 7.029188E01, 2.104861E02
$$ 7.057135E01, 2.061607E02
$$ 7.084973E01, 2.018407E02
$$ 7.112701E01, 1.975261E02
$$ 7.140318E01, 1.932169E02
$$ 7.167825E01, 1.889131E02
$$ 7.195221E01, 1.846147E02
$$ 7.222505E01, 1.803217E02
$$ 7.249678E01, 1.760341E02
$$ 7.276738E01, 1.717519E02
$$ 7.303685E01, 1.674751E02
$$ 7.330519E01, 1.632037E02
$$ 7.357239E01, 1.589377E02
$$ 7.383845E01, 1.546771E02
$$ 7.410337E01, 1.504219E02
$$ 7.436714E01, 1.461721E02
$$ 7.462976E01, 1.419277E02
$$ 7.489122E01, 1.376887E02
$$ 7.515152E01, 1.334551E02
$$ 7.541066E01, 1.292269E02
$$ 7.566863E01, 1.250041E02
$$ 7.592542E01, 1.207867E02
$$ 7.618104E01, 1.165747E02
$$ 7.643548E01, 1.123681E02
$$ 7.668873E01, 1.081669E02
$$ 7.694079E01, 1.039711E02
$$ 7.719167E01, 9.978067E01
$$ 7.744134E01, 9.559567E01
$$ 7.768981E01, 9.141607E01
$$ 7.793709E01, 8.724187E01
$$ 7.818315E01, 8.307307E01
$$ 7.842800E01, 7.890967E01
$$ 7.867163E01, 7.475167E01
$$ 7.891405E01, 7.059908E01
$$ 7.915524E01, 6.645187E01
$$ 7.939521E01, 6.231007E01
$$ 7.963395E01, 5.817368E01
$$ 7.987145E01, 5.404267E01
$$ 8.010771E01, 4.991708E01
$$ 8.034273E01, 4.579688E01
$$ 8.057651E01, 4.168207E01
$$ 8.080904E01, 3.757267E01
$$ 8.104031E01, 3.346867E01
$$ 8.127033E01, 2.937007E01
$$ 8.149909E01, 2.527687E01
$$ 8.172659E01, 2.118908E01
$$ 8.195282E01, 1.710667E01
$$ 8.217778E01, 1.302967E01
$$ 8.240147E01, 8.958075E00
$$ 8.262388E01, 4.891875E00
$$ 8.284501E01, 8.310750E-01
$$ 8.306485E01, 3.567757E02
$$ 8.328341E01, 3.527257E02
$$ 8.350068E01, 3.486811E02
$$ 8.371665E01, 3.446419E02
$$ 8.393132E01, 3.406081E02
$$ 8.414470E01, 3.365797E02
$$ 8.435677E01, 3.325567E02
$$ 8.456753E01, 3.285391E02
$$ 8.477698E01, 3.245269E02
$$ 8.498512E01, 3.205201E02
$$ 8.519194E01, 3.165187E02
$$ 8.539744E01, 3.125227E02
$$ 8.560162E01, 3.085321E02
$$ 8.580447E01, 3.045469E02
$$ 8.600599E01, 3.005671E02
$$ 8.620618E01, 2.965927E02
$$ 8.640503E01, 2.926237E02
$$ 8.660254E01, 2.886601E02
$$ 8.679871E01, 2.847019E02
$$ 8.699354E01, 2.807491E02
$$ 8.718701E01, 2.768017E02
$$ 8.737914E01, 2.728597E02
$$ 8.756991E01, 2.689231E02
$$ 8.775932E01, 2.649919E02
$$ 8.794738E01, 2.610661E02
$$ 8.813407E01, 2.571457E02
$$ 8.831939E01, 2.532307E02
$$ 8.850335E01, 2.493211E02
$$ 8.868593E01, 2.454169E02
$$ 8.886714E01, 2.415181E02
$$ 8.904697E01, 2.376247E02
$$ 8.922542E01, 2.337367E02
$$ 8.940249E01, 2.298541E02
$$ 8.957818E01, 2.259769E02
$$ 8.975247E01, 2.221051E02
$$ 8.992538E01, 2.182387E02
$$ 9.009689E01, 2.143777E02
$$ 9.026700E01, 2.105221E02
$$ 9.043572E01, 2.066719E02
$$ 9.060303E01, 2.028271E02
$$ 9.076894E01, 1.989877E02
$$ 9.093344E01, 1.951537E02
$$ 9.109653E01, 1.913251E02
$$ 9.125822E01, 1.875019E02
$$ 9.141848E01, 1.836841E02
$$ 9.157733E01, 1.798717E02
$$ 9.173476E01, 1.760647E02
$$ 9.189077E01, 1.722631E02
$$ 9.204536E01, 1.684669E02
$$ 9.219852E01, 1.646761E02
$$ 9.235024E01, 1.608907E02
$$ 9.250054E01, 1.571107E02
$$ 9.264941E01, 1.533361E02
$$ 9.279684E01, 1.495669E02
$$ 9.294283E01, 1.458031E02
$$ 9.308737E01, 1.420447E02
$$ 9.323048E01, 1.382917E02
$$ 9.337214E01, 1.345441E02
$$ 9.351236E01, 1.308019E02
$$ 9.365112E01, 1.270651E02
$$ 9.378844E01, 1.233337E02
$$ 9.392430E01, 1.196077E02
$$ 9.405870E01, 1.158871E02
$$ 9.419165E01, 1.121719E02
$$ 9.432314E01, 1.084621E02
$$ 9.445316E01, 1.047577E02
$$ 9.458172E01, 1.010587E02
$$ 9.470882E01, 9.736507E01
$$ 9.483445E01, 9.367687E01
$$ 9.495861E01, 8.999407E01
$$ 9.508129E01, 8.631668E01
$$ 9.520250E01, 8.264468E01
$$ 9.532224E01, 7.897807E01
$$ 9.544050E01, 7.531687E01
$$ 9.555728E01, 7.166107E01
$$ 9.567258E01, 6.801067E01
$$ 9.578640E01, 6.436568E01
$$ 9.589873E01, 6.072607E01
$$ 9.600957E01, 5.709187E01
$$ 9.611893E01, 5.346308E01
$$ 9.622680E01, 4.983967E01
$$ 9.633318E01, 4.622167E01
$$ 9.643806E01, 4.260907E01
$$ 9.654145E01, 3.900188E01
$$ 9.664334E01, 3.540008E01
$$ 9.674374E01, 3.180367E01
$$ 9.684263E01, 2.821267E01
$$ 9.694003E01, 2.462707E01
$$ 9.703592E01, 2.104688E01
$$ 9.713031E01, 1.747207E01
$$ 9.722319E01, 1.390267E01
$$ 9.731457E01, 1.033867E01
$$ 9.740443E01, 6.780075E00
$$ 9.749279E01, 3.226875E00
$$ 9.757964E01, 3.596791E02
$$ 9.766497E01, 3.561367E02
$$ 9.774879E01, 3.525997E02
$$ 9.783110E01, 3.490681E02
$$ 9.791189E01, 3.455419E02
$$ 9.799116E01, 3.420211E02
$$ 9.806892E01, 3.385057E02
$$ 9.814515E01, 3.349957E02
$$ 9.821986E01, 3.314911E02
$$ 9.829305E01, 3.279919E02
$$ 9.836472E01, 3.244981E02
$$ 9.843486E01, 3.210097E02
$$ 9.850348E01, 3.175267E02
$$ 9.857057E01, 3.140491E02
$$ 9.863613E01, 3.105769E02
$$ 9.870016E01, 3.071101E02
$$ 9.876267E01, 3.036487E02
$$ 9.882364E01, 3.001927E02
$$ 9.888308E01, 2.967421E02
$$ 9.894099E01, 2.932969E02
$$ 9.899737E01, 2.898571E02
$$ 9.905221E01, 2.864227E02
$$ 9.910551E01, 2.829937E02
$$ 9.915728E01, 2.795701E02
$$ 9.920752E01, 2.761519E02
$$ 9.925621E01, 2.727391E02
$$ 9.930337E01, 2.693317E02
$$ 9.934899E01, 2.659297E02
$$ 9.939307E01, 2.625331E02
$$ 9.943561E01, 2.591419E02
$$ 9.947660E01, 2.557561E02
$$ 9.951606E01, 2.523757E02
$$ 9.955397E01, 2.490007E02
$$ 9.959034E01, 2.456311E02
$$ 9.962517E01, 2.422669E02
$$ 9.965845E01, 2.389081E02
$$ 9.969019E01, 2.355547E02
$$ 9.972038E01, 2.322067E02
$$ 9.974903E01, 2.288641E02
$$ 9.977613E01, 2.255269E02
$$ 9.980168E01, 2.221951E02
$$ 9.982569E01, 2.188687E02
$$ 9.984815E01, 2.155477E02
$$ 9.986906E01, 2.122321E02
$$ 9.988843E01, 2.089219E02
$$ 9.990625E01, 2.056171E02
$$ 9.992252E01, 2.023177E02
$$ 9.993724E01, 1.990237E02
$$ 9.995041E01, 1.957351E02
$$ 9.996203E01, 1.924519E02
$$ 9.997210E01, 1.891741E02
$$ 9.998063E01, 1.859017E02
$$ 9.998760E01, 1.826347E02
$$ 9.999303E01, 1.793731E02
$$ 9.999690E01, 1.761169E02
$$ 9.999923E01, 1.728661E02
$$ 1.000000E02, 1.696207E02
$$ 1.000000E02, 1.663807E02
$$ 1.000000E02, 1.631461E02
$$ 1.000000E02, 1.599169E02
$$ 1.000000E02, 1.566931E02
$$ 1.000000E02, 1.534747E02
$$ 1.000000E02, 1.502617E02
$$ 1.000000E02, 1.470541E02
$$ 1.000000E02, 1.438519E02
$$ 1.000000E02, 1.406551E02
$$ 1.000000E02, 1.374637E02
$$ 1.000000E02, 1.342777E02
$$ 1.000000E02, 1.310971E02
$$ 1.000000E02, 1.279219E02
$$ 1.000000E02, 1.247521E02
$$ 1.000000E02, 1.215877E02
$$ 1.000000E02, 1.184287E02
$$ 1.000000E02, 1.152751E02
$$ 1.000000E02, 1.121269E02
$$ 1.000000E02, 1.089841E02
$$ 1.000000E02, 1.058467E02
$$ 1.000000E02, 1.027147E02
$$ 1.000000E02, 9.958808E01
$$ 1.000000E02, 9.646687E01
$$ 1.000000E02, 9.335107E01
$$ 1.000000E02, 9.024067E01
$$ 1.000000E02, 8.713567E01
$$ 1.000000E02, 8.403608E01
$$ 1.000000E02, 8.094188E01
$$ 1.000000E02, 7.785307E01
$$ 1.000000E02, 7.476967E01
$$ 1.000000E02, 7.169167E01
$$ 1.000000E02, 6.861908E01
$$ 1.000000E02, 6.555187E01
$$ 1.000000E02, 6.249007E01
$$ 1.000000E02, 5.943367E01
$$ 1.000000E02, 5.638267E01
$$ 1.000000E02, 5.333708E01
$$ 1.000000E02, 5.029688E01
$$ 1.000000E02, 4.726207E01
$$ 1.000000E02, 4.423267E01
$$ 1.000000E02, 4.120867E01
$$ 1.000000E02, 3.819007E01
$$ 1.000000E02, 3.517687E01
$$ 1.000000E02, 3.216908E01
$$ 1.000000E02, 2.916667E01
$$ 1.000000E02, 2.616967E01
$$ 1.000000E02, 2.317807E01
$$ 1.000000E02, 2.019187E01
$$ 1.000000E02, 1.721107E01
$$ 1.000000E02, 1.423568E01
$$ 1.000000E02, 1.126567E01
$$ 1.000000E02, 8.301075E00
$$ 1.000000E02, 5.341875E00
$$ 1.000000E02, 2.388075E00
$$ 1.000000E02, 3.594397E02
$$ 1.000000E02, 3.564967E02
$$ 1.000000E02, 3.535591E02
$$ 1.000000E02, 3.506269E02
$$ 1.000000E02, 3.477001E02
$$ 1.000000E02, 3.447787E02
$$ 1.000000E02, 3.418627E02
$$ 1.000000E02, 3.389521E02
$$ 1.000000E02, 3.360469E02
$$ 1.000000E02, 3.331471E02
$$ 1.000000E02, 3.302527E02
$$ 1.000000E02, 3.273637E02
$$ 1.000000E02, 3.244801E02
$$ 1.000000E02, 3.216019E02
$$ 1.000000E02, 3.187291E02
$$ 1.000000E02, 3.158617E02
$$ 1.000000E02, 3.129997E02
$$ 1.000000E02, 3.101431E02
$$ 1.000000E02, 3.072919E02
$$ 1.000000E02, 3.044461E02
$$ 1.000000E02, 3.016057E02
$$ 1.000000E02, 2.987707E02
$$ 1.000000E02, 2.959411E02
$$ 1.000000E02, 2.931169E02
$$ 1.000000E02, 2.902981E02
$$ 1.000000E02, 2.874847E02
$$ 1.000000E02, 2.846767E02
$$ 1.000000E02, 2.818741E02
$$ 1.000000E02, 2.790769E02
$$ 1.000000E02, 2.762851E02
$$ 1.000000E02, 2.734987E02
$$ 1.000000E02, 2.707177E02
$$ 1.000000E02, 2.679421E02
$$ 1.000000E02, 2.651719E02
$$ 1.000000E02, 2.624071E02
$$ 1.000000E02, 2.596477E02
$$ 1.000000E02, 2.568937E02
$$ 1.000000E02, 2.541451E02
$$ 1.000000E02, 2.514019E02
$$ 1.000000E02, 2.486641E02
$$ 1.000000E02, 2.459317E02
$$ 1.000000E02, 2.432047E02
$$ 1.000000E02, 2.404831E02
$$ 1.000000E02, 2.377669E02
$$ 1.000000E02, 2.350561E02
$$ 1.000000E02, 2.323507E02
$$ 1.000000E02, 2.296507E02
$$ 1.000000E02, 2.269561E02
$$ 1.000000E02, 2.242669E02
$$ 1.000000E02, 2.215831E02
$$ 1.000000E02, 2.189047E02
$$ 1.000000E02, 2.162317E02
$$ 1.000000E02, 2.135641E02
$$ 1.000000E02, 2.109019E02
$$ 1.000000E02, 2.082451E02
$$ 1.000000E02, 2.055937E02
$$ 1.000000E02, 2.029477E02
$$ 1.000000E02, 2.003071E02
$$ 1.000000E02, 1.976719E02
$$ 1.000000E02, 1.950421E02
$$ 1.000000E02, 1.924177E02
$$ 1.000000E02, 1.897987E02
$$ 1.000000E02, 1.871851E02
$$ 1.000000E02, 1.845769E02
$$ 1.000000E02, 1.819741E02
$$ 1.000000E02, 1.793767E02
$$ 1.000000E02, 1.767847E02
$$ 1.000000E02, 1.741981E02
$$ 1.000000E02, 1.716169E02
$$ 1.000000E02, 1.690411E02
$$ 1.000000E02, 1.664707E02
$$ 1.000000E02, 1.639057E02
$$ 1.000000E02, 1.613461E02
$$ 1.000000E02, 1.587919E02
$$ 1.000000E02, 1.562431E02
$$ 1.000000E02, 1.536997E02
$$ 1.000000E02, 1.511617E02
$$ 1.000000E02, 1.486291E02
$$ 1.000000E02, 1.461019E02
$$ 1.000000E02, 1.435801E02
$$ 1.000000E02, 1.410637E02
$$ 1.000000E02, 1.385527E02
$$ 1.000000E02, 1.360471E02
$$ 1.000000E02, 1.335469E02
$$ 1.000000E02, 1.310521E02
$$ 1.000000E02, 1.285627E02
$$ 1.000000E02, 1.260787E02
$$ 1.000000E02, 1.236001E02
$$ 1.000000E02, 1.211269E02
$$ 1.000000E02, 1.186591E02
$$ 1.000000E02, 1.161967E02
$$ 1.000000E02, 1.137397E02
$$ 1.000000E02, 1.112881E02
$$ 1.000000E02, 1.088419E02
$$ 1.000000E02, 1.064011E02
$$ 1.000000E02, 1.039657E02
$$ 1.000000E02, 1.015357E02
$$ 1.000000E02, 9.911107E01
$$ 1.000000E02, 9.669187E01
$$ 1.000000E02, 9.427807E01
$$ 1.000000E02, 9.186968E01
$$ 1.000000E02, 8.946667E01
$$ 1.000000E02, 8.706908E01
$$ 1.000000E02, 8.467687E01
$$ 1.000000E02, 8.229008E01
$$ 1.000000E02, 7.990868E01
$$ 1.000000E02, 7.753268E01
$$ 1.000000E02, 7.516207E01
$$ 1.000000E02, 7.279687E01
$$ 1.000000E02, 7.043707E01
$$ 1.000000E02, 6.808267E01
$$ 1.000000E02, 6.573368E01
$$ 1.000000E02, 6.339007E01
$$ 1.000000E02, 6.105188E01
$$ 1.000000E02, 5.871907E01
$$ 1.000000E02, 5.639168E01
$$ 1.000000E02, 5.406967E01
$$ 1.000000E02, 5.175308E01
$$ 1.000000E02, 4.944187E01
$$ 1.000000E02, 4.713607E01
$$ 1.000000E02, 4.483567E01
$$ 1.000000E02, 4.254067E01
$$ 1.000000E02, 4.025107E01
$$ 1.000000E02, 3.796687E01
$$ 1.000000E02, 3.568807E01
$$ 1.000000E02, 3.341467E01
$$ 1.000000E02, 3.114668E01
$$ 1.000000E02, 2.888407E01
$$ 1.000000E02, 2.662687E01
$$ 1.000000E02, 2.437507E01
$$ 1.000000E02, 2.212867E01
$$ 1.000000E02, 1.988768E01
$$ 1.000000E02, 1.765207E01
$$ 1.000000E02, 1.542188E01
$$ 1.000000E02, 1.319707E01
$$ 1.000000E02, 1.097767E01
$$ 1.000000E02, 8.763675E00
$$ 1.000000E02, 6.555075E00
$$ 1.000000E02, 4.351875E00
$$ 1.000000E02, 2.154075E00
$$ 1.000000E02, 3.599617E02
$$ 1.000000E02, 3.577747E02
$$ 1.000000E02, 3.555931E02
$$ 1.000000E02, 3.534169E02
$$ 1.000000E02, 3.512461E02
$$ 1.000000E02, 3.490807E02
$$ 1.000000E02, 3.469207E02
$$ 1.000000E02, 3.447661E02
$$ 1.000000E02, 3.426169E02
$$ 1.000000E02, 3.404731E02
$$ 1.000000E02, 3.383347E02
$$ 1.000000E02, 3.362017E02
$$ 1.000000E02, 3.340741E02
$$ 1.000000E02, 3.319519E02
$$ 1.000000E02, 3.298351E02
$$ 1.000000E02, 3.277237E02
$$ 1.000000E02, 3.256177E02
$$ 1.000000E02, 3.235171E02
$$ 1.000000E02, 3.214219E02
$$ 1.000000E02, 3.193321E02
$$ 1.000000E02, 3.172477E02
$$ 1.000000E02, 3.151687E02
$$ 1.000000E02, 3.130951E02
$$ 1.000000E02, 3.110269E02
$$ 1.000000E02, 3.089641E02
$$ 1.000000E02, 3.069067E02
$$ 1.000000E02, 3.048547E02
$$ 1.000000E02, 3.028081E02
$$ 1.000000E02, 3.007669E02
$$ 1.000000E02, 2.987311E02
$$ 1.000000E02, 2.967007E02
$$ 1.000000E02, 2.946757E02
$$ 1.000000E02, 2.926561E02
$$ 1.000000E02, 2.906419E02
$$ 1.000000E02, 2.886331E02
$$ 1.000000E02, 2.866297E02
$$ 1.000000E02, 2.846317E02
$$ 1.000000E02, 2.826391E02
$$ 1.000000E02, 2.806519E02
$$ 1.000000E02, 2.786701E02
$$ 1.000000E02, 2.766937E02
$$ 1.000000E02, 2.747227E02
$$ 1.000000E02, 2.727571E02
$$ 1.000000E02, 2.707969E02
$$ 1.000000E02, 2.688421E02
$$ 1.000000E02, 2.668927E02
$$ 1.000000E02, 2.649487E02
$$ 1.000000E02, 2.630101E02
$$ 1.000000E02, 2.610769E02
$$ 1.000000E02, 2.591491E02
$$ 1.000000E02, 2.572267E02
$$ 1.000000E02, 2.553097E02
$$ 1.000000E02, 2.533981E02
$$ 1.000000E02, 2.514919E02
$$ 1.000000E02, 2.495911E02
$$ 1.000000E02, 2.476957E02
$$ 1.000000E02, 2.458057E02
$$ 1.000000E02, 2.439211E02
$$ 1.000000E02, 2.420419E02
$$ 1.000000E02, 2.401681E02
$$ 1.000000E02, 2.382997E02
$$ 1.000000E02, 2.364367E02
$$ 1.000000E02, 2.345791E02
$$ 1.000000E02, 2.327269E02
$$ 1.000000E02, 2.308801E02
$$ 1.000000E02, 2.290387E02
$$ 1.000000E02, 2.272027E02
$$ 1.000000E02, 2.253721E02
$$ 1.000000E02, 2.235469E02
$$ 1.000000E02, 2.217271E02
$$ 1.000000E02, 2.199127E02
$$ 1.000000E02, 2.181037E02
$$ 1.000000E02, 2.163001E02
$$ 1.000000E02, 2.145019E02
$$ 1.000000E02, 2.127091E02
$$ 1.000000E02, 2.109217E02
$$ 1.000000E02, 2.091397E02
$$ 1.000000E02, 2.073631E02
$$ 1.000000E02, 2.055919E02
$$ 1.000000E02, 2.038261E02
$$ 1.000000E02, 2.020657E02
$$ 1.000000E02, 2.003107E02
$$ 1.000000E02, 1.985611E02
$$ 1.000000E02, 1.968169E02
$$ 1.000000E02, 1.950781E02
$$ 1.000000E02, 1.933447E02
$$ 1.000000E02, 1.916167E02
$$ 1.000000E02, 1.898941E02
$$ 1.000000E02, 1.881769E02
$$ 1.000000E02, 1.864651E02
$$ 1.000000E02, 1.847587E02
$$ 1.000000E02, 1.830577E02
$$ 1.000000E02, 1.813621E02
$$ 1.000000E02, 1.796719E02
$$ 1.000000E02, 1.779871E02
$$ 1.000000E02, 1.763077E02
$$ 1.000000E02, 1.746337E02
$$ 1.000000E02, 1.729651E02
$$ 1.000000E02, 1.713019E02
$$ 1.000000E02, 1.696441E02
$$ 1.000000E02, 1.679917E02
$$ 1.000000E02, 1.663447E02
$$ 1.000000E02, 1.647031E02
$$ 1.000000E02, 1.630669E02
$$ 1.000000E02, 1.614361E02
$$ 1.000000E02, 1.598107E02
$$ 1.000000E02, 1.581907E02
$$ 1.000000E02, 1.565761E02
$$ 1.000000E02, 1.549669E02
$$ 1.000000E02, 1.533631E02
$$ 1.000000E02, 1.517647E02
$$ 1.000000E02, 1.501717E02
$$ 1.000000E02, 1.485841E02
$$ 1.000000E02, 1.470019E02
$$ 1.000000E02, 1.454251E02
$$ 1.000000E02, 1.438537E02
$$ 1.000000E02, 1.422877E02
$$ 1.000000E02, 1.407271E02
$$ 1.000000E02, 1.391719E02
$$ 1.000000E02, 1.376221E02
$$ 1.000000E02, 1.360777E02
$$ 1.000000E02, 1.345387E02
$$ 1.000000E02, 1.330051E02
$$ 1.000000E02, 1.314769E02
$$ 1.000000E02, 1.299541E02
$$ 1.000000E02, 1.284367E02
$$ 1.000000E02, 1.269247E02
$$ 1.000000E02, 1.254181E02
$$ 1.000000E02, 1.239169E02
$$ 1.000000E02, 1.224211E02
$$ 1.000000E02, 1.209307E02
$$ 1.000000E02, 1.194457E02
$$ 1.000000E02, 1.179661E02
$$ 1.000000E02, 1.164919E02
$$ 1.000000E02, 1.150231E02
$$ 1.000000E02, 1.135597E02
$$ 1.000000E02, 1.121017E02
$$ 1.000000E02, 1.106491E02
$$ 1.000000E02, 1.092019E02
$$ 1.000000E02, 1.077601E02
$$ 1.000000E02, 1.063237E02
$$ 1.000000E02, 1.048927E02
$$ 1.000000E02, 1.034671E02
$$ 1.000000E02, 1.020469E02
$$ 1.000000E02, 1.006321E02
$$ 1.000000E02, 9.922267E01
$$ 1.000000E02, 9.781867E01
$$ 1.000000E02, 9.642008E01
$$ 1.000000E02, 9.502687E01
$$ 1.000000E02, 9.363907E01
$$ 1.000000E02, 9.225667E01
$$ 1.000000E02, 9.087967E01
$$ 1.000000E02, 8.950807E01
$$ 1.000000E02, 8.814188E01
$$ 1.000000E02, 8.678107E01
$$ 1.000000E02, 8.542567E01
$$ 1.000000E02, 8.407567E01
$$ 1.000000E02, 8.273107E01
$$ 1.000000E02, 8.139188E01
$$ 1.000000E02, 8.005807E01
$$ 1.000000E02, 7.872967E01
$$ 1.000000E02, 7.740667E01
$$ 1.000000E02, 7.608907E01
$$ 1.000000E02, 7.477687E01
$$ 1.000000E02, 7.347007E01
$$ 1.000000E02, 7.216868E01
$$ 1.000000E02, 7.087268E01
$$ 1.000000E02, 6.958208E01
$$ 1.000000E02, 6.829688E01
$$ 1.000000E02, 6.701708E01
$$ 1.000000E02, 6.574267E01
$$ 1.000000E02, 6.447367E01
$$ 1.000000E02, 6.321007E01
$$ 1.000000E02, 6.195188E01
$$ 1.000000E02, 6.069907E01
$$ 1.000000E02, 5.945167E01
$$ 1.000000E02, 5.820968E01
$$ 1.000000E02, 5.697307E01
$$ 1.000000E02, 5.574187E01
$$ 1.000000E02, 5.451608E01
$$ 1.000000E02, 5.329567E01
$$ 1.000000E02, 5.208067E01
$$ 1.000000E02, 5.087107E01
$$ 1.000000E02, 4.966687E01
$$ 1.000000E02, 4.846808E01
$$ 1.000000E02, 4.727468E01
$$ 1.000000E02, 4.608667E01
$$ 1.000000E02, 4.490408E01
$$ 1.000000E02, 4.372688E01
$$ 1.000000E02, 4.255507E01
$$ 1.000000E02, 4.138867E01
$$ 1.000000E02, 4.022767E01
$$ 1.000000E02, 3.907207E01
$$ 1.000000E02, 3.792187E01
$$ 1.000000E02, 3.677707E01
$$ 1.000000E02, 3.563767E01
$$ 1.000000E02, 3.450367E01
$$ 1.000000E02, 3.337507E01
$$ 1.000000E02, 3.225188E01
$$ 1.000000E02, 3.113407E01
$$ 1.000000E02, 3.002167E01
$$ 1.000000E02, 2.891467E01
$$ 1.000000E02, 2.781307E01
$$ 1.000000E02, 2.671688E01
$$ 1.000000E02, 2.562607E01
$$ 1.000000E02, 2.454067E01
$$ 1.000000E02, 2.346067E01
$$ 1.000000E02, 2.238608E01
$$ 1.000000E02, 2.131687E01
$$ 1.000000E02, 2.025307E01
$$ 1.000000E02, 1.919467E01
$$ 1.000000E02, 1.814167E01
$$ 1.000000E02, 1.709407E01
$$ 1.000000E02, 1.605187E01
$$ 1.000000E02, 1.501507E01
$$ 1.000000E02, 1.398367E01
$$ 1.000000E02, 1.295768E01
$$ 1.000000E02, 1.193707E01
$$ 1.000000E02, 1.092188E01
$$ 1.000000E02, 9.912075E00
$$ 1.000000E02, 8.907675E00
$$ 1.000000E02, 7.908675E00
$$ 1.000000E02, 6.915075E00
$$ 1.000000E02, 5.926875E00
$$ 1.000000E02, 4.944075E00
$$ 1.000000E02, 3.966675E00
$$ 1.000000E02, 2.994675E00
$$ 1.000000E02, 2.028075E00
$$ 1.000000E02, 1.066875E00
$$ 1.000000E02, 1.110750E-01
$$ 1.000000E02, 3.591607E02
$$ 1.000000E02, 3.582157E02
$$ 1.000000E02, 3.572761E02
$$ 1.000000E02, 3.563419E02
$$ 1.000000E02, 3.554131E02
$$ 1.000000E02, 3.544897E02
$$ 1.000000E02, 3.535717E02
$$ 1.000000E02, 3.526591E02
$$ 1.000000E02, 3.517519E02
$$ 1.000000E02, 3.508501E02
$$ 1.000000E02, 3.499537E02
$$ 1.000000E02, 3.490627E02
$$ 1.000000E02, 3.481771E02
$$ 1.000000E02, 3.472969E02
$$ 1.000000E02, 3.464221E02
$$ 1.000000E02, 3.455527E02
$$ 1.000000E02, 3.446887E02
$$ 1.000000E02, 3.438301E02
$$ 1.000000E02, 3.429769E02
$$ 1.000000E02, 3.421291E02
$$ 1.000000E02, 3.412867E02
$$ 1.000000E02, 3.404497E02
$$ 1.000000E02, 3.396181E02
$$ 1.000000E02, 3.387919E02
$$ 1.000000E02, 3.379711E02
$$ 1.000000E02, 3.371557E02
$$ 1.000000E02, 3.363457E02
$$ 1.000000E02, 3.355411E02
$$ 1.000000E02, 3.347419E02
$$ 1.000000E02, 3.339481E02
$$ 1.000000E02, 3.331597E02
$$ 1.000000E02, 3.323767E02
$$ 1.000000E02, 3.315991E02
$$ 1.000000E02, 3.308269E02
$$ 1.000000E02, 3.300601E02
$$ 1.000000E02, 3.292987E02
$$ 1.000000E02, 3.285427E02
$$ 1.000000E02, 3.277921E02
$$ 1.000000E02, 3.270469E02
$$ 1.000000E02, 3.263071E02
$$ 1.000000E02, 3.255727E02
$$ 1.000000E02, 3.248437E02
$$ 1.000000E02, 3.241201E02
$$ 1.000000E02, 3.234019E02
$$ 1.000000E02, 3.226891E02
$$ 1.000000E02, 3.219817E02
$$ 1.000000E02, 3.212797E02
$$ 1.000000E02, 3.205831E02
$$ 1.000000E02, 3.198919E02
$$ 1.000000E02, 3.192061E02
$$ 1.000000E02, 3.185257E02
$$ 1.000000E02, 3.178507E02
$$ 1.000000E02, 3.171811E02
$$ 1.000000E02, 3.165169E02
$$ 1.000000E02, 3.158581E02
$$ 1.000000E02, 3.152047E02
$$ 1.000000E02, 3.145567E02
$$ 1.000000E02, 3.139141E02
$$ 1.000000E02, 3.132769E02
$$ 1.000000E02, 3.126451E02
$$ 1.000000E02, 3.120187E02
$$ 1.000000E02, 3.113977E02
$$ 1.000000E02, 3.107821E02
$$ 1.000000E02, 3.101719E02
$$ 1.000000E02, 3.095671E02
$$ 1.000000E02, 3.089677E02
$$ 1.000000E02, 3.083737E02
$$ 1.000000E02, 3.077851E02
$$ 1.000000E02, 3.072019E02
$$ 1.000000E02, 3.066241E02
$$ 1.000000E02, 3.060517E02
$$ 1.000000E02, 3.054847E02
$$ 1.000000E02, 3.049231E02
$$ 1.000000E02, 3.043669E02
$$ 1.000000E02, 3.038161E02
$$ 1.000000E02, 3.032707E02
$$ 1.000000E02, 3.027307E02
$$ 1.000000E02, 3.021961E02
$$ 1.000000E02, 3.016669E02
$$ 1.000000E02, 3.011431E02
$$ 1.000000E02, 3.006247E02
$$ 1.000000E02, 3.001117E02
$$ 1.000000E02, 2.996041E02
$$ 1.000000E02, 2.991019E02
$$ 1.000000E02, 2.986051E02
$$ 1.000000E02, 2.981137E02
$$ 1.000000E02, 2.976277E02
$$ 1.000000E02, 2.971471E02
$$ 1.000000E02, 2.966719E02
$$ 1.000000E02, 2.962021E02
$$ 1.000000E02, 2.957377E02
$$ 1.000000E02, 2.952787E02
$$ 1.000000E02, 2.948251E02
$$ 1.000000E02, 2.943769E02
$$ 1.000000E02, 2.939341E02
$$ 1.000000E02, 2.934967E02
$$ 1.000000E02, 2.930647E02
$$ 1.000000E02, 2.926381E02
$$ 1.000000E02, 2.922169E02
$$ 1.000000E02, 2.918011E02
$$ 1.000000E02, 2.913907E02
$$ 1.000000E02, 2.909857E02
$$ 1.000000E02, 2.905861E02
$$ 1.000000E02, 2.901919E02
$$ 1.000000E02, 2.898031E02
$$ 1.000000E02, 2.894197E02
$$ 1.000000E02, 2.890417E02
$$ 1.000000E02, 2.886691E02
$$ 1.000000E02, 2.883019E02
$$ 1.000000E02, 2.879401E02
$$ 1.000000E02, 2.875837E02
$$ 1.000000E02, 2.872327E02
$$ 1.000000E02, 2.868871E02
$$ 1.000000E02, 2.865469E02
$$ 1.000000E02, 2.862121E02
$$ 1.000000E02, 2.858827E02
$$ 1.000000E02, 2.855587E02
$$ 1.000000E02, 2.852401E02
$$ 1.000000E02, 2.849269E02
$$ 1.000000E02, 2.846191E02
$$ 1.000000E02, 2.843167E02
$$ 1.000000E02, 2.840197E02
$$ 1.000000E02, 2.837281E02
$$ 1.000000E02, 2.834419E02
$$ 1.000000E02, 2.831611E02
$$ 1.000000E02, 2.828857E02
$$ 1.000000E02, 2.826157E02
$$ 1.000000E02, 2.823511E02
$$ 1.000000E02, 2.820919E02
$$ 1.000000E02, 2.818381E02
$$ 1.000000E02, 2.815897E02
$$ 1.000000E02, 2.813467E02
$$ 1.000000E02, 2.811091E02
$$ 1.000000E02, 2.808769E02
$$ 1.000000E02, 2.806501E02
$$ 1.000000E02, 2.804287E02
$$ 1.000000E02, 2.802127E02
$$ 1.000000E02, 2.800021E02
$$ 1.000000E02, 2.797969E02
$$ 1.000000E02, 2.795971E02
$$ 1.000000E02, 2.794027E02
$$ 1.000000E02, 2.792137E02
$$ 1.000000E02, 2.790301E02
$$ 1.000000E02, 2.788519E02
$$ 1.000000E02, 2.786791E02
$$ 1.000000E02, 2.785117E02
$$ 1.000000E02, 2.783497E02
$$ 1.000000E02, 2.781931E02
$$ 1.000000E02, 2.780419E02
$$ 1.000000E02, 2.778961E02
$$ 1.000000E02, 2.777557E02
$$ 1.000000E02, 2.776207E02
$$ 1.000000E02, 2.774911E02
$$ 1.000000E02, 2.773669E02
$$ 1.000000E02, 2.772481E02
$$ 1.000000E02, 2.771347E02
$$ 1.000000E02, 2.770267E02
$$ 1.000000E02, 2.769241E02
$$ 1.000000E02, 2.768269E02
$$ 1.000000E02, 2.767351E02
$$ 1.000000E02, 2.766487E02
$$ 1.000000E02, 2.765677E02
$$ 1.000000E02, 2.764921E02
$$ 1.000000E02, 2.764219E02
$$ 1.000000E02, 2.763571E02
$$ 1.000000E02, 2.762977E02
$$ 1.000000E02, 2.762437E02
$$ 1.000000E02, 2.761951E02
$$ 1.000000E02, 2.761519E02
$$ 1.000000E02, 2.761141E02
$$ 1.000000E02, 2.760817E02
$$ 1.000000E02, 2.760547E02
$$ 1.000000E02, 2.760331E02
$$ 1.000000E02, 2.760169E02
$$ 1.000000E02, 2.760061E02
$$ 1.000000E02, 2.760007E02
$$ 1.000000E02, 2.760007E02
$$ 1.000000E02, 2.760061E02
$$ 1.000000E02, 2.760169E02
$$ 1.000000E02, 2.760331E02
$$ 1.000000E02, 2.760547E02
$$ 1.000000E02, 2.760817E02
$$ 1.000000E02, 2.761141E02
$$ 1.000000E02, 2.761519E02
$$ 1.000000E02, 2.761951E02
$$ 1.000000E02, 2.762437E02
$$ 1.000000E02, 2.762977E02
$$ 1.000000E02, 2.763571E02
$$ 1.000000E02, 2.764219E02
$$ 1.000000E02, 2.764921E02
$$ 1.000000E02, 2.765677E02
$$ 1.000000E02, 2.766487E02
$$ 1.000000E02, 2.767351E02
$$ 1.000000E02, 2.768269E02
$$ 1.000000E02, 2.769241E02
$$ 1.000000E02, 2.770267E02
$$ 1.000000E02, 2.771347E02
$$ 1.000000E02, 2.772481E02
$$ 1.000000E02, 2.773669E02
$$ 1.000000E02, 2.774911E02
$$ 1.000000E02, 2.776207E02
$$ 1.000000E02, 2.777557E02
$$ 1.000000E02, 2.778961E02
$$ 1.000000E02, 2.780419E02
$$ 1.000000E02, 2.781931E02
$$ 1.000000E02, 2.783497E02
$$ 1.000000E02, 2.785117E02
$$ 1.000000E02, 2.786791E02
$$ 1.000000E02, 2.788519E02
$$ 1.000000E02, 2.790301E02
$$ 1.000000E02, 2.792137E02
$$ 1.000000E02, 2.794027E02
$$ 1.000000E02, 2.795971E02
$$ 1.000000E02, 2.797969E02
$$ 1.000000E02, 2.800021E02
$$ 1.000000E02, 2.802127E02
$$ 1.000000E02, 2.804287E02
$$ 1.000000E02, 2.806501E02
$$ 1.000000E02, 2.808769E02
$$ 1.000000E02, 2.811091E02
$$ 1.000000E02, 2.813467E02
$$ 1.000000E02, 2.815897E02
$$ 1.000000E02, 2.818381E02
$$ 1.000000E02, 2.820919E02
$$ 1.000000E02, 2.823511E02
$$ 1.000000E02, 2.826157E02
$$ 1.000000E02, 2.828857E02
$$ 1.000000E02, 2.831611E02
$$ 1.000000E02, 2.834419E02
$$ 1.000000E02, 2.837281E02
$$ 1.000000E02, 2.840197E02
$$ 1.000000E02, 2.843167E02
$$ 1.000000E02, 2.846191E02
$$ 1.000000E02, 2.849269E02
$$ 1.000000E02, 2.852401E02
$$ 1.000000E02, 2.855587E02
$$ 1.000000E02, 2.858827E02
$$ 1.000000E02, 2.862121E02
$$ 1.000000E02, 2.865469E02
$$ 1.000000E02, 2.868871E02
$$ 1.000000E02, 2.872327E02
$$ 1.000000E02, 2.875837E02
$$ 1.000000E02, 2.879401E02
$$ 1.000000E02, 2.883019E02
$$ 1.000000E02, 2.886691E02
$$ 1.000000E02, 2.890417E02
$$ 1.000000E02, 2.894197E02
$$ 1.000000E02, 2.898031E02
$$ 1.000000E02, 2.901919E02
$$ 1.000000E02, 2.905861E02
$$ 1.000000E02, 2.909857E02
$$ 1.000000E02, 2.913907E02
$$ 1.000000E02, 2.918011E02
$$ 1.000000E02, 2.922169E02
$$ 1.000000E02, 2.926381E02
$$ 1.000000E02, 2.930647E02
$$ 1.000000E02, 2.934967E02
$$ 1.000000E02, 2.939341E02
$$ 1.000000E02, 2.943769E02
$$ 1.000000E02, 2.948251E02
$$ 1.000000E02, 2.952787E02
$$ 1.000000E02, 2.957377E02
$$ 1.000000E02, 2.962021E02
$$ 1.000000E02, 2.966719E02
$$ 1.000000E02, 2.971471E02
$$ 1.000000E02, 2.976277E02
$$ 1.000000E02, 2.981137E02
$$ 1.000000E02, 2.986051E02
$$ 1.000000E02, 2.991019E02
$$ 1.000000E02, 2.996041E02
$$ 1.000000E02, 3.001117E02
$$ 1.000000E02, 3.006247E02
$$ 1.000000E02, 3.011431E02
$$ 1.000000E02, 3.016669E02
$$ 1.000000E02, 3.021961E02
$$ 1.000000E02, 3.027307E02
$$ 1.000000E02, 3.032707E02
$$ 1.000000E02, 3.038161E02
$$ 1.000000E02, 3.043669E02
$$ 1.000000E02, 3.049231E02
$$ 1.000000E02, 3.054847E02
$$ 1.000000E02, 3.060517E02
$$ 1.000000E02, 3.066241E02
$$ 1.000000E02, 3.072019E02
$$ 1.000000E02, 3.077851E02
$$ 1.000000E02, 3.083737E02
$$ 1.000000E02, 3.089677E02
$$ 1.000000E02, 3.095671E02
$$ 1.000000E02, 3.101719E02
$$ 1.000000E02, 3.107821E02
$$ 1.000000E02, 3.113977E02
$$ 1.000000E02, 3.120187E02
$$ 1.000000E02, 3.126451E02
$$ 1.000000E02, 3.132769E02
$$ 1.000000E02, 3.139141E02
$$ 1.000000E02, 3.145567E02
$$ 1.000000E02, 3.152047E02
$$ 1.000000E02, 3.158581E02
$$ 1.000000E02, 3.165169E02
$$ 1.000000E02, 3.171811E02
$$ 1.000000E02, 3.178507E02
$$ 1.000000E02, 3.185257E02
$$ 1.000000E02, 3.192061E02
$$ 1.000000E02, 3.198919E02
$$ 1.000000E02, 3.205831E02
$$ 1.000000E02, 3.212797E02
$$ 1.000000E02, 3.219817E02
$$ 1.000000E02, 3.226891E02
$$ 1.000000E02, 3.234019E02
$$ 1.000000E02, 3.241201E02
$$ 1.000000E02, 3.248437E02
$$ 1.000000E02, 3.255727E02
$$ 1.000000E02, 3.263071E02
$$ 1.000000E02, 3.270469E02
$$ 1.000000E02, 3.277921E02
$$ 1.000000E02, 3.285427E02
$$ 1.000000E02, 3.292987E02
$$ 1.000000E02, 3.300601E02
$$ 1.000000E02, 3.308269E02
$$ 1.000000E02, 3.315991E02
$$ 1.000000E02, 3.323767E02
$$ 1.000000E02, 3.331597E02
$$ 1.000000E02, 3.339481E02
$$ 1.000000E02, 3.347419E02
$$ 1.000000E02, 3.355411E02
$$ 1.000000E02, 3.363457E02
$$ 1.000000E02, 3.371557E02
$$ 1.000000E02, 3.379711E02
$$ 1.000000E02, 3.387919E02
$$ 1.000000E02, 3.396181E02
$$ 1.000000E02, 3.404497E02
$$ 1.000000E02, 3.412867E02
$$ 1.000000E02, 3.421291E02
$$ 1.000000E02, 3.429769E02
$$ 1.000000E02, 3.438301E02
$$ 1.000000E02, 3.446887E02
$$ 1.000000E02, 3.455527E02
$$ 1.000000E02, 3.464221E02
$$ 1.000000E02, 3.472969E02
$$ 1.000000E02, 3.481771E02
$$ 1.000000E02, 3.490627E02
$$ 1.000000E02, 3.499537E02
$$ 1.000000E02, 3.508501E02
$$ 1.000000E02, 3.517519E02
$$ 1.000000E02, 3.526591E02
$$ 1.000000E02, 3.535717E02
$$ 1.000000E02, 3.544897E02
$$ 1.000000E02, 3.554131E02
$$ 1.000000E02, 3.563419E02
$$ 1.000000E02, 3.572761E02
$$ 1.000000E02, 3.582157E02
$$ 1.000000E02, 3.591607E02
$$ 1.000000E02, 1.110750E-01
$$ 1.000000E02, 1.066875E00
$$ 1.000000E02, 2.028075E00
$$ 1.000000E02, 2.994675E00
$$ 1.000000E02, 3.966675E00
$$ 1.000000E02, 4.944075E00
$$ 1.000000E02, 5.926875E00
$$ 1.000000E02, 6.915075E00
$$ 1.000000E02, 7.908675E00
$$ 1.000000E02, 8.907675E00
$$ 1.000000E02, 9.912075E00
$$ 1.000000E02, 1.092188E01
$$ 1.000000E02, 1.193707E01
$$ 1.000000E02, 1.295768E01
$$ 1.000000E02, 1.398367E01
$$ 1.000000E02, 1.501507E01
$$ 1.000000E02, 1.605187E01
$$ 1.000000E02, 1.709407E01
$$ 1.000000E02, 1.814167E01
$$ 1.000000E02, 1.919467E01
$$ 1.000000E02, 2.025307E01
$$ 1.000000E02, 2.131687E01
$$ 1.000000E02, 2.238608E01
$$ 1.000000E02, 2.346067E01
$$ 1.000000E02, 2.454067E01
$$ 1.000000E02, 2.562607E01
$$ 1.000000E02, 2.671688E01
$$ 1.000000E02, 2.781307E01
$$ 1.000000E02, 2.891467E01
$$ 1.000000E02, 3.002167E01
$$ 1.000000E02, 3.113407E01
$$ 1.000000E02, 3.225188E01
$$ 1.000000E02, 3.337507E01
$$ 1.000000E02, 3.450367E01
$$ 1.000000E02, 3.563767E01
$$ 1.000000E02, 3.677707E01
$$ 1.000000E02, 3.792187E01
$$ 1.000000E02, 3.907207E01
$$ 1.000000E02, 4.022767E01
$$ 1.000000E02, 4.138867E01
$$ 1.000000E02, 4.255507E01
$$ 1.000000E02, 4.372688E01
$$ 1.000000E02, 4.490408E01
$$ 1.000000E02, 4.608667E01
$$ 1.000000E02, 4.727468E01
$$ 1.000000E02, 4.846808E01
$$ 1.000000E02, 4.966687E01
$$ 1.000000E02, 5.087107E01
$$ 1.000000E02, 5.208067E01
$$ 1.000000E02, 5.329567E01
$$ 1.000000E02, 5.451608E01
$$ 1.000000E02, 5.574187E01
$$ 1.000000E02, 5.697307E01
$$ 1.000000E02, 5.820968E01
$$ 1.000000E02, 5.945167E01
$$ 1.000000E02, 6.069907E01
$$ 1.000000E02, 6.195188E01
$$ 1.000000E02, 6.321007E01
$$ 1.000000E02, 6.447367E01
$$ 1.000000E02, 6.574267E01
$$ 1.000000E02, 6.701708E01
$$ 1.000000E02, 6.829688E01
$$ 1.000000E02, 6.958208E01
$$ 1.000000E02, 7.087268E01
$$ 1.000000E02, 7.216868E01
$$ 1.000000E02, 7.347007E01
$$ 1.000000E02, 7.477687E01
$$ 1.000000E02, 7.608907E01
$$ 1.000000E02, 7.740667E01
$$ 1.000000E02, 7.872967E01
$$ 1.000000E02, 8.005807E01
$$ 1.000000E02, 8.139188E01
$$ 1.000000E02, 8.273107E01
$$ 1.000000E02, 8.407567E01
$$ 1.000000E02, 8.542567E01
$$ 1.000000E02, 8.678107E01
$$ 1.000000E02, 8.814188E01
$$ 1.000000E02, 8.950807E01
$$ 1.000000E02, 9.087967E01
$$ 1.000000E02, 9.225667E01
$$ 1.000000E02, 9.363907E01
$$ 1.000000E02, 9.502687E01
$$ 1.000000E02, 9.642008E01
$$ 1.000000E02, 9.781867E01
$$ 1.000000E02, 9.922267E01
$$ 1.000000E02, 1.006321E02
$$ 1.000000E02, 1.020469E02
$$ 1.000000E02, 1.034671E02
$$ 1.000000E02, 1.048927E02
$$ 1.000000E02, 1.063237E02
$$ 1.000000E02, 1.077601E02
$$ 1.000000E02, 1.092019E02
$$ 1.000000E02, 1.106491E02
$$ 1.000000E02, 1.121017E02
$$ 1.000000E02, 1.135597E02
$$ 1.000000E02, 1.150231E02
$$ 1.000000E02, 1.164919E02
$$ 1.000000E02, 1.179661E02
$$ 1.000000E02, 1.194457E02
$$ 1.000000E02, 1.209307E02
$$ 1.000000E02, 1.224211E02
$$ 1.000000E02, 1.239169E02
$$ 1.000000E02, 1.254181E02
$$ 1.000000E02, 1.269247E02
$$ 1.000000E02, 1.284367E02
$$ 1.000000E02, 1.299541E02
$$ 1.000000E02, 1.314769E02
$$ 1.000000E02, 1.330051E02
$$ 1.000000E02, 1.345387E02
$$ 1.000000E02, 1.360777E02
$$ 1.000000E02, 1.376221E02
$$ 1.000000E02, 1.391719E02
$$ 1.000000E02, 1.407271E02
$$ 1.000000E02, 1.422877E02
$$ 1.000000E02, 1.438537E02
$$ 1.000000E02, 1.454251E02
$$ 1.000000E02, 1.470019E02
$$ 1.000000E02, 1.485841E02
$$ 1.000000E02, 1.501717E02
$$ 1.000000E02, 1.517647E02
$$ 1.000000E02, 1.533631E02
$$ 1.000000E02, 1.549669E02
$$ 1.000000E02, 1.565761E02
$$ 1.000000E02, 1.581907E02
$$ 1.000000E02, 1.598107E02
$$ 1.000000E02, 1.614361E02
$$ 1.000000E02, 1.630669E02
$$ 1.000000E02, 1.647031E02
$$ 1.000000E02, 1.663447E02
$$ 1.000000E02, 1.679917E02
$$ 1.000000E02, 1.696441E02
$$ 1.000000E02, 1.713019E02
$$ 1.000000E02, 1.729651E02
$$ 1.000000E02, 1.746337E02
$$ 1.000000E02, 1.763077E02
$$ 1.000000E02, 1.779871E02
$$ 1.000000E02, 1.796719E02
$$ 1.000000E02, 1.813621E02
$$ 1.000000E02, 1.830577E02
$$ 1.000000E02, 1.847587E02
$$ 1.000000E02, 1.864651E02
$$ 1.000000E02, 1.881769E02
$$ 1.000000E02, 1.898941E02
$$ 1.000000E02, 1.916167E02
$$ 1.000000E02, 1.933447E02
$$ 1.000000E02, 1.950781E02
$$ 1.000000E02, 1.968169E02
$$ 1.000000E02, 1.985611E02
$$ 1.000000E02, 2.003107E02
$$ 1.000000E02, 2.020657E02
$$ 1.000000E02, 2.038261E02
$$ 1.000000E02, 2.055919E02
$$ 1.000000E02, 2.073631E02
$$ 1.000000E02, 2.091397E02
$$ 1.000000E02, 2.109217E02
$$ 1.000000E02, 2.127091E02
$$ 1.000000E02, 2.145019E02
$$ 1.000000E02, 2.163001E02
$$ 1.000000E02, 2.181037E02
$$ 1.000000E02, 2.199127E02
$$ 1.000000E02, 2.217271E02
$$ 1.000000E02, 2.235469E02
$$ 1.000000E02, 2.253721E02
$$ 1.000000E02, 2.272027E02
$$ 1.000000E02, 2.290387E02
$$ 1.000000E02, 2.308801E02
$$ 1.000000E02, 2.327269E02
$$ 1.000000E02, 2.345791E02
$$ 1.000000E02, 2.364367E02
$$ 1.000000E02, 2.382997E02
$$ 1.000000E02, 2.401681E02
$$ 1.000000E02, 2.420419E02
$$ 1.000000E02, 2.439211E02
$$ 1.000000E02, 2.458057E02
$$ 1.000000E02, 2.476957E02
$$ 1.000000E02, 2.495911E02
$$ 1.000000E02, 2.514919E02
$$ 1.000000E02, 2.533981E02
$$ 1.000000E02, 2.553097E02
$$ 1.000000E02, 2.572267E02
$$ 1.000000E02, 2.591491E02
$$ 1.000000E02, 2.610769E02
$$ 1.000000E02, 2.630101E02
$$ 1.000000E02, 2.649487E02
$$ 1.000000E02, 2.668927E02
$$ 1.000000E02, 2.688421E02
$$ 1.000000E02, 2.707969E02
$$ 1.000000E02, 2.727571E02
$$ 1.000000E02, 2.747227E02
$$ 1.000000E02, 2.766937E02
$$ 1.000000E02, 2.786701E02
$$ 1.000000E02, 2.806519E02
$$ 1.000000E02, 2.826391E02
$$ 1.000000E02, 2.846317E02
$$ 1.000000E02, 2.866297E02
$$ 1.000000E02, 2.886331E02
$$ 1.000000E02, 2.906419E02
$$ 1.000000E02, 2.926561E02
$$ 1.000000E02, 2.946757E02
$$ 1.000000E02, 2.967007E02
$$ 1.000000E02, 2.987311E02
$$ 1.000000E02, 3.007669E02
$$ 1.000000E02, 3.028081E02
$$ 1.000000E02, 3.048547E02
$$ 1.000000E02, 3.069067E02
$$ 1.000000E02, 3.089641E02
$$ 1.000000E02, 3.110269E02
$$ 1.000000E02, 3.130951E02
$$ 1.000000E02, 3.151687E02
$$ 1.000000E02, 3.172477E02
$$ 1.000000E02, 3.193321E02
$$ 1.000000E02, 3.214219E02
$$ 1.000000E02, 3.235171E02
$$ 1.000000E02, 3.256177E02
$$ 1.000000E02, 3.277237E02
$$ 1.000000E02, 3.298351E02
$$ 1.000000E02, 3.319519E02
$$ 1.000000E02, 3.340741E02
$$ 1.000000E02, 3.362017E02
$$ 1.000000E02, 3.383347E02
$$ 1.000000E02, 3.404731E02
$$ 1.000000E02, 3.426169E02
$$ 1.000000E02, 3.447661E02
$$ 1.000000E02, 3.469207E02
$$ 1.000000E02, 3.490807E02
$$ 1.000000E02, 3.512461E02
$$ 1.000000E02, 3.534169E02
$$ 1.000000E02, 3.555931E02
$$ 1.000000E02, 3.577747E02
$$ 1.000000E02, 3.599617E02
$$ 1.000000E02, 2.154075E00
$$ 1.000000E02, 4.351875E00
$$ 1.000000E02, 6.555075E00
$$ 1.000000E02, 8.763675E00
$$ 1.000000E02, 1.097767E01
$$ 1.000000E02, 1.319707E01
$$ 1.000000E02, 1.542188E01
$$ 1.000000E02, 1.765207E01
$$ 1.000000E02, 1.988768E01
$$ 1.000000E02, 2.212867E01
$$ 1.000000E02, 2.437507E01
$$ 1.000000E02, 2.662687E01
$$ 1.000000E02, 2.888407E01
$$ 1.000000E02, 3.114668E01
$$ 1.000000E02, 3.341467E01
$$ 1.000000E02, 3.568807E01
$$ 1.000000E02, 3.796687E01
$$ 1.000000E02, 4.025107E01
$$ 1.000000E02, 4.254067E01
$$ 1.000000E02, 4.483567E01
$$ 1.000000E02, 4.713607E01
$$ 1.000000E02, 4.944187E01
$$ 1.000000E02, 5.175308E01
$$ 1.000000E02, 5.406967E01
$$ 1.000000E02, 5.639168E01
$$ 1.000000E02, 5.871907E01
$$ 1.000000E02, 6.105188E01
$$ 1.000000E02, 6.339007E01
$$ 1.000000E02, 6.573368E01
$$ 1.000000E02, 6.808267E01
$$ 1.000000E02, 7.043707E01
$$ 1.000000E02, 7.279687E01
$$ 1.000000E02, 7.516207E01
$$ 1.000000E02, 7.753268E01
$$ 1.000000E02, 7.990868E01
$$ 1.000000E02, 8.229008E01
$$ 1.000000E02, 8.467687E01
$$ 1.000000E02, 8.706908E01
$$ 1.000000E02, 8.946667E01
$$ 1.000000E02, 9.186968E01
$$ 1.000000E02, 9.427807E01
$$ 1.000000E02, 9.669187E01
$$ 1.000000E02, 9.911107E01
$$ 1.000000E02, 1.015357E02
$$ 1.000000E02, 1.039657E02
$$ 1.000000E02, 1.064011E02
$$ 1.000000E02, 1.088419E02
$$ 1.000000E02, 1.112881E02
$$ 1.000000E02, 1.137397E02
$$ 1.000000E02, 1.161967E02
$$ 1.000000E02, 1.186591E02
$$ 1.000000E02, 1.211269E02
$$ 1.000000E02, 1.236001E02
$$ 1.000000E02, 1.260787E02
$$ 1.000000E02, 1.285627E02
$$ 1.000000E02, 1.310521E02
$$ 1.000000E02, 1.335469E02
$$ 1.000000E02, 1.360471E02
$$ 1.000000E02, 1.385527E02
$$ 1.000000E02, 1.410637E02
$$ 1.000000E02, 1.435801E02
$$ 1.000000E02, 1.461019E02
$$ 1.000000E02, 1.486291E02
$$ 1.000000E02, 1.511617E02
$$ 1.000000E02, 1.536997E02
$$ 1.000000E02, 1.562431E02
$$ 1.000000E02, 1.587919E02
$$ 1.000000E02, 1.613461E02
$$ 1.000000E02, 1.639057E02
$$ 1.000000E02, 1.664707E02
$$ 1.000000E02, 1.690411E02
$$ 1.000000E02, 1.716169E02
$$ 1.000000E02, 1.741981E02
$$ 1.000000E02, 1.767847E02
$$ 1.000000E02, 1.793767E02
$$ 1.000000E02, 1.819741E02
$$ 1.000000E02, 1.845769E02
$$ 1.000000E02, 1.871851E02
$$ 1.000000E02, 1.897987E02
$$ 1.000000E02, 1.924177E02
$$ 1.000000E02, 1.950421E02
$$ 1.000000E02, 1.976719E02
$$ 1.000000E02, 2.003071E02
$$ 1.000000E02, 2.029477E02
$$ 1.000000E02, 2.055937E02
$$ 1.000000E02, 2.082451E02
$$ 1.000000E02, 2.109019E02
$$ 1.000000E02, 2.135641E02
$$ 1.000000E02, 2.162317E02
$$ 1.000000E02, 2.189047E02
$$ 1.000000E02, 2.215831E02
$$ 1.000000E02, 2.242669E02
$$ 1.000000E02, 2.269561E02
$$ 1.000000E02, 2.296507E02
$$ 1.000000E02, 2.323507E02
$$ 1.000000E02, 2.350561E02
$$ 1.000000E02, 2.377669E02
$$ 1.000000E02, 2.404831E02
$$ 1.000000E02, 2.432047E02
$$ 1.000000E02, 2.459317E02
$$ 1.000000E02, 2.486641E02
$$ 1.000000E02, 2.514019E02
$$ 1.000000E02, 2.541451E02
$$ 1.000000E02, 2.568937E02
$$ 1.000000E02, 2.596477E02
$$ 1.000000E02, 2.624071E02
$$ 1.000000E02, 2.651719E02
$$ 1.000000E02, 2.679421E02
$$ 1.000000E02, 2.707177E02
$$ 1.000000E02, 2.734987E02
$$ 1.000000E02, 2.762851E02
$$ 1.000000E02, 2.790769E02
$$ 1.000000E02, 2.818741E02
$$ 1.000000E02, 2.846767E02
$$ 1.000000E02, 2.874847E02
$$ 1.000000E02, 2.902981E02
$$ 1.000000E02, 2.931169E02
$$ 1.000000E02, 2.959411E02
$$ 1.000000E02, 2.987707E02
$$ 1.000000E02, 3.016057E02
$$ 1.000000E02, 3.044461E02
$$ 1.000000E02, 3.072919E02
$$ 1.000000E02, 3.101431E02
$$ 1.000000E02, 3.129997E02
$$ 1.000000E02, 3.158617E02
$$ 1.000000E02, 3.187291E02
$$ 1.000000E02, 3.216019E02
$$ 1.000000E02, 3.244801E02
$$ 1.000000E02, 3.273637E02
$$ 1.000000E02, 3.302527E02
$$ 1.000000E02, 3.331471E02
$$ 1.000000E02, 3.360469E02
$$ 1.000000E02, 3.389521E02
$$ 1.000000E02, 3.418627E02
$$ 1.000000E02, 3.447787E02
$$ 1.000000E02, 3.477001E02
$$ 1.000000E02, 3.506269E02
$$ 1.000000E02, 3.535591E02
$$ 1.000000E02, 3.564967E02
$$ 1.000000E02, 3.594397E02
$$ 1.000000E02, 2.388075E00
$$ 1.000000E02, 5.341875E00
$$ 1.000000E02, 8.301075E00
$$ 1.000000E02, 1.126567E01
$$ 1.000000E02, 1.423568E01
$$ 1.000000E02, 1.721107E01
$$ 1.000000E02, 2.019187E01
$$ 1.000000E02, 2.317807E01
$$ 1.000000E02, 2.616967E01
$$ 1.000000E02, 2.916667E01
$$ 1.000000E02, 3.216908E01
$$ 1.000000E02, 3.517687E01
$$ 1.000000E02, 3.819007E01
$$ 1.000000E02, 4.120867E01
$$ 1.000000E02, 4.423267E01
$$ 1.000000E02, 4.726207E01
$$ 1.000000E02, 5.029688E01
$$ 1.000000E02, 5.333708E01
$$ 1.000000E02, 5.638267E01
$$ 1.000000E02, 5.943367E01
$$ 1.000000E02, 6.249007E01
$$ 1.000000E02, 6.555187E01
$$ 1.000000E02, 6.861908E01
$$ 1.000000E02, 7.169167E01
$$ 1.000000E02, 7.476967E01
$$ 1.000000E02, 7.785307E01
$$ 1.000000E02, 8.094188E01
$$ 1.000000E02, 8.403608E01
$$ 1.000000E02, 8.713567E01
$$ 1.000000E02, 9.024067E01
$$ 1.000000E02, 9.335107E01
$$ 1.000000E02, 9.646687E01
$$ 1.000000E02, 9.958808E01
$$ 1.000000E02, 1.027147E02
$$ 1.000000E02, 1.058467E02
$$ 1.000000E02, 1.089841E02
$$ 1.000000E02, 1.121269E02
$$ 1.000000E02, 1.152751E02
$$ 1.000000E02, 1.184287E02
$$ 1.000000E02, 1.215877E02
$$ 1.000000E02, 1.247521E02
$$ 1.000000E02, 1.279219E02
$$ 1.000000E02, 1.310971E02
$$ 1.000000E02, 1.342777E02
$$ 1.000000E02, 1.374637E02
$$ 1.000000E02, 1.406551E02
$$ 1.000000E02, 1.438519E02
$$ 1.000000E02, 1.470541E02
$$ 1.000000E02, 1.502617E02
$$ 1.000000E02, 1.534747E02
$$ 1.000000E02, 1.566931E02
$$ 1.000000E02, 1.599169E02
$$ 1.000000E02, 1.631461E02
$$ 1.000000E02, 1.663807E02
$$ 1.000000E02, 1.696207E02
$$ 9.999923E01, 1.728661E02
$$ 9.999690E01, 1.761169E02
$$ 9.999303E01, 1.793731E02
$$ 9.998760E01, 1.826347E02
$$ 9.998063E01, 1.859017E02
$$ 9.997210E01, 1.891741E02
$$ 9.996203E01, 1.924519E02
$$ 9.995041E01, 1.957351E02
$$ 9.993724E01, 1.990237E02
$$ 9.992252E01, 2.023177E02
$$ 9.990625E01, 2.056171E02
$$ 9.988843E01, 2.089219E02
$$ 9.986906E01, 2.122321E02
$$ 9.984815E01, 2.155477E02
$$ 9.982569E01, 2.188687E02
$$ 9.980168E01, 2.221951E02
$$ 9.977613E01, 2.255269E02
$$ 9.974903E01, 2.288641E02
$$ 9.972038E01, 2.322067E02
$$ 9.969019E01, 2.355547E02
$$ 9.965845E01, 2.389081E02
$$ 9.962517E01, 2.422669E02
$$ 9.959034E01, 2.456311E02
$$ 9.955397E01, 2.490007E02
$$ 9.951606E01, 2.523757E02
$$ 9.947660E01, 2.557561E02
$$ 9.943561E01, 2.591419E02
$$ 9.939307E01, 2.625331E02
$$ 9.934899E01, 2.659297E02
$$ 9.930337E01, 2.693317E02
$$ 9.925621E01, 2.727391E02
$$ 9.920752E01, 2.761519E02
$$ 9.915728E01, 2.795701E02
$$ 9.910551E01, 2.829937E02
$$ 9.905221E01, 2.864227E02
$$ 9.899737E01, 2.898571E02
$$ 9.894099E01, 2.932969E02
$$ 9.888308E01, 2.967421E02
$$ 9.882364E01, 3.001927E02
$$ 9.876267E01, 3.036487E02
$$ 9.870016E01, 3.071101E02
$$ 9.863613E01, 3.105769E02
$$ 9.857057E01, 3.140491E02
$$ 9.850348E01, 3.175267E02
$$ 9.843486E01, 3.210097E02
$$ 9.836472E01, 3.244981E02
$$ 9.829305E01, 3.279919E02
$$ 9.821986E01, 3.314911E02
$$ 9.814515E01, 3.349957E02
$$ 9.806892E01, 3.385057E02
$$ 9.799116E01, 3.420211E02
$$ 9.791189E01, 3.455419E02
$$ 9.783110E01, 3.490681E02
$$ 9.774879E01, 3.525997E02
$$ 9.766497E01, 3.561367E02
$$ 9.757964E01, 3.596791E02
$$ 9.749279E01, 3.226875E00
$$ 9.740443E01, 6.780075E00
$$ 9.731457E01, 1.033867E01
$$ 9.722319E01, 1.390267E01
$$ 9.713031E01, 1.747207E01
$$ 9.703592E01, 2.104688E01
$$ 9.694003E01, 2.462707E01
$$ 9.684263E01, 2.821267E01
$$ 9.674374E01, 3.180367E01
$$ 9.664334E01, 3.540008E01
$$ 9.654145E01, 3.900188E01
$$ 9.643806E01, 4.260907E01
$$ 9.633318E01, 4.622167E01
$$ 9.622680E01, 4.983967E01
$$ 9.611893E01, 5.346308E01
$$ 9.600957E01, 5.709187E01
$$ 9.589873E01, 6.072607E01
$$ 9.578640E01, 6.436568E01
$$ 9.567258E01, 6.801067E01
$$ 9.555728E01, 7.166107E01
$$ 9.544050E01, 7.531687E01
$$ 9.532224E01, 7.897807E01
$$ 9.520250E01, 8.264468E01
$$ 9.508129E01, 8.631668E01
$$ 9.495861E01, 8.999407E01
$$ 9.483445E01, 9.367687E01
$$ 9.470882E01, 9.736507E01
$$ 9.458172E01, 1.010587E02
$$ 9.445316E01, 1.047577E02
$$ 9.432314E01, 1.084621E02
$$ 9.419165E01, 1.121719E02
$$ 9.405870E01, 1.158871E02
$$ 9.392430E01, 1.196077E02
$$ 9.378844E01, 1.233337E02
$$ 9.365112E01, 1.270651E02
$$ 9.351236E01, 1.308019E02
$$ 9.337214E01, 1.345441E02
$$ 9.323048E01, 1.382917E02
$$ 9.308737E01, 1.420447E02
$$ 9.294283E01, 1.458031E02
$$ 9.279684E01, 1.495669E02
$$ 9.264941E01, 1.533361E02
$$ 9.250054E01, 1.571107E02
$$ 9.235024E01, 1.608907E02
$$ 9.219852E01, 1.646761E02
$$ 9.204536E01, 1.684669E02
$$ 9.189077E01, 1.722631E02
$$ 9.173476E01, 1.760647E02
$$ 9.157733E01, 1.798717E02
$$ 9.141848E01, 1.836841E02
$$ 9.125822E01, 1.875019E02
$$ 9.109653E01, 1.913251E02
$$ 9.093344E01, 1.951537E02
$$ 9.076894E01, 1.989877E02
$$ 9.060303E01, 2.028271E02
$$ 9.043572E01, 2.066719E02
$$ 9.026700E01, 2.105221E02
$$ 9.009689E01, 2.143777E02
$$ 8.992538E01, 2.182387E02
$$ 8.975247E01, 2.221051E02
$$ 8.957818E01, 2.259769E02
$$ 8.940249E01, 2.298541E02
$$ 8.922542E01, 2.337367E02
$$ 8.904697E01, 2.376247E02
$$ 8.886714E01, 2.415181E02
$$ 8.868593E01, 2.454169E02
$$ 8.850335E01, 2.493211E02
$$ 8.831939E01, 2.532307E02
$$ 8.813407E01, 2.571457E02
$$ 8.794738E01, 2.610661E02
$$ 8.775932E01, 2.649919E02
$$ 8.756991E01, 2.689231E02
$$ 8.737914E01, 2.728597E02
$$ 8.718701E01, 2.768017E02
$$ 8.699354E01, 2.807491E02
$$ 8.679871E01, 2.847019E02
$$ 8.660254E01, 2.886601E02
$$ 8.640503E01, 2.926237E02
$$ 8.620618E01, 2.965927E02
$$ 8.600599E01, 3.005671E02
$$ 8.580447E01, 3.045469E02
$$ 8.560162E01, 3.085321E02
$$ 8.539744E01, 3.125227E02
$$ 8.519194E01, 3.165187E02
$$ 8.498512E01, 3.205201E02
$$ 8.477698E01, 3.245269E02
$$ 8.456753E01, 3.285391E02
$$ 8.435677E01, 3.325567E02
$$ 8.414470E01, 3.365797E02
$$ 8.393132E01, 3.406081E02
$$ 8.371665E01, 3.446419E02
$$ 8.350068E01, 3.486811E02
$$ 8.328341E01, 3.527257E02
$$ 8.306485E01, 3.567757E02
$$ 8.284501E01, 8.310750E-01
$$ 8.262388E01, 4.891875E00
$$ 8.240147E01, 8.958075E00
$$ 8.217778E01, 1.302967E01
$$ 8.195282E01, 1.710667E01
$$ 8.172659E01, 2.118908E01
$$ 8.149909E01, 2.527687E01
$$ 8.127033E01, 2.937007E01
$$ 8.104031E01, 3.346867E01
$$ 8.080904E01, 3.757267E01
$$ 8.057651E01, 4.168207E01
$$ 8.034273E01, 4.579688E01
$$ 8.010771E01, 4.991708E01
$$ 7.987145E01, 5.404267E01
$$ 7.963395E01, 5.817368E01
$$ 7.939521E01, 6.231007E01
$$ 7.915524E01, 6.645187E01
$$ 7.891405E01, 7.059908E01
$$ 7.867163E01, 7.475167E01
$$ 7.842800E01, 7.890967E01
$$ 7.818315E01, 8.307307E01
$$ 7.793709E01, 8.724187E01
$$ 7.768981E01, 9.141607E01
$$ 7.744134E01, 9.559567E01
$$ 7.719167E01, 9.978067E01
$$ 7.694079E01, 1.039711E02
$$ 7.668873E01, 1.081669E02
$$ 7.643548E01, 1.123681E02
$$ 7.618104E01, 1.165747E02
$$ 7.592542E01, 1.207867E02
$$ 7.566863E01, 1.250041E02
$$ 7.541066E01, 1.292269E02
$$ 7.515152E01, 1.334551E02
$$ 7.489122E01, 1.376887E02
$$ 7.462976E01, 1.419277E02
$$ 7.436714E01, 1.461721E02
$$ 7.410337E01, 1.504219E02
$$ 7.383845E01, 1.546771E02
$$ 7.357239E01, 1.589377E02
$$ 7.330519E01, 1.632037E02
$$ 7.303685E01, 1.674751E02
$$ 7.276738E01, 1.717519E02
$$ 7.249678E01, 1.760341E02
$$ 7.222505E01, 1.803217E02
$$ 7.195221E01, 1.846147E02
$$ 7.167825E01, 1.889131E02
$$ 7.140318E01, 1.932169E02
$$ 7.112701E01, 1.975261E02
$$ 7.084973E01, 2.018407E02
$$ 7.057135E01, 2.061607E02
$$ 7.029188E01, 2.104861E02
$$ 7.001132E01, 2.148169E02
$$ 6.972968E01, 2.191531E02
$$ 6.944696E01, 2.234947E02
$$ 6.916315E01, 2.278417E02
$$ 6.887828E01, 2.321941E02
$$ 6.859234E01, 2.365519E02
$$ 6.830534E01, 2.409151E02
$$ 6.801727E01, 2.452837E02
$$ 6.772816E01, 2.496577E02
$$ 6.743799E01, 2.540371E02
$$ 6.714678E01, 2.584219E02
$$ 6.685453E01, 2.628121E02
$$ 6.656124E01, 2.672077E02
$$ 6.626692E01, 2.716087E02
$$ 6.597157E01, 2.760151E02
$$ 6.567520E01, 2.804269E02
$$ 6.537782E01, 2.848441E02
$$ 6.507941E01, 2.892667E02
$$ 6.478001E01, 2.936947E02
$$ 6.447959E01, 2.981281E02
$$ 6.417818E01, 3.025669E02
$$ 6.387577E01, 3.070111E02
$$ 6.357237E01, 3.114607E02
$$ 6.326799E01, 3.159157E02
$$ 6.296263E01, 3.203761E02
$$ 6.265629E01, 3.248419E02
$$ 6.234898E01, 3.293131E02
$$ 6.204070E01, 3.337897E02
$$ 6.173147E01, 3.382717E02
$$ 6.142127E01, 3.427591E02
$$ 6.111012E01, 3.472519E02
$$ 6.079803E01, 3.517501E02
$$ 6.048499E01, 3.562537E02
$$ 6.017102E01, 7.626750E-01
$$ 5.985612E01, 5.277075E00
$$ 5.954028E01, 9.796875E00
$$ 5.922353E01, 1.432207E01
$$ 5.890585E01, 1.885268E01
$$ 5.858726E01, 2.338867E01
$$ 5.826777E01, 2.793007E01
$$ 5.794737E01, 3.247687E01
$$ 5.762607E01, 3.702907E01
$$ 5.730388E01, 4.158668E01
$$ 5.698081E01, 4.614968E01
$$ 5.665684E01, 5.071807E01
$$ 5.633201E01, 5.529187E01
$$ 5.600629E01, 5.987107E01
$$ 5.567971E01, 6.445567E01
$$ 5.535227E01, 6.904567E01
$$ 5.502397E01, 7.364107E01
$$ 5.469482E01, 7.824187E01
$$ 5.436481E01, 8.284807E01
$$ 5.403397E01, 8.745968E01
$$ 5.370229E01, 9.207667E01
$$ 5.336978E01, 9.669908E01
$$ 5.303643E01, 1.013269E02
$$ 5.270227E01, 1.059601E02
$$ 5.236729E01, 1.105987E02
$$ 5.203150E01, 1.152427E02
$$ 5.169490E01, 1.198921E02
$$ 5.135750E01, 1.245469E02
$$ 5.101931E01, 1.292071E02
$$ 5.068032E01, 1.338727E02
$$ 5.034055E01, 1.385437E02
$$ 5.000000E01, 1.432201E02
$$ 4.965867E01, 1.479019E02
$$ 4.931658E01, 1.525891E02
$$ 4.897372E01, 1.572817E02
$$ 4.863010E01, 1.619797E02
$$ 4.828573E01, 1.666831E02
$$ 4.794060E01, 1.713919E02
$$ 4.759474E01, 1.761061E02
$$ 4.724814E01, 1.808257E02
$$ 4.690080E01, 1.855507E02
$$ 4.655274E01, 1.902811E02
$$ 4.620396E01, 1.950169E02
$$ 4.585446E01, 1.997581E02
$$ 4.550425E01, 2.045047E02
$$ 4.515334E01, 2.092567E02
$$ 4.480172E01, 2.140141E02
$$ 4.444941E01, 2.187769E02
$$ 4.409641E01, 2.235451E02
$$ 4.374273E01, 2.283187E02
$$ 4.338837E01, 2.330977E02
$$ 4.303334E01, 2.378821E02
$$ 4.267764E01, 2.426719E02
$$ 4.232128E01, 2.474671E02
$$ 4.196427E01, 2.522677E02
$$ 4.160660E01, 2.570737E02
$$ 4.124829E01, 2.618851E02
$$ 4.088934E01, 2.667019E02
$$ 4.052975E01, 2.715241E02
$$ 4.016954E01, 2.763517E02
$$ 3.980871E01, 2.811847E02
$$ 3.944726E01, 2.860231E02
$$ 3.908519E01, 2.908669E02
$$ 3.872252E01, 2.957161E02
$$ 3.835925E01, 3.005707E02
$$ 3.799539E01, 3.054307E02
$$ 3.763094E01, 3.102961E02
$$ 3.726590E01, 3.151669E02
$$ 3.690029E01, 3.200431E02
$$ 3.653410E01, 3.249247E02
$$ 3.616735E01, 3.298117E02
$$ 3.580004E01, 3.347041E02
$$ 3.543217E01, 3.396019E02
$$ 3.506376E01, 3.445051E02
$$ 3.469480E01, 3.494137E02
$$ 3.432530E01, 3.543277E02
$$ 3.395527E01, 3.592471E02
$$ 3.358471E01, 4.171875E00
$$ 3.321364E01, 9.102075E00
$$ 3.284205E01, 1.403768E01
$$ 3.246995E01, 1.897867E01
$$ 3.209734E01, 2.392508E01
$$ 3.172424E01, 2.887687E01
$$ 3.135065E01, 3.383407E01
$$ 3.097657E01, 3.879668E01
$$ 3.060201E01, 4.376467E01
$$ 3.022698E01, 4.873808E01
$$ 2.985148E01, 5.371687E01
$$ 2.947552E01, 5.870107E01
$$ 2.909910E01, 6.369067E01
$$ 2.872223E01, 6.868567E01
$$ 2.834491E01, 7.368607E01
$$ 2.796715E01, 7.869187E01
$$ 2.758896E01, 8.370307E01
$$ 2.721035E01, 8.871967E01
$$ 2.683131E01, 9.374168E01
$$ 2.645185E01, 9.876907E01
$$ 2.607199E01, 1.038019E02
$$ 2.569172E01, 1.088401E02
$$ 2.531105E01, 1.138837E02
$$ 2.492999E01, 1.189327E02
$$ 2.454855E01, 1.239871E02
$$ 2.416672E01, 1.290469E02
$$ 2.378452E01, 1.341121E02
$$ 2.340195E01, 1.391827E02
$$ 2.301902E01, 1.442587E02
$$ 2.263573E01, 1.493401E02
$$ 2.225209E01, 1.544269E02
$$ 2.186811E01, 1.595191E02
$$ 2.148379E01, 1.646167E02
$$ 2.109913E01, 1.697197E02
$$ 2.071415E01, 1.748281E02
$$ 2.032884E01, 1.799419E02
$$ 1.994322E01, 1.850611E02
$$ 1.955729E01, 1.901857E02
$$ 1.917106E01, 1.953157E02
$$ 1.878453E01, 2.004511E02
$$ 1.839771E01, 2.055919E02
$$ 1.801061E01, 2.107381E02
$$ 1.762323E01, 2.158897E02
$$ 1.723557E01, 2.210467E02
$$ 1.684764E01, 2.262091E02
$$ 1.645946E01, 2.313769E02
$$ 1.607102E01, 2.365501E02
$$ 1.568233E01, 2.417287E02
$$ 1.529340E01, 2.469127E02
$$ 1.490423E01, 2.521021E02
$$ 1.451483E01, 2.572969E02
$$ 1.412520E01, 2.624971E02
$$ 1.373536E01, 2.677027E02
$$ 1.334530E01, 2.729137E02
$$ 1.295503E01, 2.781301E02
$$ 1.256457E01, 2.833519E02
$$ 1.217391E01, 2.885791E02
$$ 1.178306E01, 2.938117E02
$$ 1.139203E01, 2.990497E02
$$ 1.100082E01, 3.042931E02
$$ 1.060944E01, 3.095419E02
$$ 1.021790E01, 3.147961E02
$$ 9.826200E00, 3.200557E02
$$ 9.434347E00, 3.253207E02
$$ 9.042348E00, 3.305911E02
$$ 8.650208E00, 3.358669E02
$$ 8.257935E00, 3.411481E02
$$ 7.865533E00, 3.464347E02
$$ 7.473009E00, 3.517267E02
$$ 7.080370E00, 3.570241E02
$$ 6.687621E00, 2.326875E00
$$ 6.294768E00, 7.635075E00
$$ 5.901818E00, 1.294867E01
$$ 5.508776E00, 1.826768E01
$$ 5.115649E00, 2.359208E01
$$ 4.722442E00, 2.892187E01
$$ 4.329163E00, 3.425707E01
$$ 3.935816E00, 3.959767E01
$$ 3.542408E00, 4.494368E01
$$ 3.148946E00, 5.029508E01
$$ 2.755434E00, 5.565187E01
$$ 2.361880E00, 6.101408E01
$$ 1.968289E00, 6.638167E01
$$ 1.574668E00, 7.175467E01
$$ 1.181022E00, 7.713307E01
$$ 7.873584E-01, 8.251687E01
$$ 3.936823E-01, 8.790607E01
$$ 0.000000E00, 9.330067E01
$$ 0.000000E00, 1.833013E02
$$ 7.893367E-01, 1.779122E02
$$ 1.578624E00, 1.725338E02
$$ 2.367813E00, 1.671662E02
$$ 3.156855E00, 1.618093E02
$$ 3.945700E00, 1.564633E02
$$ 4.734299E00, 1.511282E02
$$ 5.522603E00, 1.458037E02
$$ 6.310563E00, 1.404901E02
$$ 7.098130E00, 1.351873E02
$$ 7.885255E00, 1.298954E02
$$ 8.671888E00, 1.246142E02
$$ 9.457981E00, 1.193437E02
$$ 1.024348E01, 1.140841E02
$$ 1.102835E01, 1.088353E02
$$ 1.181253E01, 1.035973E02
$$ 1.259597E01, 9.837015E01
$$ 1.337863E01, 9.315375E01
$$ 1.416045E01, 8.794815E01
$$ 1.494139E01, 8.275335E01
$$ 1.572140E01, 7.756935E01
$$ 1.650044E01, 7.239615E01
$$ 1.727844E01, 6.723375E01
$$ 1.805537E01, 6.208215E01
$$ 1.883117E01, 5.694135E01
$$ 1.960579E01, 5.181135E01
$$ 2.037920E01, 4.669215E01
$$ 2.115134E01, 4.158375E01
$$ 2.192216E01, 3.648615E01
$$ 2.269161E01, 3.139935E01
$$ 2.345965E01, 2.632335E01
$$ 2.422623E01, 2.125815E01
$$ 2.499130E01, 1.620375E01
$$ 2.575481E01, 1.116015E01
$$ 2.651671E01, 6.127350E00
$$ 2.727697E01, 1.105350E00
$$ 2.803552E01, 3.560941E02
$$ 2.879233E01, 3.510937E02
$$ 2.954734E01, 3.461042E02
$$ 3.030052E01, 3.411253E02
$$ 3.105180E01, 3.361573E02
$$ 3.180115E01, 3.312001E02
$$ 3.254852E01, 3.262537E02
$$ 3.329386E01, 3.213182E02
$$ 3.403713E01, 3.163933E02
$$ 3.477828E01, 3.114793E02
$$ 3.551726E01, 3.065761E02
$$ 3.625402E01, 3.016837E02
$$ 3.698853E01, 2.968021E02
$$ 3.772073E01, 2.919314E02
$$ 3.845058E01, 2.870713E02
$$ 3.917804E01, 2.822221E02
$$ 3.990306E01, 2.773837E02
$$ 4.062559E01, 2.725561E02
$$ 4.134558E01, 2.677394E02
$$ 4.206301E01, 2.629333E02
$$ 4.277781E01, 2.581382E02
$$ 4.348994E01, 2.533537E02
$$ 4.419937E01, 2.485802E02
$$ 4.490604E01, 2.438174E02
$$ 4.560992E01, 2.390654E02
$$ 4.631095E01, 2.343241E02
$$ 4.700910E01, 2.295937E02
$$ 4.770431E01, 2.248741E02
$$ 4.839656E01, 2.201653E02
$$ 4.908579E01, 2.154674E02
$$ 4.977196E01, 2.107801E02
$$ 5.045503E01, 2.061038E02
$$ 5.113496E01, 2.014381E02
$$ 5.181170E01, 1.967834E02
$$ 5.248522E01, 1.921393E02
$$ 5.315546E01, 1.875062E02
$$ 5.382239E01, 1.828837E02
$$ 5.448597E01, 1.782721E02
$$ 5.514615E01, 1.736713E02
$$ 5.580290E01, 1.690813E02
$$ 5.645617E01, 1.645021E02
$$ 5.710592E01, 1.599337E02
$$ 5.775212E01, 1.553761E02
$$ 5.839471E01, 1.508293E02
$$ 5.903367E01, 1.462934E02
$$ 5.966895E01, 1.417682E02
$$ 6.030051E01, 1.372537E02
$$ 6.092832E01, 1.327501E02
$$ 6.155232E01, 1.282573E02
$$ 6.217250E01, 1.237754E02
$$ 6.278880E01, 1.193041E02
$$ 6.340118E01, 1.148438E02
$$ 6.400962E01, 1.103941E02
$$ 6.461407E01, 1.059553E02
$$ 6.521449E01, 1.015274E02
$$ 6.581085E01, 9.711015E01
$$ 6.640311E01, 9.270375E01
$$ 6.699124E01, 8.830815E01
$$ 6.757518E01, 8.392335E01
$$ 6.815492E01, 7.954935E01
$$ 6.873041E01, 7.518615E01
$$ 6.930162E01, 7.083375E01
$$ 6.986851E01, 6.649215E01
$$ 7.043105E01, 6.216135E01
$$ 7.098920E01, 5.784135E01
$$ 7.154293E01, 5.353215E01
$$ 7.209220E01, 4.923375E01
$$ 7.263698E01, 4.494615E01
$$ 7.317723E01, 4.066935E01
$$ 7.371292E01, 3.640335E01
$$ 7.424402E01, 3.214815E01
$$ 7.477049E01, 2.790375E01
$$ 7.529231E01, 2.367015E01
$$ 7.580943E01, 1.944735E01
$$ 7.632183E01, 1.523535E01
$$ 7.682948E01, 1.103415E01
$$ 7.733233E01, 6.843750E00
$$ 7.783037E01, 2.664150E00
$$ 7.832356E01, 3.584954E02
$$ 7.881187E01, 3.543373E02
$$ 7.929527E01, 3.501902E02
$$ 7.977373E01, 3.460537E02
$$ 8.024722E01, 3.419282E02
$$ 8.071571E01, 3.378133E02
$$ 8.117917E01, 3.337094E02
$$ 8.163757E01, 3.296161E02
$$ 8.209089E01, 3.255337E02
$$ 8.253909E01, 3.214621E02
$$ 8.298215E01, 3.174013E02
$$ 8.342003E01, 3.133514E02
$$ 8.385272E01, 3.093122E02
$$ 8.428019E01, 3.052837E02
$$ 8.470240E01, 3.012662E02
$$ 8.511934E01, 2.972593E02
$$ 8.553097E01, 2.932634E02
$$ 8.593728E01, 2.892781E02
$$ 8.633823E01, 2.853038E02
$$ 8.673380E01, 2.813401E02
$$ 8.712396E01, 2.773873E02
$$ 8.750870E01, 2.734453E02
$$ 8.788799E01, 2.695142E02
$$ 8.826180E01, 2.655938E02
$$ 8.863011E01, 2.616842E02
$$ 8.899290E01, 2.577854E02
$$ 8.935014E01, 2.538973E02
$$ 8.970182E01, 2.500202E02
$$ 9.004790E01, 2.461537E02
$$ 9.038838E01, 2.422981E02
$$ 9.072323E01, 2.384533E02
$$ 9.105242E01, 2.346193E02
$$ 9.137594E01, 2.307962E02
$$ 9.169376E01, 2.269838E02
$$ 9.200588E01, 2.231821E02
$$ 9.231226E01, 2.193914E02
$$ 9.261288E01, 2.156114E02
$$ 9.290774E01, 2.118421E02
$$ 9.319681E01, 2.080838E02
$$ 9.348008E01, 2.043361E02
$$ 9.375751E01, 2.005993E02
$$ 9.402911E01, 1.968733E02
$$ 9.429485E01, 1.931581E02
$$ 9.455471E01, 1.894537E02
$$ 9.480868E01, 1.857602E02
$$ 9.505675E01, 1.820774E02
$$ 9.529889E01, 1.784053E02
$$ 9.553510E01, 1.747442E02
$$ 9.576535E01, 1.710937E02
$$ 9.598963E01, 1.674542E02
$$ 9.620794E01, 1.638253E02
$$ 9.642025E01, 1.602074E02
$$ 9.662655E01, 1.566001E02
$$ 9.682683E01, 1.530037E02
$$ 9.702108E01, 1.494181E02
$$ 9.720928E01, 1.458434E02
$$ 9.739143E01, 1.422794E02
$$ 9.756751E01, 1.387261E02
$$ 9.773751E01, 1.351837E02
$$ 9.790142E01, 1.316521E02
$$ 9.805923E01, 1.281314E02
$$ 9.821093E01, 1.246213E02
$$ 9.835651E01, 1.211222E02
$$ 9.849597E01, 1.176337E02
$$ 9.862928E01, 1.141562E02
$$ 9.875646E01, 1.106893E02
$$ 9.887747E01, 1.072333E02
$$ 9.899233E01, 1.037881E02
$$ 9.910102E01, 1.003537E02
$$ 9.920354E01, 9.693015E01
$$ 9.929987E01, 9.351735E01
$$ 9.939002E01, 9.011535E01
$$ 9.947397E01, 8.672415E01
$$ 9.955173E01, 8.334375E01
$$ 9.962328E01, 7.997415E01
$$ 9.968863E01, 7.661535E01
$$ 9.974776E01, 7.326735E01
$$ 9.980069E01, 6.993015E01
$$ 9.984739E01, 6.660375E01
$$ 9.988787E01, 6.328815E01
$$ 9.992213E01, 5.998335E01
$$ 9.995016E01, 5.668935E01
$$ 9.997196E01, 5.340615E01
$$ 9.998754E01, 5.013375E01
$$ 9.999688E01, 4.687215E01
$$ 1.000000E02, 4.362135E01
$$ 1.000000E02, 4.038135E01
$$ 1.000000E02, 3.715215E01
$$ 1.000000E02, 3.393375E01
$$ 1.000000E02, 3.072615E01
$$ 1.000000E02, 2.752935E01
$$ 1.000000E02, 2.434335E01
$$ 1.000000E02, 2.116815E01
$$ 1.000000E02, 1.800375E01
$$ 1.000000E02, 1.485015E01
$$ 1.000000E02, 1.170735E01
$$ 1.000000E02, 8.575350E00
$$ 1.000000E02, 5.454150E00
$$ 1.000000E02, 2.343750E00
$$ 1.000000E02, 3.592442E02
$$ 1.000000E02, 3.561554E02
$$ 1.000000E02, 3.530773E02
$$ 1.000000E02, 3.500102E02
$$ 1.000000E02, 3.469537E02
$$ 1.000000E02, 3.439082E02
$$ 1.000000E02, 3.408734E02
$$ 1.000000E02, 3.378493E02
$$ 1.000000E02, 3.348362E02
$$ 1.000000E02, 3.318337E02
$$ 1.000000E02, 3.288422E02
$$ 1.000000E02, 3.258613E02
$$ 1.000000E02, 3.228914E02
$$ 1.000000E02, 3.199322E02
$$ 1.000000E02, 3.169838E02
$$ 1.000000E02, 3.140461E02
$$ 1.000000E02, 3.111193E02
$$ 1.000000E02, 3.082033E02
$$ 1.000000E02, 3.052981E02
$$ 1.000000E02, 3.024038E02
$$ 1.000000E02, 2.995201E02
$$ 1.000000E02, 2.966474E02
$$ 1.000000E02, 2.937853E02
$$ 1.000000E02, 2.909342E02
$$ 1.000000E02, 2.880937E02
$$ 1.000000E02, 2.852642E02
$$ 1.000000E02, 2.824453E02
$$ 1.000000E02, 2.796373E02
$$ 1.000000E02, 2.768402E02
$$ 1.000000E02, 2.740537E02
$$ 1.000000E02, 2.712782E02
$$ 1.000000E02, 2.685133E02
$$ 1.000000E02, 2.657594E02
$$ 1.000000E02, 2.630161E02
$$ 1.000000E02, 2.602838E02
$$ 1.000000E02, 2.575622E02
$$ 1.000000E02, 2.548513E02
$$ 1.000000E02, 2.521513E02
$$ 1.000000E02, 2.494621E02
$$ 1.000000E02, 2.467838E02
$$ 1.000000E02, 2.441161E02
$$ 1.000000E02, 2.414593E02
$$ 1.000000E02, 2.388133E02
$$ 1.000000E02, 2.361781E02
$$ 1.000000E02, 2.335537E02
$$ 1.000000E02, 2.309401E02
$$ 1.000000E02, 2.283374E02
$$ 1.000000E02, 2.257454E02
$$ 1.000000E02, 2.231642E02
$$ 1.000000E02, 2.205938E02
$$ 1.000000E02, 2.180342E02
$$ 1.000000E02, 2.154853E02
$$ 1.000000E02, 2.129473E02
$$ 1.000000E02, 2.104201E02
$$ 1.000000E02, 2.079038E02
$$ 1.000000E02, 2.053982E02
$$ 1.000000E02, 2.029034E02
$$ 1.000000E02, 2.004194E02
$$ 1.000000E02, 1.979462E02
$$ 1.000000E02, 1.954838E02
$$ 1.000000E02, 1.930322E02
$$ 1.000000E02, 1.905913E02
$$ 1.000000E02, 1.881613E02
$$ 1.000000E02, 1.857421E02
$$ 1.000000E02, 1.833337E02
$$ 1.000000E02, 1.809362E02
$$ 1.000000E02, 1.785494E02
$$ 1.000000E02, 1.761733E02
$$ 1.000000E02, 1.738082E02
$$ 1.000000E02, 1.714538E02
$$ 1.000000E02, 1.691101E02
$$ 1.000000E02, 1.667773E02
$$ 1.000000E02, 1.644553E02
$$ 1.000000E02, 1.621441E02
$$ 1.000000E02, 1.598437E02
$$ 1.000000E02, 1.575542E02
$$ 1.000000E02, 1.552753E02
$$ 1.000000E02, 1.530073E02
$$ 1.000000E02, 1.507502E02
$$ 1.000000E02, 1.485038E02
$$ 1.000000E02, 1.462681E02
$$ 1.000000E02, 1.440433E02
$$ 1.000000E02, 1.418293E02
$$ 1.000000E02, 1.396261E02
$$ 1.000000E02, 1.374338E02
$$ 1.000000E02, 1.352521E02
$$ 1.000000E02, 1.330814E02
$$ 1.000000E02, 1.309214E02
$$ 1.000000E02, 1.287722E02
$$ 1.000000E02, 1.266337E02
$$ 1.000000E02, 1.245061E02
$$ 1.000000E02, 1.223893E02
$$ 1.000000E02, 1.202833E02
$$ 1.000000E02, 1.181881E02
$$ 1.000000E02, 1.161037E02
$$ 1.000000E02, 1.140301E02
$$ 1.000000E02, 1.119673E02
$$ 1.000000E02, 1.099154E02
$$ 1.000000E02, 1.078741E02
$$ 1.000000E02, 1.058438E02
$$ 1.000000E02, 1.038241E02
$$ 1.000000E02, 1.018153E02
$$ 1.000000E02, 9.981735E01
$$ 1.000000E02, 9.783015E01
$$ 1.000000E02, 9.585375E01
$$ 1.000000E02, 9.388815E01
$$ 1.000000E02, 9.193335E01
$$ 1.000000E02, 8.998935E01
$$ 1.000000E02, 8.805615E01
$$ 1.000000E02, 8.613375E01
$$ 1.000000E02, 8.422215E01
$$ 1.000000E02, 8.232135E01
$$ 1.000000E02, 8.043135E01
$$ 1.000000E02, 7.855215E01
$$ 1.000000E02, 7.668375E01
$$ 1.000000E02, 7.482615E01
$$ 1.000000E02, 7.297935E01
$$ 1.000000E02, 7.114335E01
$$ 1.000000E02, 6.931815E01
$$ 1.000000E02, 6.750375E01
$$ 1.000000E02, 6.570015E01
$$ 1.000000E02, 6.390735E01
$$ 1.000000E02, 6.212535E01
$$ 1.000000E02, 6.035415E01
$$ 1.000000E02, 5.859375E01
$$ 1.000000E02, 5.684415E01
$$ 1.000000E02, 5.510535E01
$$ 1.000000E02, 5.337735E01
$$ 1.000000E02, 5.166015E01
$$ 1.000000E02, 4.995375E01
$$ 1.000000E02, 4.825815E01
$$ 1.000000E02, 4.657335E01
$$ 1.000000E02, 4.489935E01
$$ 1.000000E02, 4.323615E01
$$ 1.000000E02, 4.158375E01
$$ 1.000000E02, 3.994215E01
$$ 1.000000E02, 3.831135E01
$$ 1.000000E02, 3.669135E01
$$ 1.000000E02, 3.508215E01
$$ 1.000000E02, 3.348375E01
$$ 1.000000E02, 3.189615E01
$$ 1.000000E02, 3.031935E01
$$ 1.000000E02, 2.875335E01
$$ 1.000000E02, 2.719815E01
$$ 1.000000E02, 2.565375E01
$$ 1.000000E02, 2.412015E01
$$ 1.000000E02, 2.259735E01
$$ 1.000000E02, 2.108535E01
$$ 1.000000E02, 1.958415E01
$$ 1.000000E02, 1.809375E01
$$ 1.000000E02, 1.661415E01
$$ 1.000000E02, 1.514535E01
$$ 1.000000E02, 1.368735E01
$$ 1.000000E02, 1.224015E01
$$ 1.000000E02, 1.080375E01
$$ 1.000000E02, 9.378150E00
$$ 1.000000E02, 7.963350E00
$$ 1.000000E02, 6.559350E00
$$ 1.000000E02, 5.166150E00
$$ 1.000000E02, 3.783750E00
$$ 1.000000E02, 2.412150E00
$$ 1.000000E02, 1.051350E00
$$ 1.000000E02, 3.597014E02
$$ 1.000000E02, 3.583622E02
$$ 1.000000E02, 3.570338E02
$$ 1.000000E02, 3.557161E02
$$ 1.000000E02, 3.544094E02
$$ 1.000000E02, 3.531133E02
$$ 1.000000E02, 3.518282E02
$$ 1.000000E02, 3.505538E02
$$ 1.000000E02, 3.492902E02
$$ 1.000000E02, 3.480373E02
$$ 1.000000E02, 3.467954E02
$$ 1.000000E02, 3.455642E02
$$ 1.000000E02, 3.443438E02
$$ 1.000000E02, 3.431342E02
$$ 1.000000E02, 3.419353E02
$$ 1.000000E02, 3.407474E02
$$ 1.000000E02, 3.395702E02
$$ 1.000000E02, 3.384038E02
$$ 1.000000E02, 3.372482E02
$$ 1.000000E02, 3.361034E02
$$ 1.000000E02, 3.349693E02
$$ 1.000000E02, 3.338461E02
$$ 1.000000E02, 3.327338E02
$$ 1.000000E02, 3.316322E02
$$ 1.000000E02, 3.305413E02
$$ 1.000000E02, 3.294614E02
$$ 1.000000E02, 3.283922E02
$$ 1.000000E02, 3.273338E02
$$ 1.000000E02, 3.262862E02
$$ 1.000000E02, 3.252494E02
$$ 1.000000E02, 3.242234E02
$$ 1.000000E02, 3.232082E02
$$ 1.000000E02, 3.222038E02
$$ 1.000000E02, 3.212102E02
$$ 1.000000E02, 3.202274E02
$$ 1.000000E02, 3.192554E02
$$ 1.000000E02, 3.182942E02
$$ 1.000000E02, 3.173438E02
$$ 1.000000E02, 3.164042E02
$$ 1.000000E02, 3.154754E02
$$ 1.000000E02, 3.145574E02
$$ 1.000000E02, 3.136502E02
$$ 1.000000E02, 3.127537E02
$$ 1.000000E02, 3.118682E02
$$ 1.000000E02, 3.109933E02
$$ 1.000000E02, 3.101294E02
$$ 1.000000E02, 3.092762E02
$$ 1.000000E02, 3.084338E02
$$ 1.000000E02, 3.076022E02
$$ 1.000000E02, 3.067814E02
$$ 1.000000E02, 3.059714E02
$$ 1.000000E02, 3.051722E02
$$ 1.000000E02, 3.043838E02
$$ 1.000000E02, 3.036062E02
$$ 1.000000E02, 3.028393E02
$$ 1.000000E02, 3.020834E02
$$ 1.000000E02, 3.013382E02
$$ 1.000000E02, 3.006038E02
$$ 1.000000E02, 2.998802E02
$$ 1.000000E02, 2.991674E02
$$ 1.000000E02, 2.984654E02
$$ 1.000000E02, 2.977742E02
$$ 1.000000E02, 2.970938E02
$$ 1.000000E02, 2.964242E02
$$ 1.000000E02, 2.957654E02
$$ 1.000000E02, 2.951174E02
$$ 1.000000E02, 2.944802E02
$$ 1.000000E02, 2.938538E02
$$ 1.000000E02, 2.932382E02
$$ 1.000000E02, 2.926334E02
$$ 1.000000E02, 2.920394E02
$$ 1.000000E02, 2.914562E02
$$ 1.000000E02, 2.908837E02
$$ 1.000000E02, 2.903221E02
$$ 1.000000E02, 2.897714E02
$$ 1.000000E02, 2.892314E02
$$ 1.000000E02, 2.887022E02
$$ 1.000000E02, 2.881838E02
$$ 1.000000E02, 2.876762E02
$$ 1.000000E02, 2.871794E02
$$ 1.000000E02, 2.866934E02
$$ 1.000000E02, 2.862182E02
$$ 1.000000E02, 2.857537E02
$$ 1.000000E02, 2.853002E02
$$ 1.000000E02, 2.848574E02
$$ 1.000000E02, 2.844254E02
$$ 1.000000E02, 2.840042E02
$$ 1.000000E02, 2.835938E02
$$ 1.000000E02, 2.831942E02
$$ 1.000000E02, 2.828054E02
$$ 1.000000E02, 2.824274E02
$$ 1.000000E02, 2.820602E02
$$ 1.000000E02, 2.817038E02
$$ 1.000000E02, 2.813582E02
$$ 1.000000E02, 2.810234E02
$$ 1.000000E02, 2.806994E02
$$ 1.000000E02, 2.803862E02
$$ 1.000000E02, 2.800838E02
$$ 1.000000E02, 2.797922E02
$$ 1.000000E02, 2.795114E02
$$ 1.000000E02, 2.792414E02
$$ 1.000000E02, 2.789822E02
$$ 1.000000E02, 2.787338E02
$$ 1.000000E02, 2.784962E02
$$ 1.000000E02, 2.782694E02
$$ 1.000000E02, 2.780534E02
$$ 1.000000E02, 2.778482E02
$$ 1.000000E02, 2.776538E02
$$ 1.000000E02, 2.774702E02
$$ 1.000000E02, 2.772974E02
$$ 1.000000E02, 2.771354E02
$$ 1.000000E02, 2.769842E02
$$ 1.000000E02, 2.768438E02
$$ 1.000000E02, 2.767142E02
$$ 1.000000E02, 2.765954E02
$$ 1.000000E02, 2.764874E02
$$ 1.000000E02, 2.763902E02
$$ 1.000000E02, 2.763038E02
$$ 1.000000E02, 2.762282E02
$$ 1.000000E02, 2.761634E02
$$ 1.000000E02, 2.761094E02
$$ 1.000000E02, 2.760662E02
$$ 1.000000E02, 2.760338E02
$$ 1.000000E02, 2.760122E02
$$ 1.000000E02, 2.760014E02
$$ 1.000000E02, 2.760014E02
$$ 1.000000E02, 2.760122E02
$$ 1.000000E02, 2.760338E02
$$ 1.000000E02, 2.760662E02
$$ 1.000000E02, 2.761094E02
$$ 1.000000E02, 2.761634E02
$$ 1.000000E02, 2.762282E02
$$ 1.000000E02, 2.763038E02
$$ 1.000000E02, 2.763902E02
$$ 1.000000E02, 2.764874E02
$$ 1.000000E02, 2.765954E02
$$ 1.000000E02, 2.767142E02
$$ 1.000000E02, 2.768438E02
$$ 1.000000E02, 2.769842E02
$$ 1.000000E02, 2.771354E02
$$ 1.000000E02, 2.772974E02
$$ 1.000000E02, 2.774702E02
$$ 1.000000E02, 2.776538E02
$$ 1.000000E02, 2.778482E02
$$ 1.000000E02, 2.780534E02
$$ 1.000000E02, 2.782694E02
$$ 1.000000E02, 2.784962E02
$$ 1.000000E02, 2.787338E02
$$ 1.000000E02, 2.789822E02
$$ 1.000000E02, 2.792414E02
$$ 1.000000E02, 2.795114E02
$$ 1.000000E02, 2.797922E02
$$ 1.000000E02, 2.800838E02
$$ 1.000000E02, 2.803862E02
$$ 1.000000E02, 2.806994E02
$$ 1.000000E02, 2.810234E02
$$ 1.000000E02, 2.813582E02
$$ 1.000000E02, 2.817038E02
$$ 1.000000E02, 2.820602E02
$$ 1.000000E02, 2.824274E02
$$ 1.000000E02, 2.828054E02
$$ 1.000000E02, 2.831942E02
$$ 1.000000E02, 2.835938E02
$$ 1.000000E02, 2.840042E02
$$ 1.000000E02, 2.844254E02
$$ 1.000000E02, 2.848574E02
$$ 1.000000E02, 2.853002E02
$$ 1.000000E02, 2.857537E02
$$ 1.000000E02, 2.862182E02
$$ 1.000000E02, 2.866934E02
$$ 1.000000E02, 2.871794E02
$$ 1.000000E02, 2.876762E02
$$ 1.000000E02, 2.881838E02
$$ 1.000000E02, 2.887022E02
$$ 1.000000E02, 2.892314E02
$$ 1.000000E02, 2.897714E02
$$ 1.000000E02, 2.903221E02
$$ 1.000000E02, 2.908837E02
$$ 1.000000E02, 2.914562E02
$$ 1.000000E02, 2.920394E02
$$ 1.000000E02, 2.926334E02
$$ 1.000000E02, 2.932382E02
$$ 1.000000E02, 2.938538E02
$$ 1.000000E02, 2.944802E02
$$ 1.000000E02, 2.951174E02
$$ 1.000000E02, 2.957654E02
$$ 1.000000E02, 2.964242E02
$$ 1.000000E02, 2.970938E02
$$ 1.000000E02, 2.977742E02
$$ 1.000000E02, 2.984654E02
$$ 1.000000E02, 2.991674E02
$$ 1.000000E02, 2.998802E02
$$ 1.000000E02, 3.006038E02
$$ 1.000000E02, 3.013382E02
$$ 1.000000E02, 3.020834E02
$$ 1.000000E02, 3.028393E02
$$ 1.000000E02, 3.036062E02
$$ 1.000000E02, 3.043838E02
$$ 1.000000E02, 3.051722E02
$$ 1.000000E02, 3.059714E02
$$ 1.000000E02, 3.067814E02
$$ 1.000000E02, 3.076022E02
$$ 1.000000E02, 3.084338E02
$$ 1.000000E02, 3.092762E02
$$ 1.000000E02, 3.101294E02
$$ 1.000000E02, 3.109933E02
$$ 1.000000E02, 3.118682E02
$$ 1.000000E02, 3.127537E02
$$ 1.000000E02, 3.136502E02
$$ 1.000000E02, 3.145574E02
$$ 1.000000E02, 3.154754E02
$$ 1.000000E02, 3.164042E02
$$ 1.000000E02, 3.173438E02
$$ 1.000000E02, 3.182942E02
$$ 1.000000E02, 3.192554E02
$$ 1.000000E02, 3.202274E02
$$ 1.000000E02, 3.212102E02
$$ 1.000000E02, 3.222038E02
$$ 1.000000E02, 3.232082E02
$$ 1.000000E02, 3.242234E02
$$ 1.000000E02, 3.252494E02
$$ 1.000000E02, 3.262862E02
$$ 1.000000E02, 3.273338E02
$$ 1.000000E02, 3.283922E02
$$ 1.000000E02, 3.294614E02
$$ 1.000000E02, 3.305413E02
$$ 1.000000E02, 3.316322E02
$$ 1.000000E02, 3.327338E02
$$ 1.000000E02, 3.338461E02
$$ 1.000000E02, 3.349693E02
$$ 1.000000E02, 3.361034E02
$$ 1.000000E02, 3.372482E02
$$ 1.000000E02, 3.384038E02
$$ 1.000000E02, 3.395702E02
$$ 1.000000E02, 3.407474E02
$$ 1.000000E02, 3.419353E02
$$ 1.000000E02, 3.431342E02
$$ 1.000000E02, 3.443438E02
$$ 1.000000E02, 3.455642E02
$$ 1.000000E02, 3.467954E02
$$ 1.000000E02, 3.480373E02
$$ 1.000000E02, 3.492902E02
$$ 1.000000E02, 3.505538E02
$$ 1.000000E02, 3.518282E02
$$ 1.000000E02, 3.531133E02
$$ 1.000000E02, 3.544094E02
$$ 1.000000E02, 3.557161E02
$$ 1.000000E02, 3.570338E02
$$ 1.000000E02, 3.583622E02
$$ 1.000000E02, 3.597014E02
$$ 1.000000E02, 1.051350E00
$$ 1.000000E02, 2.412150E00
$$ 1.000000E02, 3.783750E00
$$ 1.000000E02, 5.166150E00
$$ 1.000000E02, 6.559350E00
$$ 1.000000E02, 7.963350E00
$$ 1.000000E02, 9.378150E00
$$ 1.000000E02, 1.080375E01
$$ 1.000000E02, 1.224015E01
$$ 1.000000E02, 1.368735E01
$$ 1.000000E02, 1.514535E01
$$ 1.000000E02, 1.661415E01
$$ 1.000000E02, 1.809375E01
$$ 1.000000E02, 1.958415E01
$$ 1.000000E02, 2.108535E01
$$ 1.000000E02, 2.259735E01
$$ 1.000000E02, 2.412015E01
$$ 1.000000E02, 2.565375E01
$$ 1.000000E02, 2.719815E01
$$ 1.000000E02, 2.875335E01
$$ 1.000000E02, 3.031935E01
$$ 1.000000E02, 3.189615E01
$$ 1.000000E02, 3.348375E01
$$ 1.000000E02, 3.508215E01
$$ 1.000000E02, 3.669135E01
$$ 1.000000E02, 3.831135E01
$$ 1.000000E02, 3.994215E01
$$ 1.000000E02, 4.158375E01
$$ 1.000000E02, 4.323615E01
$$ 1.000000E02, 4.489935E01
$$ 1.000000E02, 4.657335E01
$$ 1.000000E02, 4.825815E01
$$ 1.000000E02, 4.995375E01
$$ 1.000000E02, 5.166015E01
$$ 1.000000E02, 5.337735E01
$$ 1.000000E02, 5.510535E01
$$ 1.000000E02, 5.684415E01
$$ 1.000000E02, 5.859375E01
$$ 1.000000E02, 6.035415E01
$$ 1.000000E02, 6.212535E01
$$ 1.000000E02, 6.390735E01
$$ 1.000000E02, 6.570015E01
$$ 1.000000E02, 6.750375E01
$$ 1.000000E02, 6.931815E01
$$ 1.000000E02, 7.114335E01
$$ 1.000000E02, 7.297935E01
$$ 1.000000E02, 7.482615E01
$$ 1.000000E02, 7.668375E01
$$ 1.000000E02, 7.855215E01
$$ 1.000000E02, 8.043135E01
$$ 1.000000E02, 8.232135E01
$$ 1.000000E02, 8.422215E01
$$ 1.000000E02, 8.613375E01
$$ 1.000000E02, 8.805615E01
$$ 1.000000E02, 8.998935E01
$$ 1.000000E02, 9.193335E01
$$ 1.000000E02, 9.388815E01
$$ 1.000000E02, 9.585375E01
$$ 1.000000E02, 9.783015E01
$$ 1.000000E02, 9.981735E01
$$ 1.000000E02, 1.018153E02
$$ 1.000000E02, 1.038241E02
$$ 1.000000E02, 1.058438E02
$$ 1.000000E02, 1.078741E02
$$ 1.000000E02, 1.099154E02
$$ 1.000000E02, 1.119673E02
$$ 1.000000E02, 1.140301E02
$$ 1.000000E02, 1.161037E02
$$ 1.000000E02, 1.181881E02
$$ 1.000000E02, 1.202833E02
$$ 1.000000E02, 1.223893E02
$$ 1.000000E02, 1.245061E02
$$ 1.000000E02, 1.266337E02
$$ 1.000000E02, 1.287722E02
$$ 1.000000E02, 1.309214E02
$$ 1.000000E02, 1.330814E02
$$ 1.000000E02, 1.352521E02
$$ 1.000000E02, 1.374338E02
$$ 1.000000E02, 1.396261E02
$$ 1.000000E02, 1.418293E02
$$ 1.000000E02, 1.440433E02
$$ 1.000000E02, 1.462681E02
$$ 1.000000E02, 1.485038E02
$$ 1.000000E02, 1.507502E02
$$ 1.000000E02, 1.530073E02
$$ 1.000000E02, 1.552753E02
$$ 1.000000E02, 1.575542E02
$$ 1.000000E02, 1.598437E02
$$ 1.000000E02, 1.621441E02
$$ 1.000000E02, 1.644553E02
$$ 1.000000E02, 1.667773E02
$$ 1.000000E02, 1.691101E02
$$ 1.000000E02, 1.714538E02
$$ 1.000000E02, 1.738082E02
$$ 1.000000E02, 1.761733E02
$$ 1.000000E02, 1.785494E02
$$ 1.000000E02, 1.809362E02
$$ 1.000000E02, 1.833337E02
$$ 1.000000E02, 1.857421E02
$$ 1.000000E02, 1.881613E02
$$ 1.000000E02, 1.905913E02
$$ 1.000000E02, 1.930322E02
$$ 1.000000E02, 1.954838E02
$$ 1.000000E02, 1.979462E02
$$ 1.000000E02, 2.004194E02
$$ 1.000000E02, 2.029034E02
$$ 1.000000E02, 2.053982E02
$$ 1.000000E02, 2.079038E02
$$ 1.000000E02, 2.104201E02
$$ 1.000000E02, 2.129473E02
$$ 1.000000E02, 2.154853E02
$$ 1.000000E02, 2.180342E02
$$ 1.000000E02, 2.205938E02
$$ 1.000000E02, 2.231642E02
$$ 1.000000E02, 2.257454E02
$$ 1.000000E02, 2.283374E02
$$ 1.000000E02, 2.309401E02
$$ 1.000000E02, 2.335537E02
$$ 1.000000E02, 2.361781E02
$$ 1.000000E02, 2.388133E02
$$ 1.000000E02, 2.414593E02
$$ 1.000000E02, 2.441161E02
$$ 1.000000E02, 2.467838E02
$$ 1.000000E02, 2.494621E02
$$ 1.000000E02, 2.521513E02
$$ 1.000000E02, 2.548513E02
$$ 1.000000E02, 2.575622E02
$$ 1.000000E02, 2.602838E02
$$ 1.000000E02, 2.630161E02
$$ 1.000000E02, 2.657594E02
$$ 1.000000E02, 2.685133E02
$$ 1.000000E02, 2.712782E02
$$ 1.000000E02, 2.740537E02
$$ 1.000000E02, 2.768402E02
$$ 1.000000E02, 2.796373E02
$$ 1.000000E02, 2.824453E02
$$ 1.000000E02, 2.852642E02
$$ 1.000000E02, 2.880937E02
$$ 1.000000E02, 2.909342E02
$$ 1.000000E02, 2.937853E02
$$ 1.000000E02, 2.966474E02
$$ 1.000000E02, 2.995201E02
$$ 1.000000E02, 3.024038E02
$$ 1.000000E02, 3.052981E02
$$ 1.000000E02, 3.082033E02
$$ 1.000000E02, 3.111193E02
$$ 1.000000E02, 3.140461E02
$$ 1.000000E02, 3.169838E02
$$ 1.000000E02, 3.199322E02
$$ 1.000000E02, 3.228914E02
$$ 1.000000E02, 3.258613E02
$$ 1.000000E02, 3.288422E02
$$ 1.000000E02, 3.318337E02
$$ 1.000000E02, 3.348362E02
$$ 1.000000E02, 3.378493E02
$$ 1.000000E02, 3.408734E02
$$ 1.000000E02, 3.439082E02
$$ 1.000000E02, 3.469537E02
$$ 1.000000E02, 3.500102E02
$$ 1.000000E02, 3.530773E02
$$ 1.000000E02, 3.561554E02
$$ 1.000000E02, 3.592442E02
$$ 1.000000E02, 2.343750E00
$$ 1.000000E02, 5.454150E00
$$ 1.000000E02, 8.575350E00
$$ 1.000000E02, 1.170735E01
$$ 1.000000E02, 1.485015E01
$$ 1.000000E02, 1.800375E01
$$ 1.000000E02, 2.116815E01
$$ 1.000000E02, 2.434335E01
$$ 1.000000E02, 2.752935E01
$$ 1.000000E02, 3.072615E01
$$ 1.000000E02, 3.393375E01
$$ 1.000000E02, 3.715215E01
$$ 1.000000E02, 4.038135E01
$$ 1.000000E02, 4.362135E01
$$ 9.999688E01, 4.687215E01
$$ 9.998754E01, 5.013375E01
$$ 9.997196E01, 5.340615E01
$$ 9.995016E01, 5.668935E01
$$ 9.992213E01, 5.998335E01
$$ 9.988787E01, 6.328815E01
$$ 9.984739E01, 6.660375E01
$$ 9.980069E01, 6.993015E01
$$ 9.974776E01, 7.326735E01
$$ 9.968863E01, 7.661535E01
$$ 9.962328E01, 7.997415E01
$$ 9.955173E01, 8.334375E01
$$ 9.947397E01, 8.672415E01
$$ 9.939002E01, 9.011535E01
$$ 9.929987E01, 9.351735E01
$$ 9.920354E01, 9.693015E01
$$ 9.910102E01, 1.003537E02
$$ 9.899233E01, 1.037881E02
$$ 9.887747E01, 1.072333E02
$$ 9.875646E01, 1.106893E02
$$ 9.862928E01, 1.141562E02
$$ 9.849597E01, 1.176337E02
$$ 9.835651E01, 1.211222E02
$$ 9.821093E01, 1.246213E02
$$ 9.805923E01, 1.281314E02
$$ 9.790142E01, 1.316521E02
$$ 9.773751E01, 1.351837E02
$$ 9.756751E01, 1.387261E02
$$ 9.739143E01, 1.422794E02
$$ 9.720928E01, 1.458434E02
$$ 9.702108E01, 1.494181E02
$$ 9.682683E01, 1.530037E02
$$ 9.662655E01, 1.566001E02
$$ 9.642025E01, 1.602074E02
$$ 9.620794E01, 1.638253E02
$$ 9.598963E01, 1.674542E02
$$ 9.576535E01, 1.710937E02
$$ 9.553510E01, 1.747442E02
$$ 9.529889E01, 1.784053E02
$$ 9.505675E01, 1.820774E02
$$ 9.480868E01, 1.857602E02
$$ 9.455471E01, 1.894537E02
$$ 9.429485E01, 1.931581E02
$$ 9.402911E01, 1.968733E02
$$ 9.375751E01, 2.005993E02
$$ 9.348008E01, 2.043361E02
$$ 9.319681E01, 2.080838E02
$$ 9.290774E01, 2.118421E02
$$ 9.261288E01, 2.156114E02
$$ 9.231226E01, 2.193914E02
$$ 9.200588E01, 2.231821E02
$$ 9.169376E01, 2.269838E02
$$ 9.137594E01, 2.307962E02
$$ 9.105242E01, 2.346193E02
$$ 9.072323E01, 2.384533E02
$$ 9.038838E01, 2.422981E02
$$ 9.004790E01, 2.461537E02
$$ 8.970182E01, 2.500202E02
$$ 8.935014E01, 2.538973E02
$$ 8.899290E01, 2.577854E02
$$ 8.863011E01, 2.616842E02
$$ 8.826180E01, 2.655938E02
$$ 8.788799E01, 2.695142E02
$$ 8.750870E01, 2.734453E02
$$ 8.712396E01, 2.773873E02
$$ 8.673380E01, 2.813401E02
$$ 8.633823E01, 2.853038E02
$$ 8.593728E01, 2.892781E02
$$ 8.553097E01, 2.932634E02
$$ 8.511934E01, 2.972593E02
$$ 8.470240E01, 3.012662E02
$$ 8.428019E01, 3.052837E02
$$ 8.385272E01, 3.093122E02
$$ 8.342003E01, 3.133514E02
$$ 8.298215E01, 3.174013E02
$$ 8.253909E01, 3.214621E02
$$ 8.209089E01, 3.255337E02
$$ 8.163757E01, 3.296161E02
$$ 8.117917E01, 3.337094E02
$$ 8.071571E01, 3.378133E02
$$ 8.024722E01, 3.419282E02
$$ 7.977373E01, 3.460537E02
$$ 7.929527E01, 3.501902E02
$$ 7.881187E01, 3.543373E02
$$ 7.832356E01, 3.584954E02
$$ 7.783037E01, 2.664150E00
$$ 7.733233E01, 6.843750E00
$$ 7.682948E01, 1.103415E01
$$ 7.632183E01, 1.523535E01
$$ 7.580943E01, 1.944735E01
$$ 7.529231E01, 2.367015E01
$$ 7.477049E01, 2.790375E01
$$ 7.424402E01, 3.214815E01
$$ 7.371292E01, 3.640335E01
$$ 7.317723E01, 4.066935E01
$$ 7.263698E01, 4.494615E01
$$ 7.209220E01, 4.923375E01
$$ 7.154293E01, 5.353215E01
$$ 7.098920E01, 5.784135E01
$$ 7.043105E01, 6.216135E01
$$ 6.986851E01, 6.649215E01
$$ 6.930162E01, 7.083375E01
$$ 6.873041E01, 7.518615E01
$$ 6.815492E01, 7.954935E01
$$ 6.757518E01, 8.392335E01
$$ 6.699124E01, 8.830815E01
$$ 6.640311E01, 9.270375E01
$$ 6.581085E01, 9.711015E01
$$ 6.521449E01, 1.015274E02
$$ 6.461407E01, 1.059553E02
$$ 6.400962E01, 1.103941E02
$$ 6.340118E01, 1.148438E02
$$ 6.278880E01, 1.193041E02
$$ 6.217250E01, 1.237754E02
$$ 6.155232E01, 1.282573E02
$$ 6.092832E01, 1.327501E02
$$ 6.030051E01, 1.372537E02
$$ 5.966895E01, 1.417682E02
$$ 5.903367E01, 1.462934E02
$$ 5.839471E01, 1.508293E02
$$ 5.775212E01, 1.553761E02
$$ 5.710592E01, 1.599337E02
$$ 5.645617E01, 1.645021E02
$$ 5.580290E01, 1.690813E02
$$ 5.514615E01, 1.736713E02
$$ 5.448597E01, 1.782721E02
$$ 5.382239E01, 1.828837E02
$$ 5.315546E01, 1.875062E02
$$ 5.248522E01, 1.921393E02
$$ 5.181170E01, 1.967834E02
$$ 5.113496E01, 2.014381E02
$$ 5.045503E01, 2.061038E02
$$ 4.977196E01, 2.107801E02
$$ 4.908579E01, 2.154674E02
$$ 4.839656E01, 2.201653E02
$$ 4.770431E01, 2.248741E02
$$ 4.700910E01, 2.295937E02
$$ 4.631095E01, 2.343241E02
$$ 4.560992E01, 2.390654E02
$$ 4.490604E01, 2.438174E02
$$ 4.419937E01, 2.485802E02
$$ 4.348994E01, 2.533537E02
$$ 4.277781E01, 2.581382E02
$$ 4.206301E01, 2.629333E02
$$ 4.134558E01, 2.677394E02
$$ 4.062559E01, 2.725561E02
$$ 3.990306E01, 2.773837E02
$$ 3.917804E01, 2.822221E02
$$ 3.845058E01, 2.870713E02
$$ 3.772073E01, 2.919314E02
$$ 3.698853E01, 2.968021E02
$$ 3.625402E01, 3.016837E02
$$ 3.551726E01, 3.065761E02
$$ 3.477828E01, 3.114793E02
$$ 3.403713E01, 3.163933E02
$$ 3.329386E01, 3.213182E02
$$ 3.254852E01, 3.262537E02
$$ 3.180115E01, 3.312001E02
$$ 3.105180E01, 3.361573E02
$$ 3.030052E01, 3.411253E02
$$ 2.954734E01, 3.461042E02
$$ 2.879233E01, 3.510937E02
$$ 2.803552E01, 3.560941E02
$$ 2.727697E01, 1.105350E00
$$ 2.651671E01, 6.127350E00
$$ 2.575481E01, 1.116015E01
$$ 2.499130E01, 1.620375E01
$$ 2.422623E01, 2.125815E01
$$ 2.345965E01, 2.632335E01
$$ 2.269161E01, 3.139935E01
$$ 2.192216E01, 3.648615E01
$$ 2.115134E01, 4.158375E01
$$ 2.037920E01, 4.669215E01
$$ 1.960579E01, 5.181135E01
$$ 1.883117E01, 5.694135E01
$$ 1.805537E01, 6.208215E01
$$ 1.727844E01, 6.723375E01
$$ 1.650044E01, 7.239615E01
$$ 1.572140E01, 7.756935E01
$$ 1.494139E01, 8.275335E01
$$ 1.416045E01, 8.794815E01
$$ 1.337863E01, 9.315375E01
$$ 1.259597E01, 9.837015E01
$$ 1.181253E01, 1.035973E02
$$ 1.102835E01, 1.088353E02
$$ 1.024348E01, 1.140841E02
$$ 9.457981E00, 1.193437E02
$$ 8.671888E00, 1.246142E02
$$ 7.885255E00, 1.298954E02
$$ 7.098130E00, 1.351873E02
$$ 6.310563E00, 1.404901E02
$$ 5.522603E00, 1.458037E02
$$ 4.734299E00, 1.511282E02
$$ 3.945700E00, 1.564633E02
$$ 3.156855E00, 1.618093E02
$$ 2.367813E00, 1.671662E02
$$ 1.578624E00, 1.725338E02
$$ 7.893367E-01, 1.779122E02
$$ 0.000000E00, 1.833013E02
$$ ##END
##$RELAX= 
##$BRUKER FILE EXP=pulseprogram
$$ # 1 "/opt/topspin3.5pl7/exp/stan/nmr/lists/pp/deptsp90"
$$ ;deptsp90
$$ ;avance-version (14/10/09)
$$ ;dept polarization transfer
$$ ;with decoupling during acquisition
$$ ;using shaped pulse for 180degree pulse on f1 - channel
$$ ;with 90 degree read pulse to give XH only
$$ ;
$$ ;$CLASS=HighRes
$$ ;$DIM=1D
$$ ;$TYPE=
$$ ;$SUBTYPE=
$$ ;$COMMENT=
$$ 
$$ 
$$ # 1 "/opt/topspin3.5pl7/exp/stan/nmr/lists/pp/Avance.incl" 1
$$ ;Avance3.incl
$$ ;   for AV III
$$ ;
$$ ;avance-version (13/06/17)
$$ ;
$$ ;$CLASS=HighRes Incl
$$ ;$COMMENT=
$$ # 169 "/opt/topspin3.5pl7/exp/stan/nmr/lists/pp/Avance.incl"
$$ ;$Id: Avance3.incl,v 1.10.2.2 2013/08/30 09:43:33 ber Exp $
$$ # 15 "/opt/topspin3.5pl7/exp/stan/nmr/lists/pp/deptsp90" 2
$$ 
$$ # 1 "/opt/topspin3.5pl7/exp/stan/nmr/lists/pp/Delay.incl" 1
$$ ;Delay.incl  -  include file for commonly used delays
$$ ;
$$ ;version (13/08/07)
$$ ;
$$ ;$CLASS=HighRes Incl
$$ ;$COMMENT=
$$ 
$$ # 9 "/opt/topspin3.5pl7/exp/stan/nmr/lists/pp/Delay.incl"
$$ ;general delays
$$ 
$$ define delay DELTA
$$ define delay DELTA1
$$ define delay DELTA2
$$ define delay DELTA3
$$ define delay DELTA4
$$ define delay DELTA5
$$ define delay DELTA6
$$ define delay DELTA7
$$ define delay DELTA8
$$ define delay DELTA9
$$ define delay DELTA10
$$ define delay DELTA11
$$ define delay DELTA12
$$ define delay DELTA13
$$ define delay DELTA14
$$ define delay DELTA15
$$ define delay DELTA16
$$ 
$$ define delay TAU
$$ define delay TAU1
$$ define delay TAU2
$$ define delay TAU3
$$ define delay TAU4
$$ define delay TAU5
$$ define delay TAU6
$$ define delay TAU7
$$ define delay TAU8
$$ define delay TAU9
$$ # 40 "/opt/topspin3.5pl7/exp/stan/nmr/lists/pp/Delay.incl"
$$ define delay INCR1
$$ define delay INCR2
$$ define delay INCR3
$$ define delay INCR4
$$ define delay INCR5
$$ define delay INCR6
$$ 
$$ 
$$ ;delays for centering pulses
$$ # 50 "/opt/topspin3.5pl7/exp/stan/nmr/lists/pp/Delay.incl"
$$ define delay CEN_HN1
$$ define delay CEN_HN2
$$ define delay CEN_HN3
$$ define delay CEN_HC1
$$ define delay CEN_HC2
$$ define delay CEN_HC3
$$ define delay CEN_HC4
$$ define delay CEN_HP1
$$ define delay CEN_HP2
$$ define delay CEN_CN1
$$ define delay CEN_CN2
$$ define delay CEN_CN3
$$ define delay CEN_CN4
$$ define delay CEN_CP1
$$ define delay CEN_CP2
$$ 
$$ 
$$ ;loop counters
$$ # 69 "/opt/topspin3.5pl7/exp/stan/nmr/lists/pp/Delay.incl"
$$ define loopcounter COUNTER
$$ define loopcounter SCALEF
$$ define loopcounter FACTOR1
$$ define loopcounter FACTOR2
$$ define loopcounter FACTOR3
$$ define loopcounter FACTOR4
$$ define loopcounter FACTOR5
$$ define loopcounter FACTOR6
$$ 
$$ 
$$ # 80 "/opt/topspin3.5pl7/exp/stan/nmr/lists/pp/Delay.incl"
$$ ;$Id: Delay.incl,v 1.14.2.1 2013/08/30 09:43:33 ber Exp $
$$ # 16 "/opt/topspin3.5pl7/exp/stan/nmr/lists/pp/deptsp90" 2
$$ 
$$ 
$$ # 19 "/opt/topspin3.5pl7/exp/stan/nmr/lists/pp/deptsp90"
$$ "p4=p3*2"
$$ "d2=1s/(cnst2*2)"
$$ "d12=20u"
$$ 
$$ 
$$ "DELTA=p1*4/PI"
$$ # 27 "/opt/topspin3.5pl7/exp/stan/nmr/lists/pp/deptsp90"
$$ "acqt0=-p1*2/PI"
$$ 
$$ 
$$ # 1 "mc_line 30 file /opt/topspin3.5pl7/exp/stan/nmr/lists/pp/deptsp90 exp. def. part of mc cmd. before ze"
$$ ; dimension 1D; AQ_mode 
$$ define delay MCWRK
$$ define delay MCREST
$$ "MCREST = 30m - 30m"
$$ "MCWRK = 0.333333*30m"
$$ 
$$     dccorr
$$ # 30 "/opt/topspin3.5pl7/exp/stan/nmr/lists/pp/deptsp90"
$$ 1 ze
$$ # 1 "mc_line 30 file /opt/topspin3.5pl7/exp/stan/nmr/lists/pp/deptsp90 exp. def. of mc cmd. after ze"
$$ # 31 "/opt/topspin3.5pl7/exp/stan/nmr/lists/pp/deptsp90"
$$ # 1 "mc_line 31 file /opt/topspin3.5pl7/exp/stan/nmr/lists/pp/deptsp90 exp. start label for mc cmd."
$$ 2 MCWRK  * 2 do:f2
$$ LBLF0, MCWRK 
$$   MCREST
$$ # 32 "/opt/topspin3.5pl7/exp/stan/nmr/lists/pp/deptsp90"
$$   d1
$$   d12 pl1:f1 pl2:f2
$$   (p3 ph1):f2
$$   d2
$$   (p4 ph2):f2 
$$   (p1 ph4):f1
$$   d2 pl0:f1
$$   (p3 ph3):f2 (p13:sp5 ph5):f1
$$   d2
$$   DELTA pl12:f2
$$   go=2 ph31 cpd2:f2
$$ # 1 "mc_line 43 file /opt/topspin3.5pl7/exp/stan/nmr/lists/pp/deptsp90 exp. mc cmd. in line"
$$   MCWRK do:f2 wr #0
$$   MCWRK zd
$$   lo to LBLF0 times td0
$$ 
$$ # 44 "/opt/topspin3.5pl7/exp/stan/nmr/lists/pp/deptsp90"
$$ exit
$$ # 47 "/opt/topspin3.5pl7/exp/stan/nmr/lists/pp/deptsp90"
$$ ph1=0
$$ ph2=0 2 1 3
$$ ph3=1 1 1 1 3 3 3 3
$$ ph4=0 0 0 0 0 0 0 0 1 1 1 1 1 1 1 1
$$     2 2 2 2 2 2 2 2 3 3 3 3 3 3 3 3
$$ ph5=0 2 0 2 0 2 0 2 1 3 1 3 1 3 1 3
$$ ph31=1 1 3 3 3 3 1 1 2 2 0 0 0 0 2 2
$$      3 3 1 1 1 1 3 3 0 0 2 2 2 2 0 0
$$ 
$$ 
$$ ;pl0 : 0W
$$ ;pl1 : f1 channel - power level for pulse (default)
$$ ;pl2 : f2 channel - power level for pulse (default)
$$ ;pl12: f2 channel - power level for CPD/BB decoupling
$$ ;sp5: f1 channel - shaped pulse (180degree)
$$ ;spnam5: Crp60comp.4
$$ ;p1 : f1 channel -  90 degree high power pulse
$$ ;p3 : f2 channel -  90 degree high power pulse
$$ ;p4 : f2 channel - 180 degree high power pulse
$$ ;p13: f1 channel - 180 degree shaped pulse
$$ ;     = 2msec for Crp60comp.4
$$ ;d1 : relaxation delay; 1-5 * T1
$$ ;d2 : 1/(2J(XH))
$$ ;d12: delay for power switching                      [20 usec]
$$ ;cnst2: = J(XH)
$$ ;ns: 4 * n, total number of scans: NS * TD0
$$ ;ds: 8
$$ ;cpd2: decoupling according to sequence defined by cpdprg2
$$ ;pcpd2: f2 channel - 90 degree pulse for decoupling sequence
$$ # 78 "/opt/topspin3.5pl7/exp/stan/nmr/lists/pp/deptsp90"
$$ ;DELTA: delay to compensate for chemical shift evolution during
$$ ;          RF pulse in order to give same phase correction as
$$ ;          for reference 1D spectrum
$$ 
$$ 
$$ # 84 "/opt/topspin3.5pl7/exp/stan/nmr/lists/pp/deptsp90"
$$ ;$Id: deptsp90,v 1.12.2.1 2014/10/10 09:21:10 ber Exp $
##$RELAX= 
##$BRUKER FILE EXP=shimvalues
$$ # Mon May 19 13:53:37 2025
$$ #$$PROBEIDENTIFIER=Z800701_0081
$$ #$$PROBENAME=PA BBO 500S2 BB-H-D-05 Z
$$ #$$SHIMID=292722
$$ #
$$ # Active Shim Gradients
$$ #
$$ Z           		496             
$$ Z2          		2201            
$$ Z3          		-954            
$$ Z4          		3496            
$$ Z5          		-1243           
$$ Z6          		2909            
$$ Z7          		-973            
$$ Z8          		0               
$$ X           		1755            
$$ XZ          		-4875           
$$ XZ2         		1010            
$$ XZ3         		-6355           
$$ XZ4         		1379            
$$ XZ5         		10013           
$$ Y           		4289            
$$ YZ          		-10145          
$$ YZ2         		-4173           
$$ YZ3         		3481            
$$ YZ4         		-66             
$$ YZ5         		-12010          
$$ XY          		2927            
$$ XYZ         		-8055           
$$ XYZ2        		-6939           
$$ XYZ3        		-4244           
$$ XYZ4        		-2739           
$$ XYZ5        		0               
$$ (X2-Y2)     		11678           
$$ (X2-Y2)Z    		-10953          
$$ (X2-Y2)Z2   		1259            
$$ (X2-Y2)Z3   		6854            
$$ (X2-Y2)Z4   		1240            
$$ (X2-Y2)Z5   		0               
$$ X3          		2375            
$$ X3Z         		-6144           
$$ Y3          		4207            
$$ Y3Z         		6975            
$$ #
$$ # Lock Parameter
$$ #
$$ FIELD		5540.097
$$ LOCKPHASE		8.270   
$$ LOCKPOWER		-39.000 
$$ LOCKGAIN		118.200 
$$ LOCKDC		-75.000 
$$ LOCKSHIFT		4.700   
$$ LOOPGAIN		5.000   
$$ LOOPTIME		0.250   
$$ LOOPFILTER		500.000 
$$ #
$$ IEEE64_VERSION_CODE 1
$$ #
$$ # Shim currents 
$$ #
$$ SHIM_SETTING [1 ]  -77.44286391    
$$ SHIM_SETTING [2 ]  2103.53867476   
$$ SHIM_SETTING [3 ]  -1434.62766554  
$$ SHIM_SETTING [4 ]  -5401.09648915  
$$ SHIM_SETTING [5 ]  507.22399227    
$$ SHIM_SETTING [6 ]  2837.47911299   
$$ SHIM_SETTING [7 ]  5009.59034119   
$$ SHIM_SETTING [8 ]  9699.96760011   
$$ SHIM_SETTING [9 ]  1811.24052749   
$$ SHIM_SETTING [10]  3645.14557324   
$$ SHIM_SETTING [11]  0.00000000      
$$ SHIM_SETTING [12]  -2767.60200000  
$$ SHIM_SETTING [13]  11181.60200000  
$$ SHIM_SETTING [14]  4131.70300000   
$$ SHIM_SETTING [15]  -3712.13193415  
$$ SHIM_SETTING [16]  10579.02517589  
$$ SHIM_SETTING [17]  5980.10695149   
$$ SHIM_SETTING [18]  -6532.42167363  
$$ SHIM_SETTING [19]  6243.02693474   
$$ SHIM_SETTING [20]  -3072.77158500  
$$ SHIM_SETTING [21]  3498.87400000   
$$ SHIM_SETTING [22]  15280.36800000  
$$ SHIM_SETTING [23]  -2539.12700000  
$$ SHIM_SETTING [24]  21570.70100000  
$$ SHIM_SETTING [25]  9539.37000000   
$$ SHIM_SETTING [26]  727.49000000    
$$ SHIM_SETTING [27]  -1827.95400000  
$$ SHIM_SETTING [28]  -11505.40920943 
$$ SHIM_SETTING [29]  -5065.22500000  
$$ SHIM_SETTING [30]  7022.84400000   
$$ SHIM_SETTING [31]  -3973.73069964  
$$ SHIM_SETTING [32]  10825.77154044  
$$ SHIM_SETTING [33]  -17506.44300000 
$$ SHIM_SETTING [34]  4873.22900000   
$$ SHIM_SETTING [35]  7752.75800000   
$$ SHIM_SETTING [36]  13742.15300000  
$$ SHIM_SETTING [37]  14593.66059354  
$$ SHIM_SETTING [38]  -8098.86273504  
$$ SHIM_SETTING [39]  18073.21515760  
$$ SHIM_SETTING [40]  0.00000000      
##$RELAX= 
##$BRUKER FILE EXP=uxnmr.par
$$ ##TITLE= Parameter file, TopSpin 3.5 pl 7
$$ ##JCAMPDX= 5.0
$$ ##DATATYPE= Parameter Values
$$ ##NPOINTS= 104	$$ modification sequence number
$$ ##ORIGIN= Bruker BioSpin GmbH
$$ ##OWNER= nmrsu
$$ $$ 2025-04-09 09:16:50.742 +0200  aci@chem-nmr500
$$ $$ /opt/topspin3.5pl7/conf/instr/spect/uxnmr.par
$$ $$ process /opt/topspin3.5pl7/prog/mod/cfserverav3
$$ ##$ACB= 0
$$ ##$ACBTAT= (0..23)
$$ 0 72 88 50 50 0 0 0 0 0 0 0 0 0 0 0 0 0 0 0 0 0 0 0
$$ ##$ACBTBA= (0..23)
$$ 0 0 0 0 0 0 0 0 0 0 0 0 0 0 0 0 0 0 0 0 0 0 0 0
$$ ##$ACBTBLK= (0..23)
$$ 0 34 33 36 1 0 0 0 0 0 0 0 0 0 0 0 0 0 0 0 0 0 0 0
$$ ##$ACBTCTL= (0..23)
$$ 0 6 6 6 6 0 0 0 0 0 0 0 0 0 0 0 0 0 0 0 0 0 0 0
$$ ##$ACBTDI= (0..23)
$$ 0 -1779670023 -1779670023 -1779670023 -1779670252 0 0 0 0 0 0 0 0 0 0 0
$$ 0 0 0 0 0 0 0 0
$$ ##$ACBTDM= (0..23)
$$ 0 25 6 10 10 0 0 0 0 0 0 0 0 0 0 0 0 0 0 0 0 0 0 0
$$ ##$ACBTFHI= (0..23)
$$ 0 600 365 92 78 0 0 0 0 0 0 0 0 0 0 0 0 0 0 0 0 0 0 0
$$ ##$ACBTFL= (0..23)
$$ 0 248 248 88 8 0 0 0 0 0 0 0 0 0 0 0 0 0 0 0 0 0 0 0
$$ ##$ACBTFLO= (0..23)
$$ 0 180 6 30 76 0 0 0 0 0 0 0 0 0 0 0 0 0 0 0 0 0 0 0
$$ ##$ACBTINP= (0..23)
$$ 0 2 1 4 0 0 0 0 0 0 0 0 0 0 0 0 0 0 0 0 0 0 0 0
$$ ##$ACBTOUT= (0..23)
$$ 0 1 2 3 1 0 0 0 0 0 0 0 0 0 0 0 0 0 0 0 0 0 0 0
$$ ##$ACBTPO= (0..23)
$$ 0 100000 500000 150000 5000 0 0 0 0 0 0 0 0 0 0 0 0 0 0 0 0 0 0 0
$$ ##$ACBTPW= (0..23)
$$ 0 100 60 5 1000 0 0 0 0 0 0 0 0 0 0 0 0 0 0 0 0 0 0 0
$$ ##$ACBTSB= (0..23)
$$ 0 103 99 16 0 0 0 0 0 0 0 0 0 0 0 0 0 0 0 0 0 0 0 0
$$ ##$ACBTSDT= (0..23)
$$ 0 2 2 2 2 0 0 0 0 0 0 0 0 0 0 0 0 0 0 0 0 0 0 0
$$ ##$ACBTY= <no>
$$ ##$AMPDFLT= no
$$ ##$AQSBDCH= (0..95)
$$ 0 0 0 0 0 0 0 0 0 0 255 255 255 255 255 255 255 255 255 255 255 255 255
$$ 255 255 255 255 255 255 255 255 255 255 255 255 255 255 255 255 255 255
$$ 255 255 255 255 255 255 255 255 255 255 255 255 255 255 255 255 255 255
$$ 255 255 255 255 255 255 255 255 255 255 255 255 255 255 255 255 255 255
$$ 255 255 255 255 255 255 255 255 255 255 255 255 255 255 255 255 255 255
$$ 255
$$ ##$AQSBDHW= (0..95)
$$ 5 1 0 0 0 0 0 0 0 0 255 255 255 255 255 255 255 255 255 255 255 255 255
$$ 255 255 255 255 255 255 255 255 255 255 255 255 255 255 255 255 255 255
$$ 255 255 255 255 255 255 255 255 255 255 255 255 255 255 255 255 255 255
$$ 255 255 255 255 255 255 255 255 255 255 255 255 255 255 255 255 255 255
$$ 255 255 255 255 255 255 255 255 255 255 255 255 255 255 255 255 255 255
$$ 255
$$ ##$AQSBDID= (0..95)
$$ 82 88 83 83 83 83 86 86 66 66 255 255 255 255 255 255 255 255 255 255 255
$$ 255 255 255 255 255 255 255 255 255 255 255 255 255 255 255 255 255 255
$$ 255 255 255 255 255 255 255 255 255 255 255 255 255 255 255 255 255 255
$$ 255 255 255 255 255 255 255 255 255 255 255 255 255 255 255 255 255 255
$$ 255 255 255 255 255 255 255 255 255 255 255 255 255 255 255 255 255 255
$$ 255 255 255
$$ ##$AQSBDNO= (0..95)
$$ 1 1 1 2 3 4 1 2 1 1 255 255 255 255 255 255 255 255 255 255 255 255 255
$$ 255 255 255 255 255 255 255 255 255 255 255 255 255 255 255 255 255 255
$$ 255 255 255 255 255 255 255 255 255 255 255 255 255 255 255 255 255 255
$$ 255 255 255 255 255 255 255 255 255 255 255 255 255 255 255 255 255 255
$$ 255 255 255 255 255 255 255 255 255 255 255 255 255 255 255 255 255 255
$$ 255
$$ ##$AQSBDSL= (0..95)
$$ 2 3 4 4 5 5 13 14 255 1 255 255 255 255 255 255 255 255 255 255 255 255
$$ 255 255 255 255 255 255 255 255 255 255 255 255 255 255 255 255 255 255
$$ 255 255 255 255 255 255 255 255 255 255 255 255 255 255 255 255 255 255
$$ 255 255 255 255 255 255 255 255 255 255 255 255 255 255 255 255 255 255
$$ 255 255 255 255 255 255 255 255 255 255 255 255 255 255 255 255 255 255
$$ 255 255
$$ ##$AQSBDTY= (0..95)
$$ 67 214 50 50 50 50 147 145 216 7 255 255 255 255 255 255 255 255 255 255
$$ 255 255 255 255 255 255 255 255 255 255 255 255 255 255 255 255 255 255
$$ 255 255 255 255 255 255 255 255 255 255 255 255 255 255 255 255 255 255
$$ 255 255 255 255 255 255 255 255 255 255 255 255 255 255 255 255 255 255
$$ 255 255 255 255 255 255 255 255 255 255 255 255 255 255 255 255 255 255
$$ 255 255 255 255
$$ ##$AQSBUAD= (0..95)
$$ 16 52 36 37 38 39 160 161 32 32 255 255 255 255 255 255 255 255 255 255
$$ 255 255 255 255 255 255 255 255 255 255 255 255 255 255 255 255 255 255
$$ 255 255 255 255 255 255 255 255 255 255 255 255 255 255 255 255 255 255
$$ 255 255 255 255 255 255 255 255 255 255 255 255 255 255 255 255 255 255
$$ 255 255 255 255 255 255 255 255 255 255 255 255 255 255 255 255 255 255
$$ 255 255 255 255
$$ ##$AQSECL= (0..95)
$$ 0 2 2 2 2 2 0 1 1 255 255 255 255 255 255 255 255 255 255 255 255 255 255
$$ 255 255 255 255 255 255 255 255 255 255 255 255 255 255 255 255 255 255
$$ 255 255 255 255 255 255 255 255 255 255 255 255 255 255 255 255 255 255
$$ 255 255 255 255 255 255 255 255 255 255 255 255 255 255 255 255 255 255
$$ 255 255 255 255 255 255 255 255 255 255 255 255 255 255 255 255 255 255
$$ 255
$$ ##$AQSECLS= (0..95)
$$ 2 0 2 2 2 2 1 2 1 255 255 255 255 255 255 255 255 255 255 255 255 255 255
$$ 255 255 255 255 255 255 255 255 255 255 255 255 255 255 255 255 255 255
$$ 255 255 255 255 255 255 255 255 255 255 255 255 255 255 255 255 255 255
$$ 255 255 255 255 255 255 255 255 255 255 255 255 255 255 255 255 255 255
$$ 255 255 255 255 255 255 255 255 255 255 255 255 255 255 255 255 255 255
$$ 255
$$ ##$AQSETH1= <no>
$$ ##$AQSETH2= <no>
$$ ##$AQSSPLT= no
$$ ##$ATT19F= (0..1)
$$ 0 0
$$ ##$ATT1H= (0..1)
$$ 0 0
$$ ##$ATT3H= (0..1)
$$ 0 0
$$ ##$ATTX= (0..1)
$$ 0 0
$$ ##$ATTY= (0..1)
$$ 0 0
$$ ##$ATTZ= (0..1)
$$ 0 0
$$ ##$BACSAIR= yes
$$ ##$BACSCAP= 0
$$ ##$BACSDEL= 1
$$ ##$BACSFCM= no
$$ ##$BACSOPT= <>
$$ ##$BACSTY= <no>
$$ ##$BARPTY= <no>
$$ ##$BFREQ= 500.25
$$ ##$BGAETH= (0..9)
$$ <no> <no> <no> <no> <no> <no> <no> <no> <no> <no>
$$ ##$BIRDS= yes
$$ ##$BMPC= 0
$$ ##$BMPCTY= <no>
$$ ##$BPSUTY= <no>
$$ ##$BSMS= 2
$$ ##$BSMS19FLock= no
$$ ##$BSMSETH= <149.236.99.20>
$$ ##$BSMSTY= <no>
$$ ##$BgaChFac2= (0..7)
$$ 0 0 0 0 0 0 0 0
$$ ##$BgaChMap= (0..7)
$$ 0 0 0 0 0 0 0 0
$$ ##$BgaChMaxv= (0..7)
$$ 0 0 0 0 0 0 0 0
$$ ##$BgaChRouting= (0..63)
$$ 0 0 0 0 0 0 0 0 0 0 0 0 0 0 0 0 0 0 0 0 0 0 0 0 0 0 0 0 0 0 0 0 0 0 0 0
$$ 0 0 0 0 0 0 0 0 0 0 0 0 0 0 0 0 0 0 0 0 0 0 0 0 0 0 0 0
$$ ##$BgaChShimMap= (0..7)
$$ 0 0 0 0 0 0 0 0
$$ ##$BgaChShimMaxv= (0..7)
$$ 0 0 0 0 0 0 0 0
$$ ##$Bla01Eth= <149.236.99.254>
$$ ##$Bla01Nam= <BLAXH2H500/100/150 E 200-600MHZ>
$$ ##$Bla01PN= <W1345099>
$$ ##$Bla01SN= <0190>
$$ ##$Bla02Eth= <149.236.99.20>
$$ ##$Bla02Nam= <BSMS/2 LOCK TRANSCEIVER 500>
$$ ##$Bla02PN= <Z109889>
$$ ##$Bla02SN= <00456>
$$ ##$Bla03Eth= <no>
$$ ##$Bla03Nam= <>
$$ ##$Bla03PN= <>
$$ ##$Bla03SN= <>
$$ ##$Bla04Eth= <no>
$$ ##$Bla04Nam= <>
$$ ##$Bla04PN= <>
$$ ##$Bla04SN= <>
$$ ##$Bla05Eth= <no>
$$ ##$Bla05Nam= <>
$$ ##$Bla05PN= <>
$$ ##$Bla05SN= <>
$$ ##$Bla06Eth= <no>
$$ ##$Bla06Nam= <>
$$ ##$Bla06PN= <>
$$ ##$Bla06SN= <>
$$ ##$Bla07Eth= <no>
$$ ##$Bla07Nam= <>
$$ ##$Bla07PN= <>
$$ ##$Bla07SN= <>
$$ ##$Bla08Eth= <no>
$$ ##$Bla08Nam= <>
$$ ##$Bla08PN= <>
$$ ##$Bla08SN= <>
$$ ##$BlaEth= (0..9)
$$ <149.236.99.249> <149.236.99.20> <no> <no> <no> <no> <no> <no> <> <>
$$ ##$BlaNam= (0..9)
$$ <BLAXH2H500/100/150 E 200-600MHZ > <BSMS/2 LOCK TRANSCEIVER 500> <> <>
$$ <> <> <> <> <> <>
$$ ##$BlaPN= (0..9)
$$ <W1345099> <Z109889> <> <> <> <> <> <> <> <>
$$ ##$BlaSN= (0..9)
$$ <0187> <00456> <> <> <> <> <> <> <> <>
$$ ##$BsmsAuxEth= <no>
$$ ##$CFASMOD= (0..7)
$$ 1 1 1 1 1 1 1 1
$$ ##$CFASMUL= (0..7)
$$ 1 1 1 1 1 1 1 1
$$ ##$CNFTXDR= (0..7)
$$ 6 6 6 0 0 0 0 0
$$ ##$COMDIG2= 0
$$ ##$CPDBTY= <no>
$$ ##$CRCOTY= <no>
$$ ##$CSW1= (0..31)
$$ 2 2 2 4 0 0 0 0 0 0 0 0 0 0 0 0 0 0 0 0 0 0 0 0 0 0 0 0 0 0 0 0
$$ ##$CSW2= (0..31)
$$ 1 1 1 0 0 0 0 0 0 0 0 0 0 0 0 0 0 0 0 0 0 0 0 0 0 0 0 0 0 0 0 0
$$ ##$CSWNUM= (0..7)
$$ 4 1 0 0 0 0 0 0
$$ ##$ConsolePnSn= <>
$$ ##$CryoProAccPnSn= <>
$$ ##$Ctb1Eth= <no>
$$ ##$CubeEth= (0..7)
$$ <no> <no> <no> <no> <no> <no> <no> <no>
$$ ##$CustRegisterNo= <>
$$ ##$DATSTAT= no
$$ ##$DIGI140= (0..7)
$$ 0 0 0 0 0 0 0 0
$$ ##$DIGIB12= (0..7)
$$ 0 0 0 0 0 0 0 0
$$ ##$DIGIB16= (0..7)
$$ 0 0 0 0 0 0 0 0
$$ ##$DIGIFA= (0..7)
$$ 0 0 0 0 0 0 0 0
$$ ##$DIGIFOURIER= 0
$$ ##$DIGIHA= (0..7)
$$ 0 0 0 0 0 0 0 0
$$ ##$DIGIHAF= (0..7)
$$ 0 0 0 0 0 0 0 0
$$ ##$DIGIHRD= (0..7)
$$ 0 0 0 0 0 0 0 0
$$ ##$DIGIIA= (0..7)
$$ 0 0 0 0 0 0 0 0
$$ ##$DIGIO16= (0..7)
$$ 0 0 0 0 0 0 0 0
$$ ##$DIGISA= (0..7)
$$ 0 0 0 0 0 0 0 0
$$ ##$DIGISAF= (0..7)
$$ 0 0 0 0 0 0 0 0
$$ ##$DIGISL= (0..7)
$$ 0 0 0 0 0 0 0 0
$$ ##$DIGITYI= (0..7)
$$ 0 0 0 0 0 0 0 0
$$ ##$DIGITYP= (0..7)
$$ 0 0 0 0 0 0 0 0
$$ ##$DIGITZ= 0
$$ ##$DPPFAC= 1
$$ ##$DRMSETH= <no>
$$ ##$DRU= yes
$$ ##$DRUETH= (0..33)
$$ <no> <149.236.99.89> <no> <no> <no> <no> <no> <no> <no> <no> <no> <no>
$$ <no> <no> <no> <no> <no> <no> <no> <no> <no> <no> <no> <no> <no> <no> <no>
$$ <no> <no> <no> <no> <no> <no> <>
$$ ##$Description= <AVHD500>
$$ ##$DppType= 0
$$ ##$FCUMEM= (0..7)
$$ 16777208 16777208 16777208 0 0 0 0 0
$$ ##$FCUPAL= (0..7)
$$ 0 0 0 0 0 0 0 0
$$ ##$FGSVTY= <no>
$$ ##$FQMIX= 0
$$ ##$FUNCMOD= <>
$$ ##$FourPeriBdEth= <no>
$$ ##$FourShimBdEth= <no>
$$ ##$FourierPicsCon= no
$$ ##$GCUTYPE= 10
$$ ##$GCUTYPE2= 0
$$ ##$GPREDEL= 0
$$ ##$GPSCUTY= <no>
$$ ##$GRADRES= 5
$$ ##$GTUTY= <no>
$$ ##$GcConn= (0..1)
$$ 1 0
$$ ##$GradAmpGain= (0..7)
$$ 0 0 0 0 0 0 0 0
$$ ##$GradAmpMaxCurX= (0..7)
$$ 0 0 0 0 0 0 0 0
$$ ##$GradAmpMaxCurY= (0..7)
$$ 0 0 0 0 0 0 0 0
$$ ##$GradAmpMaxCurZ= (0..7)
$$ 9.99999904632568 0 0 0 0 0 0 0
$$ ##$GradAmpName= (0..7)
$$ <GAB in BSMS> <> <> <> <> <> <> <>
$$ ##$GradAmpPN= (0..7)
$$ <> <> <> <> <> <> <> <>
$$ ##$GradAmpSN= (0..7)
$$ <> <> <> <> <> <> <> <>
$$ ##$GradAmpType= (0..7)
$$ 2 0 0 0 0 0 0 0
$$ ##$GradPowClkCtrl= 0
$$ ##$GradPowClkTime= 0
$$ ##$GradPowImax= 0
$$ ##$GradPowType= 0
$$ ##$GradPowVmax= 0
$$ ##$HDIETH= (0..5)
$$ <> <no> <no> <no> <no> <>
$$ ##$HFAC= 3
$$ ##$HPCU= 0
$$ ##$HPCUTY= <no>
$$ ##$HPTXLP= (0..3)
$$ -1 -1 -1 -1
$$ ##$HPTXPI= (0..3)
$$ 0 0 0 0
$$ ##$HPTXPO= (0..3)
$$ 0 0 0 0
$$ ##$HPTXTY= (0..3)
$$ 0 0 0 0
$$ ##$HpprCoverType= 2
$$ ##$IF451= 0
$$ ##$IFREQ= 1
$$ ##$INJPTY= <no>
$$ ##$INTFPR= 0
$$ ##$IPSOETH= <149.236.99.253>
$$ ##$IPSOTYPE= 1
$$ ##$LDUETH= (0..0)
$$ <no>
$$ ##$LOCKCONF= <DLM>
$$ ##$LOCKTY= <no>
$$ ##$LOCSWID= 0
$$ ##$LOCSWIF= 0
$$ ##$LVDSSPLITETH= (0..5)
$$ <> <no> <no> <no> <no> <>
$$ ##$Location= <Universitaet Zuerich Irchel>
$$ ##$M2FAC= 0
$$ ##$MAS= 2
$$ ##$MASETIME= 10
$$ ##$MASITIME= 10
$$ ##$MASTY= <tty01>
$$ ##$MAS_CT= 10
$$ ##$MAS_SG= 0
$$ ##$MAS_TO= 0
$$ ##$MEMPRM= 0
$$ ##$MHFAC= 0
$$ ##$MXFAC= 0
$$ ##$MagnCoilPnSn= <>
$$ ##$MagnDewarPnSn= <>
$$ ##$MasEth= <no>
$$ ##$NAMPD= (0..17)
$$ <> <HPLNA 19F1H> <2H> <XBB19F 2HP> <> <> <> <> <> <> <> <> <> <> <> <>
$$ <> <>
$$ ##$NFCU= 3
$$ ##$NFRED= 0
$$ ##$NMRCH= 2
$$ ##$NMRMEM= 16384
$$ ##$NPSGU= 0
$$ ##$NRCU= 1
$$ ##$NROUT= 0
$$ ##$NSGU= 4
$$ ##$OrderNo= <10088890>
$$ ##$PAMPF1= (0..15)
$$ 75 56 96 64 0 0 0 0 0 0 0 0 0 0 0 0
$$ ##$PAMPF2= (0..15)
$$ 0 0 0 0 0 0 0 0 0 0 0 0 0 0 0 0
$$ ##$PAMPF3= (0..15)
$$ 0 0 0 0 0 0 0 0 0 0 0 0 0 0 0 0
$$ ##$PAMPF4= (0..15)
$$ 0 0 0 0 0 0 0 0 0 0 0 0 0 0 0 0
$$ ##$PAMPF5= (0..15)
$$ 0 0 0 0 0 0 0 0 0 0 0 0 0 0 0 0
$$ ##$PAMPF6= (0..15)
$$ 0 0 0 0 0 0 0 0 0 0 0 0 0 0 0 0
$$ ##$PAMPF7= (0..15)
$$ 0 0 0 0 0 0 0 0 0 0 0 0 0 0 0 0
$$ ##$PAMPF8= (0..15)
$$ 0 0 0 0 0 0 0 0 0 0 0 0 0 0 0 0
$$ ##$PH4= 0
$$ ##$PHF4TY= <no>
$$ ##$POWCHK= yes
$$ ##$PRAMD1= (0..7)
$$ 6 0 0 1610612736 0 0 0 0
$$ ##$PRAMD10= (0..7)
$$ 0 0 0 0 0 0 0 0
$$ ##$PRAMD11= (0..7)
$$ 0 0 0 0 0 0 0 0
$$ ##$PRAMD12= (0..7)
$$ 0 0 0 0 0 0 0 0
$$ ##$PRAMD13= (0..7)
$$ 0 0 0 0 0 0 0 0
$$ ##$PRAMD14= (0..7)
$$ 0 0 0 0 0 0 0 0
$$ ##$PRAMD15= (0..7)
$$ 0 0 0 0 0 0 0 0
$$ ##$PRAMD16= (0..7)
$$ 0 0 0 0 0 0 0 0
$$ ##$PRAMD17= (0..7)
$$ 0 0 0 0 0 0 0 0
$$ ##$PRAMD18= (0..7)
$$ 0 0 0 0 0 0 0 0
$$ ##$PRAMD19= (0..7)
$$ 0 0 0 0 0 0 0 0
$$ ##$PRAMD2= (0..7)
$$ 0 1048576 0 536870912 0 1048576 0 536870912
$$ ##$PRAMD20= (0..7)
$$ 0 0 0 0 0 0 0 0
$$ ##$PRAMD21= (0..7)
$$ 0 0 0 0 0 0 0 0
$$ ##$PRAMD3= (0..7)
$$ 2147483644 2147483647 2147483647 603979775 0 0 0 0
$$ ##$PRAMD4= (0..7)
$$ 0 0 0 0 0 0 0 0
$$ ##$PRAMD5= (0..7)
$$ 0 0 0 0 0 0 0 0
$$ ##$PRAMD6= (0..7)
$$ 0 0 0 0 0 0 0 0
$$ ##$PRAMD7= (0..7)
$$ 0 0 0 0 0 0 0 0
$$ ##$PRAMD8= (0..7)
$$ 0 0 0 0 0 0 0 0
$$ ##$PRAMD9= (0..7)
$$ 0 0 0 0 0 0 0 0
$$ ##$PRAMLED= (0..1)
$$ 0 0
$$ ##$PRAMP= (0..9)
$$ <> <tty10> <no> <no> <no> <no> <no> <no> <no> <>
$$ ##$PRAMPTP= 1
$$ ##$PREEMPTYPE= 0
$$ ##$PREPTY= <no>
$$ ##$PREREC= (0..15)
$$ 0 1 1 1 0 0 0 0 0 0 0 0 0 0 0 0
$$ ##$PRESHLD= 0
$$ ##$PTS160= -1
$$ ##$PTSA2X= (0..7)
$$ 0 0 0 0 0 0 0 0
$$ ##$PTSF2X= (0..7)
$$ 0 0 0 0 0 0 0 0
$$ ##$PTSFMX= (0..19)
$$ 649.9 649.9 649.9 649.9 0 0 0 0 0 0 0 0 0 0 0 0 0 0 0 0
$$ ##$PULCHK= no
$$ ##$PerMagATempSens= no
$$ ##$PerMagEth= <no>
$$ ##$PerMagFluxSens= no
$$ ##$PerMagMTempSens= no
$$ ##$PramDutyCycPerc= (0..15)
$$ 4 2 2 0 0 0 0 0 0 0 0 0 0 0 0 0
$$ ##$PramPeakPowerW= (0..15)
$$ 4000 500 500 0 0 0 0 0 0 0 0 0 0 0 0 0
$$ ##$PramPowerSwitch= (0..15)
$$ 0 0 0 0 0 0 0 0 0 0 0 0 0 0 0 0
$$ ##$PramPulWidthMs= (0..15)
$$ 10 0.1 0.1 0 0 0 0 0 0 0 0 0 0 0 0 0
$$ ##$PreampMod01PN= <Z103204>
$$ ##$PreampMod01SN= <00273>
$$ ##$PreampMod02PN= <Z003472>
$$ ##$PreampMod02SN= <01157>
$$ ##$PreampMod03PN= <Z102026>
$$ ##$PreampMod03SN= <00013>
$$ ##$PreampMod04PN= <>
$$ ##$PreampMod04SN= <>
$$ ##$PreampMod05PN= <>
$$ ##$PreampMod05SN= <>
$$ ##$PreampMod06PN= <>
$$ ##$PreampMod06SN= <>
$$ ##$PreampMod07PN= <>
$$ ##$PreampMod07SN= <>
$$ ##$PreampMod08PN= <>
$$ ##$PreampMod08SN= <>
$$ ##$PreampMod09PN= <>
$$ ##$PreampMod09SN= <>
$$ ##$PreampMod10PN= <>
$$ ##$PreampMod10SN= <>
$$ ##$PreampMod11PN= <>
$$ ##$PreampMod11SN= <>
$$ ##$PreampMod12PN= <>
$$ ##$PreampMod12SN= <>
$$ ##$PreampMod13PN= <>
$$ ##$PreampMod13SN= <>
$$ ##$PreampMod14PN= <>
$$ ##$PreampMod14SN= <>
$$ ##$PreampMod15PN= <>
$$ ##$PreampMod15SN= <>
$$ ##$PreampMod16PN= <>
$$ ##$PreampMod16SN= <>
$$ ##$PreampModBisDat= (0..15)
$$ 20130502 20130412 20130626 0 0 0 0 0 0 0 0 0 0 0 0 0
$$ ##$PreampModPN= (0..17)
$$ <Z103204> <Z003472> <Z102026> <> <> <> <> <> <> <> <> <> <> <> <> <> <>
$$ <>
$$ ##$PreampModSN= (0..17)
$$ <00273> <01157> <00013> <> <> <> <> <> <> <> <> <> <> <> <> <> <> <>
$$ ##$ProdigyEth= <no>
$$ ##$RCUCDS= (0..7)
$$ 0 0 0 0 0 0 0 0
$$ ##$RCUCFS= (0..7)
$$ 0 0 0 0 0 0 0 0
$$ ##$RCUCSS= (0..7)
$$ 0 0 0 0 0 0 0 0
$$ ##$RCUI2C1= (0..7)
$$ 0 0 0 0 0 0 0 0
$$ ##$RCUI2C2= (0..7)
$$ 0 0 0 0 0 0 0 0
$$ ##$RCUI2C3= (0..7)
$$ 0 0 0 0 0 0 0 0
$$ ##$RCUI2C4= (0..7)
$$ 0 0 0 0 0 0 0 0
$$ ##$RCUI2C5= (0..7)
$$ 0 0 0 0 0 0 0 0
$$ ##$RCUI2C6= (0..7)
$$ 0 0 0 0 0 0 0 0
$$ ##$RCUI2C7= (0..7)
$$ 0 0 0 0 0 0 0 0
$$ ##$RCUI2C8= (0..7)
$$ 0 0 0 0 0 0 0 0
$$ ##$RDCU= 0
$$ ##$RFSINPUT= (0..1)
$$ 0 0
$$ ##$RFSVTY= <no>
$$ ##$RGTYPE= (0..31)
$$ 9 0 0 0 0 0 0 0 0 0 0 0 0 0 0 0 0 0 0 0 0 0 0 0 0 0 0 0 0 0 0 0
$$ ##$RG_max= (0..31)
$$ 203 -1 -1 -1 -1 -1 -1 -1 -1 -1 -1 -1 -1 -1 -1 -1 -1 -1 -1 -1 -1 -1 -1 -1
$$ -1 -1 -1 -1 -1 -1 -1 -1
$$ ##$RG_min= (0..31)
$$ 0.25 -1 -1 -1 -1 -1 -1 -1 -1 -1 -1 -1 -1 -1 -1 -1 -1 -1 -1 -1 -1 -1 -1
$$ -1 -1 -1 -1 -1 -1 -1 -1 -1
$$ ##$RG_tab1= (0..255)
$$ 0.25 0.28 0.32 0.35 0.4 0.44 0.5 0.56 0.64 0.7 0.8 0.89 1 1.12 1.28 1.4
$$ 1.6 1.78 2 2.25 2.56 2.8 3.2 3.56 4 4.5 5 5.6 6.35 7.12 8 9 10 11.3 12.7
$$ 14.2 16 18 20.2 22.6 25.4 28.5 32 36 40.3 45.2 50.8 57 64 71.8 80.6 90.5
$$ 101 114 128 144 161 181 203 -1 -1 -1 -1 -1 -1 -1 -1 -1 -1 -1 -1 -1 -1 -1
$$ -1 -1 -1 -1 -1 -1 -1 -1 -1 -1 -1 -1 -1 -1 -1 -1 -1 -1 -1 -1 -1 -1 -1 -1
$$ -1 -1 -1 -1 -1 -1 -1 -1 -1 -1 -1 -1 -1 -1 -1 -1 -1 -1 -1 -1 -1 -1 -1 -1
$$ -1 -1 -1 -1 -1 -1 -1 -1 -1 -1 -1 -1 -1 -1 -1 -1 -1 -1 -1 -1 -1 -1 -1 -1
$$ -1 -1 -1 -1 -1 -1 -1 -1 -1 -1 -1 -1 -1 -1 -1 -1 -1 -1 -1 -1 -1 -1 -1 -1
$$ -1 -1 -1 -1 -1 -1 -1 -1 -1 -1 -1 -1 -1 -1 -1 -1 -1 -1 -1 -1 -1 -1 -1 -1
$$ -1 -1 -1 -1 -1 -1 -1 -1 -1 -1 -1 -1 -1 -1 -1 -1 -1 -1 -1 -1 -1 -1 -1 -1
$$ -1 -1 -1 -1 -1 -1 -1 -1 -1 -1 -1 -1 -1 -1 -1 -1 -1 -1 -1 -1 -1 -1 -1 -1
$$ -1 -1 -1 -1 -1 -1 -1 -1 -1 -1 -1 -1 -1 -1
$$ ##$RG_tab2= (0..255)
$$ -1 -1 -1 -1 -1 -1 -1 -1 -1 -1 -1 -1 -1 -1 -1 -1 -1 -1 -1 -1 -1 -1 -1 -1
$$ -1 -1 -1 -1 -1 -1 -1 -1 -1 -1 -1 -1 -1 -1 -1 -1 -1 -1 -1 -1 -1 -1 -1 -1
$$ -1 -1 -1 -1 -1 -1 -1 -1 -1 -1 -1 -1 -1 -1 -1 -1 -1 -1 -1 -1 -1 -1 -1 -1
$$ -1 -1 -1 -1 -1 -1 -1 -1 -1 -1 -1 -1 -1 -1 -1 -1 -1 -1 -1 -1 -1 -1 -1 -1
$$ -1 -1 -1 -1 -1 -1 -1 -1 -1 -1 -1 -1 -1 -1 -1 -1 -1 -1 -1 -1 -1 -1 -1 -1
$$ -1 -1 -1 -1 -1 -1 -1 -1 -1 -1 -1 -1 -1 -1 -1 -1 -1 -1 -1 -1 -1 -1 -1 -1
$$ -1 -1 -1 -1 -1 -1 -1 -1 -1 -1 -1 -1 -1 -1 -1 -1 -1 -1 -1 -1 -1 -1 -1 -1
$$ -1 -1 -1 -1 -1 -1 -1 -1 -1 -1 -1 -1 -1 -1 -1 -1 -1 -1 -1 -1 -1 -1 -1 -1
$$ -1 -1 -1 -1 -1 -1 -1 -1 -1 -1 -1 -1 -1 -1 -1 -1 -1 -1 -1 -1 -1 -1 -1 -1
$$ -1 -1 -1 -1 -1 -1 -1 -1 -1 -1 -1 -1 -1 -1 -1 -1 -1 -1 -1 -1 -1 -1 -1 -1
$$ -1 -1 -1 -1 -1 -1 -1 -1 -1 -1 -1 -1 -1 -1 -1 -1
$$ ##$RG_tab3= (0..255)
$$ -1 -1 -1 -1 -1 -1 -1 -1 -1 -1 -1 -1 -1 -1 -1 -1 -1 -1 -1 -1 -1 -1 -1 -1
$$ -1 -1 -1 -1 -1 -1 -1 -1 -1 -1 -1 -1 -1 -1 -1 -1 -1 -1 -1 -1 -1 -1 -1 -1
$$ -1 -1 -1 -1 -1 -1 -1 -1 -1 -1 -1 -1 -1 -1 -1 -1 -1 -1 -1 -1 -1 -1 -1 -1
$$ -1 -1 -1 -1 -1 -1 -1 -1 -1 -1 -1 -1 -1 -1 -1 -1 -1 -1 -1 -1 -1 -1 -1 -1
$$ -1 -1 -1 -1 -1 -1 -1 -1 -1 -1 -1 -1 -1 -1 -1 -1 -1 -1 -1 -1 -1 -1 -1 -1
$$ -1 -1 -1 -1 -1 -1 -1 -1 -1 -1 -1 -1 -1 -1 -1 -1 -1 -1 -1 -1 -1 -1 -1 -1
$$ -1 -1 -1 -1 -1 -1 -1 -1 -1 -1 -1 -1 -1 -1 -1 -1 -1 -1 -1 -1 -1 -1 -1 -1
$$ -1 -1 -1 -1 -1 -1 -1 -1 -1 -1 -1 -1 -1 -1 -1 -1 -1 -1 -1 -1 -1 -1 -1 -1
$$ -1 -1 -1 -1 -1 -1 -1 -1 -1 -1 -1 -1 -1 -1 -1 -1 -1 -1 -1 -1 -1 -1 -1 -1
$$ -1 -1 -1 -1 -1 -1 -1 -1 -1 -1 -1 -1 -1 -1 -1 -1 -1 -1 -1 -1 -1 -1 -1 -1
$$ -1 -1 -1 -1 -1 -1 -1 -1 -1 -1 -1 -1 -1 -1 -1 -1
$$ ##$RG_tab4= (0..255)
$$ -1 -1 -1 -1 -1 -1 -1 -1 -1 -1 -1 -1 -1 -1 -1 -1 -1 -1 -1 -1 -1 -1 -1 -1
$$ -1 -1 -1 -1 -1 -1 -1 -1 -1 -1 -1 -1 -1 -1 -1 -1 -1 -1 -1 -1 -1 -1 -1 -1
$$ -1 -1 -1 -1 -1 -1 -1 -1 -1 -1 -1 -1 -1 -1 -1 -1 -1 -1 -1 -1 -1 -1 -1 -1
$$ -1 -1 -1 -1 -1 -1 -1 -1 -1 -1 -1 -1 -1 -1 -1 -1 -1 -1 -1 -1 -1 -1 -1 -1
$$ -1 -1 -1 -1 -1 -1 -1 -1 -1 -1 -1 -1 -1 -1 -1 -1 -1 -1 -1 -1 -1 -1 -1 -1
$$ -1 -1 -1 -1 -1 -1 -1 -1 -1 -1 -1 -1 -1 -1 -1 -1 -1 -1 -1 -1 -1 -1 -1 -1
$$ -1 -1 -1 -1 -1 -1 -1 -1 -1 -1 -1 -1 -1 -1 -1 -1 -1 -1 -1 -1 -1 -1 -1 -1
$$ -1 -1 -1 -1 -1 -1 -1 -1 -1 -1 -1 -1 -1 -1 -1 -1 -1 -1 -1 -1 -1 -1 -1 -1
$$ -1 -1 -1 -1 -1 -1 -1 -1 -1 -1 -1 -1 -1 -1 -1 -1 -1 -1 -1 -1 -1 -1 -1 -1
$$ -1 -1 -1 -1 -1 -1 -1 -1 -1 -1 -1 -1 -1 -1 -1 -1 -1 -1 -1 -1 -1 -1 -1 -1
$$ -1 -1 -1 -1 -1 -1 -1 -1 -1 -1 -1 -1 -1 -1 -1 -1
$$ ##$RG_tab5= (0..255)
$$ -1 -1 -1 -1 -1 -1 -1 -1 -1 -1 -1 -1 -1 -1 -1 -1 -1 -1 -1 -1 -1 -1 -1 -1
$$ -1 -1 -1 -1 -1 -1 -1 -1 -1 -1 -1 -1 -1 -1 -1 -1 -1 -1 -1 -1 -1 -1 -1 -1
$$ -1 -1 -1 -1 -1 -1 -1 -1 -1 -1 -1 -1 -1 -1 -1 -1 -1 -1 -1 -1 -1 -1 -1 -1
$$ -1 -1 -1 -1 -1 -1 -1 -1 -1 -1 -1 -1 -1 -1 -1 -1 -1 -1 -1 -1 -1 -1 -1 -1
$$ -1 -1 -1 -1 -1 -1 -1 -1 -1 -1 -1 -1 -1 -1 -1 -1 -1 -1 -1 -1 -1 -1 -1 -1
$$ -1 -1 -1 -1 -1 -1 -1 -1 -1 -1 -1 -1 -1 -1 -1 -1 -1 -1 -1 -1 -1 -1 -1 -1
$$ -1 -1 -1 -1 -1 -1 -1 -1 -1 -1 -1 -1 -1 -1 -1 -1 -1 -1 -1 -1 -1 -1 -1 -1
$$ -1 -1 -1 -1 -1 -1 -1 -1 -1 -1 -1 -1 -1 -1 -1 -1 -1 -1 -1 -1 -1 -1 -1 -1
$$ -1 -1 -1 -1 -1 -1 -1 -1 -1 -1 -1 -1 -1 -1 -1 -1 -1 -1 -1 -1 -1 -1 -1 -1
$$ -1 -1 -1 -1 -1 -1 -1 -1 -1 -1 -1 -1 -1 -1 -1 -1 -1 -1 -1 -1 -1 -1 -1 -1
$$ -1 -1 -1 -1 -1 -1 -1 -1 -1 -1 -1 -1 -1 -1 -1 -1
$$ ##$RG_tab6= (0..255)
$$ -1 -1 -1 -1 -1 -1 -1 -1 -1 -1 -1 -1 -1 -1 -1 -1 -1 -1 -1 -1 -1 -1 -1 -1
$$ -1 -1 -1 -1 -1 -1 -1 -1 -1 -1 -1 -1 -1 -1 -1 -1 -1 -1 -1 -1 -1 -1 -1 -1
$$ -1 -1 -1 -1 -1 -1 -1 -1 -1 -1 -1 -1 -1 -1 -1 -1 -1 -1 -1 -1 -1 -1 -1 -1
$$ -1 -1 -1 -1 -1 -1 -1 -1 -1 -1 -1 -1 -1 -1 -1 -1 -1 -1 -1 -1 -1 -1 -1 -1
$$ -1 -1 -1 -1 -1 -1 -1 -1 -1 -1 -1 -1 -1 -1 -1 -1 -1 -1 -1 -1 -1 -1 -1 -1
$$ -1 -1 -1 -1 -1 -1 -1 -1 -1 -1 -1 -1 -1 -1 -1 -1 -1 -1 -1 -1 -1 -1 -1 -1
$$ -1 -1 -1 -1 -1 -1 -1 -1 -1 -1 -1 -1 -1 -1 -1 -1 -1 -1 -1 -1 -1 -1 -1 -1
$$ -1 -1 -1 -1 -1 -1 -1 -1 -1 -1 -1 -1 -1 -1 -1 -1 -1 -1 -1 -1 -1 -1 -1 -1
$$ -1 -1 -1 -1 -1 -1 -1 -1 -1 -1 -1 -1 -1 -1 -1 -1 -1 -1 -1 -1 -1 -1 -1 -1
$$ -1 -1 -1 -1 -1 -1 -1 -1 -1 -1 -1 -1 -1 -1 -1 -1 -1 -1 -1 -1 -1 -1 -1 -1
$$ -1 -1 -1 -1 -1 -1 -1 -1 -1 -1 -1 -1 -1 -1 -1 -1
$$ ##$RG_tab7= (0..255)
$$ -1 -1 -1 -1 -1 -1 -1 -1 -1 -1 -1 -1 -1 -1 -1 -1 -1 -1 -1 -1 -1 -1 -1 -1
$$ -1 -1 -1 -1 -1 -1 -1 -1 -1 -1 -1 -1 -1 -1 -1 -1 -1 -1 -1 -1 -1 -1 -1 -1
$$ -1 -1 -1 -1 -1 -1 -1 -1 -1 -1 -1 -1 -1 -1 -1 -1 -1 -1 -1 -1 -1 -1 -1 -1
$$ -1 -1 -1 -1 -1 -1 -1 -1 -1 -1 -1 -1 -1 -1 -1 -1 -1 -1 -1 -1 -1 -1 -1 -1
$$ -1 -1 -1 -1 -1 -1 -1 -1 -1 -1 -1 -1 -1 -1 -1 -1 -1 -1 -1 -1 -1 -1 -1 -1
$$ -1 -1 -1 -1 -1 -1 -1 -1 -1 -1 -1 -1 -1 -1 -1 -1 -1 -1 -1 -1 -1 -1 -1 -1
$$ -1 -1 -1 -1 -1 -1 -1 -1 -1 -1 -1 -1 -1 -1 -1 -1 -1 -1 -1 -1 -1 -1 -1 -1
$$ -1 -1 -1 -1 -1 -1 -1 -1 -1 -1 -1 -1 -1 -1 -1 -1 -1 -1 -1 -1 -1 -1 -1 -1
$$ -1 -1 -1 -1 -1 -1 -1 -1 -1 -1 -1 -1 -1 -1 -1 -1 -1 -1 -1 -1 -1 -1 -1 -1
$$ -1 -1 -1 -1 -1 -1 -1 -1 -1 -1 -1 -1 -1 -1 -1 -1 -1 -1 -1 -1 -1 -1 -1 -1
$$ -1 -1 -1 -1 -1 -1 -1 -1 -1 -1 -1 -1 -1 -1 -1 -1
$$ ##$RG_tab8= (0..255)
$$ -1 -1 -1 -1 -1 -1 -1 -1 -1 -1 -1 -1 -1 -1 -1 -1 -1 -1 -1 -1 -1 -1 -1 -1
$$ -1 -1 -1 -1 -1 -1 -1 -1 -1 -1 -1 -1 -1 -1 -1 -1 -1 -1 -1 -1 -1 -1 -1 -1
$$ -1 -1 -1 -1 -1 -1 -1 -1 -1 -1 -1 -1 -1 -1 -1 -1 -1 -1 -1 -1 -1 -1 -1 -1
$$ -1 -1 -1 -1 -1 -1 -1 -1 -1 -1 -1 -1 -1 -1 -1 -1 -1 -1 -1 -1 -1 -1 -1 -1
$$ -1 -1 -1 -1 -1 -1 -1 -1 -1 -1 -1 -1 -1 -1 -1 -1 -1 -1 -1 -1 -1 -1 -1 -1
$$ -1 -1 -1 -1 -1 -1 -1 -1 -1 -1 -1 -1 -1 -1 -1 -1 -1 -1 -1 -1 -1 -1 -1 -1
$$ -1 -1 -1 -1 -1 -1 -1 -1 -1 -1 -1 -1 -1 -1 -1 -1 -1 -1 -1 -1 -1 -1 -1 -1
$$ -1 -1 -1 -1 -1 -1 -1 -1 -1 -1 -1 -1 -1 -1 -1 -1 -1 -1 -1 -1 -1 -1 -1 -1
$$ -1 -1 -1 -1 -1 -1 -1 -1 -1 -1 -1 -1 -1 -1 -1 -1 -1 -1 -1 -1 -1 -1 -1 -1
$$ -1 -1 -1 -1 -1 -1 -1 -1 -1 -1 -1 -1 -1 -1 -1 -1 -1 -1 -1 -1 -1 -1 -1 -1
$$ -1 -1 -1 -1 -1 -1 -1 -1 -1 -1 -1 -1 -1 -1 -1 -1
$$ ##$RG_tabA= (0..255)
$$ 0.25 0.28 0.32 0.35 0.4 0.44 0.5 0.56 0.64 0.7 0.8 0.89 1 1.12 1.28 1.4
$$ 1.6 1.78 2 2.25 2.56 2.8 3.2 3.56 4 4.5 5 5.6 6.35 7.12 8 9 10 11.3 12.7
$$ 14.2 16 18 20.2 22.6 25.4 28.5 32 36 40.3 45.2 50.8 57 64 71.8 80.6 90.5
$$ 101 114 128 144 161 181 203 -1 -1 -1 -1 -1 -1 -1 -1 -1 -1 -1 -1 -1 -1 -1
$$ -1 -1 -1 -1 -1 -1 -1 -1 -1 -1 -1 -1 -1 -1 -1 -1 -1 -1 -1 -1 -1 -1 -1 -1
$$ -1 -1 -1 -1 -1 -1 -1 -1 -1 -1 -1 -1 -1 -1 -1 -1 -1 -1 -1 -1 -1 -1 -1 -1
$$ -1 -1 -1 -1 -1 -1 -1 -1 -1 -1 -1 -1 -1 -1 -1 -1 -1 -1 -1 -1 -1 -1 -1 -1
$$ -1 -1 -1 -1 -1 -1 -1 -1 -1 -1 -1 -1 -1 -1 -1 -1 -1 -1 -1 -1 -1 -1 -1 -1
$$ -1 -1 -1 -1 -1 -1 -1 -1 -1 -1 -1 -1 -1 -1 -1 -1 -1 -1 -1 -1 -1 -1 -1 -1
$$ -1 -1 -1 -1 -1 -1 -1 -1 -1 -1 -1 -1 -1 -1 -1 -1 -1 -1 -1 -1 -1 -1 -1 -1
$$ -1 -1 -1 -1 -1 -1 -1 -1 -1 -1 -1 -1 -1 -1 -1 -1 -1 -1 -1 -1 -1 -1 -1 -1
$$ -1 -1 -1 -1 -1 -1 -1 -1 -1 -1 -1 -1 -1 -1
$$ ##$ROBOTTY= <no>
$$ ##$ROUT14= (0..7)
$$ 0 0 0 0 0 0 0 0
$$ ##$ROUTER= -1
$$ ##$RX22TY= <no>
$$ ##$RXFMAX= (0..7)
$$ 647.5 -1 -1 -1 -1 -1 -1 -1
$$ ##$RXFMIN= (0..7)
$$ 5 -1 -1 -1 -1 -1 -1 -1
$$ ##$RXINTLV= (0..7)
$$ 1 0 0 0 0 0 0 0
$$ ##$RXMSTY= <no>
$$ ##$RockSwitchEth= <no>
$$ ##$SCMTY= <no>
$$ ##$SGUC1= (0..15)
$$ 17 20 19 0 0 0 0 0 0 0 0 0 0 0 0 0
$$ ##$SGUC2= (0..15)
$$ 0 256 18 0 0 0 0 0 0 0 0 0 0 0 0 0
$$ ##$SLCBCONF= <SHNV>
$$ ##$SPECTR= 10
$$ ##$SY2FLAG= 0
$$ ##$SYNCTRIG= 11
$$ ##$SamChgEth= (0..3)
$$ <no> <no> <no> <no>
$$ ##$ServiceNo= <>
$$ ##$Sgu1PowerLevels= (0..7)
$$ 90 74 58 42 26 10 0 0
$$ ##$Sgu2PowerLevels= (0..7)
$$ 90 74 58 42 26 10 0 0
$$ ##$Sgu3PowerLevels= (0..7)
$$ 90 74 58 42 26 10 0 0
$$ ##$Sgu4PowerLevels= (0..7)
$$ 90 74 58 42 26 10 0 0
$$ ##$Sgu5PowerLevels= (0..7)
$$ 0 0 0 0 0 0 0 0
$$ ##$Sgu6PowerLevels= (0..7)
$$ 0 0 0 0 0 0 0 0
$$ ##$Sgu7PowerLevels= (0..7)
$$ 0 0 0 0 0 0 0 0
$$ ##$Sgu8PowerLevels= (0..7)
$$ 0 0 0 0 0 0 0 0
$$ ##$SguType= 3
$$ ##$ShimMaxVal= 32760
$$ ##$ShimPow1Ch2Sh= (0..38)
$$ 0 0 0 0 0 0 0 0 0 0 0 0 0 0 0 0 0 0 0 0 0 0 0 0 0 0 0 0 0 0 0 0 0 0 0 0
$$ 0 0 0
$$ ##$ShimPow1Imax= (0..38)
$$ 0 0 0 0 0 0 0 0 0 0 0 0 0 0 0 0 0 0 0 0 0 0 0 0 0 0 0 0 0 0 0 0 0 0 0 0
$$ 0 0 0
$$ ##$ShimPow1NChan= 0
$$ ##$ShimPow1TotIMax= 0
$$ ##$ShimPow1Vmax= (0..38)
$$ 0 0 0 0 0 0 0 0 0 0 0 0 0 0 0 0 0 0 0 0 0 0 0 0 0 0 0 0 0 0 0 0 0 0 0 0
$$ 0 0 0
$$ ##$ShimPow2Ch2Sh= (0..38)
$$ 0 0 0 0 0 0 0 0 0 0 0 0 0 0 0 0 0 0 0 0 0 0 0 0 0 0 0 0 0 0 0 0 0 0 0 0
$$ 0 0 0
$$ ##$ShimPow2Imax= (0..38)
$$ 0 0 0 0 0 0 0 0 0 0 0 0 0 0 0 0 0 0 0 0 0 0 0 0 0 0 0 0 0 0 0 0 0 0 0 0
$$ 0 0 0
$$ ##$ShimPow2NChan= 0
$$ ##$ShimPow2TotIMax= 0
$$ ##$ShimPow2Vmax= (0..38)
$$ 0 0 0 0 0 0 0 0 0 0 0 0 0 0 0 0 0 0 0 0 0 0 0 0 0 0 0 0 0 0 0 0 0 0 0 0
$$ 0 0 0
$$ ##$ShimPow3Ch2Sh= (0..38)
$$ 0 0 0 0 0 0 0 0 0 0 0 0 0 0 0 0 0 0 0 0 0 0 0 0 0 0 0 0 0 0 0 0 0 0 0 0
$$ 0 0 0
$$ ##$ShimPow3Imax= (0..38)
$$ 0 0 0 0 0 0 0 0 0 0 0 0 0 0 0 0 0 0 0 0 0 0 0 0 0 0 0 0 0 0 0 0 0 0 0 0
$$ 0 0 0
$$ ##$ShimPow3NChan= 0
$$ ##$ShimPow3TotIMax= 0
$$ ##$ShimPow3Vmax= (0..38)
$$ 0 0 0 0 0 0 0 0 0 0 0 0 0 0 0 0 0 0 0 0 0 0 0 0 0 0 0 0 0 0 0 0 0 0 0 0
$$ 0 0 0
$$ ##$ShimPow4Ch2Sh= (0..38)
$$ 0 0 0 0 0 0 0 0 0 0 0 0 0 0 0 0 0 0 0 0 0 0 0 0 0 0 0 0 0 0 0 0 0 0 0 0
$$ 0 0 0
$$ ##$ShimPow4Imax= (0..38)
$$ 0 0 0 0 0 0 0 0 0 0 0 0 0 0 0 0 0 0 0 0 0 0 0 0 0 0 0 0 0 0 0 0 0 0 0 0
$$ 0 0 0
$$ ##$ShimPow4NChan= 0
$$ ##$ShimPow4TotIMax= 0
$$ ##$ShimPow4Vmax= (0..38)
$$ 0 0 0 0 0 0 0 0 0 0 0 0 0 0 0 0 0 0 0 0 0 0 0 0 0 0 0 0 0 0 0 0 0 0 0 0
$$ 0 0 0
$$ ##$ShimPowMaxUA= (0..63)
$$ 130000 130000 130000 130000 130000 130000 130000 130000 130000 130000 130000
$$ 130000 130000 130000 130000 130000 130000 130000 130000 130000 130000 130000
$$ 130000 130000 130000 130000 130000 130000 130000 130000 130000 130000 130000
$$ 130000 130000 130000 130000 130000 130000 130000 0 0 0 0 0 0 0 0 0 0 0
$$ 0 0 0 0 0 0 0 0 0 0 0 0 0
$$ ##$ShimPowMaxUC= (0..63)
$$ 130000 130000 130000 130000 130000 130000 130000 130000 130000 130000 130000
$$ 130000 130000 130000 130000 130000 130000 130000 130000 130000 130000 130000
$$ 130000 130000 130000 130000 130000 130000 130000 130000 130000 130000 130000
$$ 130000 130000 130000 130000 130000 130000 130000 0 0 0 0 0 0 0 0 0 0 0
$$ 0 0 0 0 0 0 0 0 0 0 0 0 0
$$ ##$ShimPowMaxUG= (0..63)
$$ 1000000 1000000 1000000 1000000 1000000 1000000 1000000 1000000 1000000
$$ 1000000 1000000 1000000 1000000 1000000 1000000 1000000 1000000 1000000
$$ 1000000 1000000 1000000 1000000 1000000 1000000 1000000 1000000 1000000
$$ 1000000 1000000 1000000 1000000 1000000 1000000 1000000 1000000 1000000
$$ 1000000 1000000 1000000 0 0 0 0 0 0 0 0 0 0 0 0 0 0 0 0 0 0 0 0 0 0 0 0
$$ 0
$$ ##$ShimPowNum= 0
$$ ##$ShimPowRcbType= 3
$$ ##$ShimPowRes= (0..63)
$$ 1e-20 1e-20 1e-20 1e-20 1e-20 1e-20 1e-20 1e-20 1e-20 1e-20 1e-20 1e-20
$$ 1e-20 1e-20 1e-20 1e-20 1e-20 1e-20 1e-20 1e-20 1e-20 1e-20 1e-20 1e-20
$$ 1e-20 1e-20 1e-20 1e-20 1e-20 1e-20 1e-20 1e-20 1e-20 1e-20 1e-20 1e-20
$$ 1e-20 1e-20 1e-20 1e-20 0 0 0 0 0 0 0 0 0 0 0 0 0 0 0 0 0 0 0 0 0 0 0 0
$$ ##$ShimPowRng0= (0..63)
$$ 1 1 1 1 1 1 1 1 1 1 1 1 1 1 1 1 1 1 1 1 1 1 1 1 1 1 1 1 1 1 1 1 1 1 1 1
$$ 1 1 1 1 0 0 0 0 0 0 0 0 0 0 0 0 0 0 0 0 0 0 0 0 0 0 0 0
$$ ##$ShimPowRng1= (0..63)
$$ 1 1 1 1 1 1 1 1 1 1 1 1 1 1 1 1 1 1 1 1 1 1 1 1 1 1 1 1 1 1 1 1 1 1 1 1
$$ 1 1 1 1 0 0 0 0 0 0 0 0 0 0 0 0 0 0 0 0 0 0 0 0 0 0 0 0
$$ ##$ShimPowRng2= (0..63)
$$ 1 1 1 1 1 1 1 1 1 1 1 1 1 1 1 1 1 1 1 1 1 1 1 1 1 1 1 1 1 1 1 1 1 1 1 1
$$ 1 1 1 1 0 0 0 0 0 0 0 0 0 0 0 0 0 0 0 0 0 0 0 0 0 0 0 0
$$ ##$ShimPowRng3= (0..63)
$$ 1 1 1 1 1 1 1 1 1 1 1 1 1 1 1 1 1 1 1 1 1 1 1 1 1 1 1 1 1 1 1 1 1 1 1 1
$$ 1 1 1 1 0 0 0 0 0 0 0 0 0 0 0 0 0 0 0 0 0 0 0 0 0 0 0 0
$$ ##$ShimPowType1= 0
$$ ##$ShimPowType2= 0
$$ ##$ShimPowType3= 0
$$ ##$ShimPowType4= 0
$$ ##$ShimSysAngle= <>
$$ ##$ShimSysFunc= (0..63)
$$ 1 2 3 4 5 6 7 8 9 10 0 37 38 35 16 15 14 13 12 11 28 27 26 25 24 23 36
$$ 22 30 29 20 21 34 33 32 31 17 18 19 0 0 0 0 0 0 0 0 0 0 0 0 0 0 0 0 0 0
$$ 0 0 0 0 0 0 0
$$ ##$ShimSysMatId= <no>
$$ ##$ShimSysMatrix= 1
$$ ##$ShimSysOffset= <56mm>
$$ ##$ShimSysType= 4
$$ ##$ShimUnit= 0
$$ ##$TFXNUM= 0
$$ ##$TOSITY= <no>
$$ ##$TRIPLO2= 0
$$ ##$VTU= 2
$$ ##$VTUETH= <149.236.99.20>
$$ ##$VTUTY= <no>
$$ ##$WBREFAM= (0..15)
$$ 100 100 100 100 100 100 100 100 100 100 100 100 100 100 100 100
$$ ##$WBREFLM= (0..15)
$$ 1 0 0 0 0 0 0 0 0 0 0 0 0 0 0 0
$$ ##$WBREFPH= (0..15)
$$ 0.07 0 0 0 0 0 0 0 0 0 0 0 0 0 0 0
$$ ##$WBSGU= (0..15)
$$ 0 0 0 0 0 0 0 0 0 0 0 0 0 0 0 0
$$ ##$XFAC= 2
$$ ##END=
##$RELAX= 
$$ Bruker specific parameters
$$ --------------------------
##$DATPATH= </Users/matthias/Documents/NMR/NMR Spectra/Data Stuff>
##$EXPNO= 14
##$NAME= <Guvacine>
##$PROCNO= 1
##$ACQT0= -6.36619772367581
##$AMP= (0..31)
100 100 100 100 100 100 100 100 100 100 100 100 100 100 100 100 100 100
100 100 100 100 100 100 100 100 100 100 100 100 100 100
##$AMPCOIL= (0..32)
0 0 0 0 0 0 0 0 0 0 0 0 0 0 0 0 0 0 0 0 0 0 0 0 0 0 0 0 0 0 0 0 0
##$AQSEQ= 0
##$AQ_mod= 3
##$AUNM= <au_zg>
##$AUTOPOS= <>
##$BF1= 125.787963
##$BF2= 500.25
##$BF3= 500.25
##$BF4= 500.25
##$BF5= 500.25
##$BF6= 500.25
##$BF7= 500.25
##$BF8= 500.25
##$BWFAC= (0..63)
0 0 0 0 0 0 0 0 0 0 0 0 0 0 0 0 0 0 0 0 0 0 0 0 0 0 0 0 0 0 0 0 0 0 0 0
0 0 0 0 0 0 0 0 0 0 0 0 0 0 0 0 0 0 0 0 0 0 0 0 0 0 0 0
##$BYTORDA= 0
##$CHANFCU= (0..24)
0 0 0 0 0 0 0 0 0 0 0 0 0 0 0 0 0 0 0 0 0 0 0 0 0
##$CHANREC= (0..24)
0 0 0 0 0 0 0 0 0 0 0 0 0 0 0 0 0 0 0 0 0 0 0 0 0
##$CHEMSTR= <none>
##$CNST= (0..63)
1 1 145 1 1 1 1 1 1 1 1 1 1 1 1 1 1 1 1 1 1 1 1 1 1 1 1 1 1 1 1 1 1 1 1
1 1 1 1 1 1 1 1 1 1 1 1 1 1 1 1 1 1 1 1 1 1 1 1 1 1 1 1 1
##$CPDPRG= (0..8)
<> <> <waltz16> <> <> <> <> <> <>
##$D= (0..63)
0 2 0.003448276 0 0 0 0 0 0 0 0 0 2e-05 0 0 0 0.0002 0 0 0 0 0 0 0 0 0
0 0 0 0 0 0 0 0 0 0 0 0 0 0 0 0 0 0 0 0 0 0 0 0 0 0 0 0 0 0 0 0 0 0 0 0
0 0
##$DATE= 1747655787
##$DATE_START= 0
##$DE= 10
##$DECIM= 792
##$DIGMOD= 1
##$DIGTYP= 12
##$DR= 21
##$DS= 4
##$DSPFIRM= 0
##$DSPFVS= 20
##$DTYPA= 0
##$EXP= <1_IfC_DEPT90>
##$ExpStatus= 0
##$FCUCHAN= (0..9)
0 1 3 0 0 0 0 0 0 0
##$FILCOR= 0
##$FL1= 0
##$FL2= 0
##$FL3= 0
##$FL4= 0
##$FN_INDIRECT= (0..7)
0 0 0 0 0 0 0 0
##$FOV= 0
##$FQ1LIST= <>
##$FQ2LIST= <>
##$FQ3LIST= <>
##$FQ4LIST= <>
##$FQ5LIST= <>
##$FQ6LIST= <>
##$FQ7LIST= <>
##$FQ8LIST= <>
##$FS= (0..7)
83 83 83 83 83 83 83 83
##$FW= 4032000
##$FnILOOP= 0
##$FnMODE= 0
##$FnTYPE= 0
##$GPNAM= (0..31)
<> <> <> <> <> <> <> <> <> <> <> <> <> <> <> <> <> <> <> <> <> <> <> <>
<> <> <> <> <> <> <> <>
##$GPX= (0..31)
0 0 0 0 0 0 0 0 0 0 0 0 0 0 0 0 0 0 0 0 0 0 0 0 0 0 0 0 0 0 0 0
##$GPY= (0..31)
0 0 0 0 0 0 0 0 0 0 0 0 0 0 0 0 0 0 0 0 0 0 0 0 0 0 0 0 0 0 0 0
##$GPZ= (0..31)
0 0 0 0 0 0 0 0 0 0 0 0 0 0 0 0 0 0 0 0 0 0 0 0 0 0 0 0 0 0 0 0
##$GRPDLY= 67.9930419921875
##$GrpdlyHandling= 0
##$HDDUTY= 20
##$HDRATE= 1
##$HOLDER= 0
##$HPMOD= (0..32)
0 0 0 0 0 0 0 0 0 0 0 0 0 0 0 0 0 0 0 0 0 0 0 0 0 0 0 0 0 0 0 0 0
##$IN= (0..63)
0 0 0 0 0 0 0 0 0 0 0 0 0 0 0 0 0 0 0 0 0 0 0 0 0 0 0 0 0 0 0 0 0 0 0 0
0 0 0 0 0 0 0 0 0 0 0 0 0 0 0 0 0 0 0 0 0 0 0 0 0 0 0 0
##$INF= (0..7)
0 0 0 0 0 0 0 0
##$INP= (0..63)
0 0 0 0 0 0 0 0 0 0 0 0 0 0 0 0 0 0 0 0 0 0 0 0 0 0 0 0 0 0 0 0 0 0 0 0
0 0 0 0 0 0 0 0 0 0 0 0 0 0 0 0 0 0 0 0 0 0 0 0 0 0 0 0
##$INSTRUM= <spect>
##$INTEGFAC= (0..63)
0 0 0 0 0 0 0 0 0 0 0 0 0 0 0 0 0 0 0 0 0 0 0 0 0 0 0 0 0 0 0 0 0 0 0 0
0 0 0 0 0 0 0 0 0 0 0 0 0 0 0 0 0 0 0 0 0 0 0 0 0 0 0 0
##$L= (0..31)
1 1 1 1 1 1 1 1 1 1 1 1 1 1 1 1 1 1 1 1 1 1 1 1 1 1 1 1 1 1 1 1
##$LFILTER= 500
##$LGAIN= 5
##$LINPSTP= 0
##$LOCKED= yes
##$LOCKFLD= 5539
##$LOCKGN= 118.199996948242
##$LOCKPOW= -39
##$LOCKPPM= 4.69999980926514
##$LOCNUC= <2H>
##$LOCPHAS= 8.269753
##$LOCSHFT= yes
##$LOCSW= 0
##$LTIME= 0.25
##$MASR= 4200
##$MULEXPNO= (0..15)
0 0 0 0 0 0 0 0 0 0 0 0 0 0 0 0
##$NBL= 1
##$NC= -5
##$NLOGCH= 3
##$NOVFLW= 0
##$NS= 64
##$NUC1= <13C>
##$NUC2= <1H>
##$NUC3= <off>
##$NUC4= <off>
##$NUC5= <off>
##$NUC6= <off>
##$NUC7= <off>
##$NUC8= <off>
##$NUCLEUS= <off>
##$NUSLIST= <automatic>
##$NusAMOUNT= 25
##$NusFPNZ= no
##$NusJSP= 0
##$NusSEED= 54321
##$NusSPTYPE= 0
##$NusT2= 1
##$NusTD= 0
##$O1= 11320.92
##$O2= 2001
##$O3= 12578.35
##$O4= 12578.35
##$O5= 12578.35
##$O6= 12578.35
##$O7= 12578.35
##$O8= 12578.35
##$OVERFLW= 0
##$P= (0..63)
10 10 20 15.5 31 16.5 25 50 420 30 60 40000 40000 2000 0 0 1000 2000 500
600 2500 0 0 0 1000 0 500 10 0.1 2000 0 0 4440 0 0 0 80000 0 0 2040 4000
0 0 10000 888 0 40000 1260 2400 0 40000 0 0 0 0 0 0 0 0 0 0 0 0 1680
##$PACOIL= (0..32)
0 0 0 0 0 0 0 0 0 0 0 0 0 0 0 0 0 0 0 0 0 0 0 0 0 0 0 0 0 0 0 0 0
##$PARMODE= 0
##$PCPD= (0..9)
0 70 80 0 0 0 0 0 0 0
##$PEXSEL= (0..9)
1 1 1 1 1 1 1 1 1 1
##$PHCOR= (0..31)
0 0 0 0 0 0 0 0 0 0 0 0 0 0 0 0 0 0 0 0 0 0 0 0 0 0 0 0 0 0 0 0
##$PHLIST= <>
##$PH_ref= 0
##$PL= (0..63)
120 120 120 120 120 120 120 120 120 120 120 120 120 120 120 120 120 120
120 120 120 120 120 120 120 120 120 120 120 120 120 120 120 120 120 120
120 120 120 120 120 120 120 120 120 120 120 120 120 120 120 120 120 120
120 120 120 120 120 120 120 120 120 120
##$PLSTEP= 0.1
##$PLSTRT= -6
##$PLW= (0..63)
0 50.927 13.91 0 0 0 0 0 0 0 8.1483 0.32593 0.48904 0.24559 0 3.4776 0
0 50.927 1.0393 0 0.00012519 0 0 0.0020031 0 0.12226 0 0 8.1483 0.48904
1.9562 0 0 0 0 0 0 0 0 0 0 0 0 0 0 0 0 0 0 0 0 0 0 0 0 0 0 0 0 0 0 0 0
##$PLWMAX= (0..7)
452.7 102.8 0 0 0 0 0 0
##$PR= 1
##$PRECHAN= (0..32)
-1 2 -1 0 -1 1 -1 -1 -1 -1 -1 -1 -1 -1 -1 -1 -1 -1 -1 -1 -1 -1 -1 -1 -1
-1 -1 -1 -1 -1 -1 -1 -1
##$PROBHD= <Z800701_0081 (PA BBO 500S2 BB-H-D-05 Z)>
##$PROBINPUTS= (0..15)
<> <> <> <> <> <> <> <> <> <> <> <> <> <> <> <>
##$PULPROG= <deptsp90>
##$PW= 0
##$PYNM= <>
##$ProbeDescription= <>
##$ProjAngle= 0
##$RECCHAN= (0..9)
0 1 0 0 0 0 0 0 0 0
##$RECPH= 0
##$RECPRE= (0..24)
-1 2 -1 -1 -1 -1 -1 -1 -1 -1 -1 -1 -1 -1 -1 -1 -1 -1 -1 -1 -1 -1 -1 -1
-1
##$RECPRFX= (0..32)
1 0 0 0 0 0 0 0 0 0 0 0 0 0 0 0 -1 -1 -1 -1 -1 -1 -1 -1 -1 -1 -1 -1 -1
-1 -1 -1 -1
##$RG= 203
##$RO= 0
##$RSEL= (0..24)
0 1 0 2 0 0 0 0 0 0 0 0 0 0 0 0 0 0 0 0 0 0 0 0 0
##$SAMPLEID= <>
##$SFO1= 125.79928392
##$SFO2= 500.252001
##$SFO3= 500.26257835
##$SFO4= 500.26257835
##$SFO5= 500.26257835
##$SFO6= 500.26257835
##$SFO7= 500.26257835
##$SFO8= 500.26257835
##$SOLVENT= <D2O>
##$SOLVOLD= <off>
##$SP= (0..63)
120 120 120 120 120 120 120 120 120 120 120 120 120 120 120 120 120 120
120 120 120 120 120 120 120 120 120 120 120 120 120 120 120 120 120 120
120 120 120 120 120 120 120 120 120 120 120 120 120 120 120 120 120 120
120 120 120 120 120 120 120 120 120 120
##$SPECTR= 0
##$SPINCNT= 0
##$SPNAM= (0..63)
<> <Q5.1000> <Q3_surbop.1> <0.0> <Eburp2tr.1000> <Crp60comp.4> <Crp60,0.5,20.1>
<Sinc1.1000> <Crp60,0.5,20.1> <> <Crp60comp.4> <Crp60comp.4> <> <> <Eburp2.1000>
<> <> <> <0.0> <Q5tr_sebop.1> <Q5tr_sebop.1> <Q5tr_sebop.1> <Q5tr_sebop.1>
<> <> <> <Gaus1_180r.1000> <> <> <Q5tr.1000> <Q3_surbop.1> <Reburp.1000>
<Q3.1000> <> <Q3_surbop.1> <Q3_surbop.1> <Q5.1000> <> <> <> <Q3_surbop.1>
<Crp60,0.5,20.1> <> <> <> <> <> <> <> <> <> <> <> <> <> <> <> <> <> <>
<> <> <> <>
##$SPOAL= (0..63)
0.5 1 0.5 0.5 0 0.5 0.5 0.5 0.5 0.5 0.5 0.5 0.5 0.5 1 0.5 0.5 0.5 0.5 0
0 0 0 0.5 0.5 0.5 0.5 0.5 0.5 0 0.5 0.5 0.5 0.5 0.5 0.5 1 0.5 0.5 0.5 0.5
0.5 0.5 0.5 0.5 0.5 0.5 0.5 0.5 0.5 0.5 0.5 0.5 0.5 0.5 0.5 0.5 0.5 0.5
0.5 0.5 0.5 0.5 0.5
##$SPOFFS= (0..63)
0 0 0 0 0 0 0 0 0 0 0 0 0 0 0 0 0 0 0 0 0 0 0 0 0 0 0 0 0 0 0 0 0 0 0 0
0 0 0 0 0 0 0 0 0 0 0 0 0 0 0 0 0 0 0 0 0 0 0 0 0 0 0 0
##$SPPEX= (0..63)
0 0 0 0 0 0 0 0 0 0 0 0 0 0 0 0 0 0 0 0 0 0 0 0 0 0 0 0 0 0 0 0 0 0 0 0
0 0 0 0 0 0 0 0 0 0 0 0 0 0 0 0 0 0 0 0 0 0 0 0 0 0 0 0
##$SPW= (0..63)
0 0.0010712 0.00087704 0 0.20192 7.781 0 0.0090249 7.781 0 7.781 7.781
0 0 0.20192 0 0 0 0 10.5295 16.36776 7.642584 41.21582 0 0 0 1.1548e-05
0 0 0.086942 1.7796 0.69638 0.005456 0 0.88389 0.00087704 0.29756 0 0 0
0.00087704 7.781 0 0 0 0 0 0 0 0 0 0 0 0 0 0 0 0 0 0 0 0 0 0
##$SUBNAM= (0..9)
<> <> <> <> <> <> <> <> <> <>
##$SW= 200.736637488208
##$SWIBOX= (0..32)
0 1 3 0 0 0 0 0 0 0 0 0 0 0 0 0 0 0 0 0 0 0 0 0 0 0 0 0 0 0 0 0 0
##$SW_h= 25252.5252525253
##$SWfinal= 0
##$SigLockShift= 0
##$TD= 65536
##$TD0= 1
##$TD_INDIRECT= (0..7)
0 0 0 0 0 0 0 0
##$TDav= 1
##$TE= 298.0192
##$TE1= 298.0192
##$TE2= 0
##$TE3= 0
##$TE4= 0
##$TEG= 300
##$TE_MAGNET= 0
##$TE_PIDX= 1
##$TE_RAW= 300
##$TE_STAB= (0..9)
2 2 0 0 0 0 0 0 0 0
##$TOTROT= (0..63)
0 0 0 0 0 0 0 0 0 0 0 0 0 0 0 0 0 0 0 0 0 0 0 0 0 0 0 0 0 0 0 0 0 0 0 0
0 0 0 0 0 0 0 0 0 0 0 0 0 0 0 0 0 0 0 0 0 0 0 0 0 0 0 0
##$TUBE_TYPE= <>
##$USERA1= <>
##$USERA10= <>
##$USERA2= <>
##$USERA3= <>
##$USERA4= <>
##$USERA5= <>
##$USERA6= <>
##$USERA7= <>
##$USERA8= <>
##$USERA9= <>
##$UUID= <>
##$VALIDCODE= -1
##$VALIST= <>
##$VCLIST= <>
##$VDLIST= <>
##$VPLIST= <>
##$VTLIST= <>
##$VtChillPowType= 0
##$VtChillPowVal= 0
##$VtChillType= 0
##$VtGasFlow= 0
##$WAVEMAKER= (0..7)
<> <> <> <> <> <> <> <>
##$WBST= 1024
##$WBSW= (0..7)
4 10 10 10 10 10 10 10
##$XL= 0
##$YL= 0
##$YMAX_a= 13969
##$YMIN_a= -13666
##$ZGOPTNS= <>
##$scaledByNS= no
##$scaledByRG= no
##$shimCoilTempK= 300
##$ABSF1= 190.377378368479
##$ABSF2= -10.3773254224171
##$ABSG= 5
##$ABSL= 3
##$ALPHA= 0
##$AQORDER= 0
##$ASSFAC= 0
##$ASSFACI= 0
##$ASSFACX= 0
##$ASSWID= 0
##$AUNMP= <proc_1d>
##$AXLEFT= 0
##$AXNAME= <>
##$AXNUC= <13C>
##$AXRIGHT= 0
##$AXTYPE= 0
##$AXUNIT= <>
##$AZFE= 0.1
##$AZFW= 0.5
##$BCFW= 0
##$BC_mod= 0
##$BYTORDP= 0
##$COROFFS= 0
##$CY= 15
##$DATMOD= 1
##$DC= 0
##$DFILT= <>
##$DTYPP= 0
##$ERETIC= no
##$F1P= 240
##$F2P= -10
##$FCOR= 1
##$FTSIZE= 32768
##$FT_mod= 6
##$GAMMA= 0
##$GB= 0
##$INTBC= 1
##$INTSCL= 1
##$ISEN= 30
##$LB= 2
##$LEV0= 0
##$LPBIN= 0
##$MAXI= 10000
##$MC2= 0
##$MEAN= 0
##$ME_mod= 0
##$MI= 0
##$MddCEXP= no
##$MddCT_SP= no
##$MddF180= no
##$MddLAMBDA= 0
##$MddMEMORY= 0
##$MddMERGE= 0
##$MddNCOMP= 0
##$MddNITER= 0
##$MddNOISE= 0
##$MddPHASE= 0
##$MddSEED= 0
##$MddSRSIZE= 0
##$Mdd_CsALG= 0
##$Mdd_CsLAMBDA= 0
##$Mdd_CsNITER= 0
##$Mdd_CsNORM= 0
##$Mdd_CsVE= no
##$Mdd_CsZF= 0
##$Mdd_LrLAMBDA= 0
##$Mdd_LrNITER= 0
##$Mdd_LrRANK= 0
##$Mdd_LrZF= 0
##$Mdd_mod= 0
##$NCOEF= 0
##$NC_proc= -9
##$NLEV= 6
##$NOISF1= 0
##$NOISF2= 0
##$NSP= 0
##$NTH_PI= 0
##$NZP= 0
##$OFFSET= 190.377378368479
##$PC= 1.4
##$PHC0= 83.6974710448564
##$PHC1= -144.390195955496
##$PH_mod= 1
##$PKNL= yes
##$PPARMOD= 0
##$PPDIAG= 0
##$PPIPTYP= 0
##$PPMPNUM= 2147483647
##$PPRESOL= 1
##$PSCAL= 4
##$PSIGN= 0
##$PYNMP= <proc.py>
##$RDF1= 0
##$RDF2= 0
##$RDFWHM= 0
##$RDINT= 0
##$RDPOS= 0
##$REVERSE= no
##$SF= 125.787963
##$SI= 32768
##$SIGF1= 0
##$SIGF2= 0
##$SINO= 0
##$SIOLD= 32768
##$SPECTYP= <>
##$SREF_mod= 1
##$SREGLST= <13C.CDCl3>
##$SSB= 0
##$STSI= 32768
##$STSR= 0
##$SW_p= 25252.5252525252
##$SYMM= 0
##$S_DEV= 0
##$TDeff= 65536
##$TDoff= 0
##$TI= <>
##$TILT= no
##$TM1= 0
##$TM2= 0
##$TOPLEV= 0
##$USERP1= <>
##$USERP10= <>
##$USERP2= <>
##$USERP3= <>
##$USERP4= <>
##$USERP5= <>
##$USERP6= <>
##$USERP7= <>
##$USERP8= <>
##$USERP9= <>
##$WDW= 1
##$XDIM= 32768
##$YMAX_p= 334867974
##$YMIN_p= -104109738
##$CURPLOT= <C280>
##$CURPRIN= <$C280>
##$DFORMAT= <normdp>
##$LAYOUT= <+/1D_X.xwp>
##$LFORMAT= <normlp>
##$PFORMAT= <normpl>
$$ End of Bruker specific parameters
$$ ---------------------------------
##XUNITS= HZ
##YUNITS= ARBITRARY UNITS
##XFACTOR= 0.770645912247473
##YFACTOR= 1
##DELTAX= -0.770645912247473
##NPOINTS= 32768
##FIRSTX= 25251.754606613
##FIRSTY= -183509
##LASTX= 0
##MAXY= 334867974
##MINY= -104109738
##XYDATA= (X++(Y..Y))
32767a83509F958P6262a46802l2124m51858J11575b27196B29060J96611O02835
32757A028506k5121A11427i44641k72464L45768J67812N5627a15800C9296a39710
32746a36745A040a04274J9339k25741L6897a14423j79470k28897p4927A4708P25384
32735G40092j74014j31719A50535d9632E31341P32966l44548B21687a56343j55755
32725c12098A15417L74445J5844J06269K27276P2619m27195F0308N20675p2082
32715E08901J77818l19121d17813m76772L5120c48659F68504K73344j78941E2728
32704a28954E969K53517a98206p9967C52076n3490j23652J88048A48420b3051
32693c9023k91486b1155B19063O74966L58615m49285a50494j05408a24379p28731
32683h53110L266J3052L58555a64296n6987l28533l68162o11133j75296N83140
32673a121267B12687M98281k09952G1387d10147n5255K09094e6073m38397J76135
32663c18335F03503L54621D62023b91851j92102k17032a28541D10856J55513H9964
32652C4151J83961M3856B9615b9650j41885l50929k04385Q3255J11159H2953N26325
32641F09278j36846e9617q20096o2966k69292L84640b51789D66398A21812c27196
32630a09029m6085B6346N490d64156j34298J02150k84036J35111j49629J74853
32620f20005J52205k18647J1219b66975k27469a99660B17407C1420J97861P96608
32610A025889N03918m8462k64738n25346l28247O63446Q67882L98461N78572k2699
32600B848676k18130p509r5327p45230H80651A13769c20972a00106D01128n949
32590C95179b83367n83419o78856j68141K38609K34546L69337d06298J75025k31125
32580d62398b28233B35984J32688K15658B05436c83307l25274n7440c46186M1205
32570c04981l56606b33318E88017N82528J7989J82715r3108l17569m37759k55058
32560B67755B7469a44623q01496p35828J251g82269a70685E42214K52374C69565
32549C15510c08190n36609r6783d52320A41862n6250c5099D91943L27687R3298
32539I12928k23258j82241M82493O48328M36821o36291l06311L44828l03762n19907
32529F53628d01813p11432J58607E0794P75653J84545M31198K27727J36776G69103
32518a59940k2501c1074E31932P18655N47765o42548m42576K62357j02048C82573
32507B45605L68038L04553l99761j98000d26167l10284b00928B94713N42264l07229
32497E29748d99355m81699r39m11784k65531M62109L86653p70489J5791M44553
32487a120691e21229b50538j75563n75078j80593j7319Q9611L43045k16393K42839
32477g39989L42227k03642g0640C95953b26175o5257N8826g2927A00825K35023
32467C35848D6241d45178k92406j86548B20756Q83063j47647j00218l88271f09926
32456a093150j73930R4964e22779K1811l176Q6235J56436m09428l78475K62260
32446g87116a53968J9414j7495k70240K3158J39085q09131L63660c18575J39612
32436a78963B39069i0397l56131j5874L6043b12095O247D1541m902a29012j029724
32425a158736q15843j3595O90209c08967I46923q4990C55437d21826k51615a40835
32414a3448C56911o5827D6087b11803o74690J04390K27161K03910k02082b76150
32403F52701j01536e5318j34936A37487P27463O20008K20581p29519a79622p02652
32393h82274b20867G06930j28851f8706l23323l51904n43522l48673j0639j18114
32383a764881m38428L95614M88242L63077a28452E72717M0232A94755c76173k85013
32373f61186j7236K96878j77564J13337a93910l40945k36080B493O50754M47216
32363A100463Q1620P28091P10781p37501D73055a45205k39124C19905L18525K71989
32353I10419k48472h2347l34345I6025K75369q7406J86704M23016K96841j13310
32343A077239A65267e76780k71855j78220L73523b65614j03964j89424i0665l6310
32333a26975o94561o91218c78643D56208M54207M5250D54535j01482N9614Q1773
32323D94440M33924k49186k78806J286948Q12989j9184o86900o37563J088186
32314B244848O07613m23515o04328o78454E59634j78534c10526n66631J5287o52429
32304a514299q30693K06109R90381N60298E63603J138684L8256l02312M07764
32295A845995j03201p40405A03238K3976M75801j74774o4865K72915N3175k09998
32285D79468K59917q6946B52374L8485J49669K21265L59957J76746J16293L35323
32275A650112j27305m2292k32641C83545A57652K90493F2962f80543m38594P9274
32265a039863L39750a15121D33057e07066m82114M21634m06805l78703n7350d51974
32254G14889l16878Q765N30539N4678a58561p93994n53051o326M42787L15156
32244g53989k8094J03222D70668M01392k75062k44758D0077f37017o11086j60988
32234a409091n351K82625K66846L02146B64702N98439j31901B31598e59385m54985
32224a014370c60069B5420g4155c1523C16775f9687q60517o40198J12031N71813
32214h86558l19733j416676p41064Q99175N22324N41178f05687h10l3704n57020
32204e91534j19748k93366p01367Q47299E96928K45005A7340a004958j82459M77485
32194g09932f85G38929O61805o5067F44171a43495k49814a44976E94442K19077
32184H13519j65486k53877m0244N45675K53132B31263d32045B1410J43539B0906
32173A15490c38077l10877b47574F02354R81749O89676m46095q10219B04922b57353
32162A14293D9290g60392q02834N22892M64783K06846C25609J042439k47234B40723
32151D45914L85191L05187n48202A51406J25318L19981Q1482O72030n5064k65901
32141A029252k8052r8688m05418L3222A69813e89416j69017L06396C7697h3947
32130c90769r03658k37722m22377K31417N87184l82609l40249O83773N16727a27230
32119b26503o14550K77674h1592B56408N56822P47280M92818l24566o95204m77066
32109E56492p3927J017220Q36944o69686n78773m6757M29557l1080A00966d73683
32098d76071a71580A05843m1266h4560D76019M90308r2950n2023M92688N80198
32088A894240P365K23792o89275c700p24436l0506J76534F86714M54444C67978
32077D85338L11528j33360j52711J67881l01798j8716A59961c00572L3807M2940
32067b23825n3666n64394n07780m74161j28566q27278k93932K67119k41486K83574
32057b764395h62961D41383K93359K8064d03210q54371L49887j09577k78520R8664
32047a197127J64384L86211M9744j11338K3573A89506N89232J63324R9096l39945
32037G01213a34474p18527K59460b62886Q8165r5603Q7311k30196l01574b05090
32026D96211M9526g6173j64271F68794Q11311o64843C59619a25848j00982A31457
32015g24834q5504L82269j12017l12097k56290L25688b99571G3004d39871p33986
32005a173857J1371K48155c13546D66282O32915K03055K06703k67828n45447e4967
31994d36106k66224b40783B90910K97191b75872p13066J82340L29341g4455B82924
31983B77129q1125K43348J66187b68031j014368K06873c74320o19074m63137L38064
31973a118467K17151k28218k7215L5683K6034L74700B16967R93939M32101l43983
31963A299024l31721K6665N89266J55376p62680B211d83727Q9141F95685J111651
31953A807336N27142r26974A01510c10584E77076M41508j53204j73263L31929
31944A024046J67537K63992R10565L0444K6781Q07012j99666m58849n88414n42645
31934A440803C42028A8113N90165M74781k93363k93944H6400c8949p4851d5376
31923A41650a73348o25891L80821E74685K57550g27258j254236m22272m18605
31914b822371P77300P27659M25330A92718J58560c79241j24058J63372B62028
31904I13702R9172l63746K25042N6627k03698k64955L59264J00305J34047R00170
31894A955930j72260n47158k54761l31779M73958K20810N42402O26107o80559
31885A832690o37816K16976N7402k99478K10714L32605p60134b75510h1204G30525
31874A259762L74927N9733L91864l75060R499K60153N1020r26143B86818J95544
31864D82362J5164j70455b78827l84552b86426n12966o69142k33083k04111O61709
31854a244019J81087n25019J6956N13556n9472m78111L56543M87270J84645j06540
31844f73104K04876B49797N03656L20632k58663A79567f38183p978A36194L35781
31834D71975o150D2324L81635J77778J47311J54694K50959J6632E72372A80649
31823e12779j001611K71031O19797K59617m54437n51452Q4237m01016N48410c75263
31812d18849k6655l03478J18456A80072M32657L84155J76669B21160c44997k95218
31802f40215n20444k57611O9020N03891L60595b22238j25729E2638O6284C4028
31791D7848d76563o09416L44448R0323L23816c2328E69339M96014J80601K0143
31781A266097J31481n41927a94739A31880J14548F3936K68899N21587k94154c00445
31770i83466r92600J71904h67338b69104j30448k17613C41025K67606j31188a15814
31759b91481J5392D8417M11436d6306n85563l98998b46340C95878r0614b83616
31748i34933M15274B59776L37694A2147b91766C80555N74959B83545D4417N62631
31738F07048J38001l10465A48891j0070O7085b37974o37342q08631j10224P69914
31728a024257L06425m06434e27003G0709a14737k75853R6725F27690J291345L09341
31718B228376A098628k09991j25624c52098n92048d22810l52619j206209j83593
31709b165231p65319j38083R45958Q39647b27614B40791J5251p2433p0224a38297
31698f07509b99234H37704K70335C69849f92055p05024O81667A84039J35820L0510
31688C50369J36444L65328K60234L20230o8680A35726a021218n83294O73513D32108
31677G03997l3301j28596k69085J95649J64105B35564H3759M7715d82139o40430
31667a122569L27550L61542a72159E40794J34063K16011n2397k91147L94934P569
31657I49827J90021j27604B73609a86306f9685B82083l2947k3192b27068K0235
31647b06833b1129B59506N98573N31325l32019C01130b89549o47864m23717J61822
31637a199308L32914L47822k25393k50334L95676g5248B49115f2148k09044A51739
31626G170i84999n76871M80263M4748j94934K60374K18428Q0432j75688n76759
31616a425006Q5019f25936B86561A09644C7372L63973P51581Q50916K75454k62104
31606B017192q61607J16732P03926l75034n47330B94625j39034Q16245m15213
31597E56623a935774j622933N11404R20765a061618c07540k2630L4817l7342n14317
31587h47012j508997o89971R3182N79376P92660q5662l96929R42671A0650Q1208
31577I1858a45640R280B22719L06695q7754P4963M04659L72767q2861Q6780j46113
31566A151855M20972J27196G25486a09429k46096a63352k93201l7832A65279J263089
31556A428368J031747J44873o10324I87471A79136c08138E2116M40578K43536
31547G36230L49799o0716b4195j321459r03501l06400P45507e99822i3147k71510
31537c64657n12528a82551A040300K56821j42543m57421e13769n42446e13181
31527i34596n40427q95897K66586Q22735e83567j97067j76081d45618J4853o18138
31517a048903M54910f7258n94745j99986L05732K50528J18978j94555j44506m92747
31507a018559q06876n50563O94005M98678O2607j4880R2950J17334j17473k78993
31497a321770e24307A83022O1267d25375q19948j90190j6026j98898L73711M72397
31487h04329b2099I68923O41065m46665m61249K03190j36697B33041M19032O85922
31477A337995N32823O19975N25546M70099n08899j334233A15430e50029J4306
31468e35723a49102k57006m67467l53598J23317J53357K21836C00663K88303n7135
31458E31831k34617J67502k18160E7145b40717m01561L04013a33057B06717m4584
31448A62133a40023A85070c44256r94140p3799l82662n61248N38297M50681L3101
31438a334026k48543n58212n74162k21630O42432l5345l98960n0884M39914O37381
31428a702035K53667b29104G81149N8234L46303K39312l74540J79844J79544n43271
31418H66575B48810d3678F46889Q90082N63802o42615E33914r347a88925j188238
31408a377163l51607k14766j79615q4786g50154C27675A24661c89607j095825
31399a485432J96188c07713J12081l98198k13121L19612I4048N87903M95354J57486
31389A334791k19233R96045R6054j006379C94102a7109j59842F30166P60646J81678
31379A572490n02939a44958n90227J87650C22533Q43419J69042B79183a555061
31369b966809N43713O32134N55329c01604g2658j30597I1892R14866M7006D7876
31358b23856n82046o32016k03132L59869d31999B50396L54433k13133H3422d21497
31347e59550K75377E38426K62867h2730o48062b99665C05729J39429J78696N09815
31337A133669K47735A54079e07941l08517r9703b84195G30515M38218n15825B59451
31326g77554p04638l73102L5690f92986C71244J061948J146970k01662A123578
31316F1869f71194c19901j43929j73172b48262C87490J73062B68523K11888j85997
31306B94414h26567m38212b03748C41362A57964L13363M67615N60316k47270j54593
31296A097395m9470J18507D03833c91902n39159o09379K65406c27125D62252J080033
31286A542285P7541k38925k46933p7063K17981P91010m3385q78268g16168q08838
31276a525006M92746b02354C78047G7151K14525J052878P38062I06844c3804k57029
31266b90833J290l02934J20548a13511J0567I6800J29744m3694K67828O89358
31256A140036n02437e79619m17564c88658A18097a17076A95193L16726R81337
31247A493256K45438o15396o5787J97567C42582k4607O08147C14254i42235k21673
31237a163908K29523L22064K77821l23429j079495n66014M42041e54137A040584
31227A924268M17719o73282p51327C09826q680M00106Q9415C12346H6696N93579
31217F80275O51429L55124M94106l93493p07739n14439A98176r8599M70351L44413
31207I14341J18874C22449E0555O65524J132521l65416j47124P7239E09010i931
31196b17182j07698l51729l77560q75150m44167N93028K68692k17848Q26505F17784
31185A998410Q02049O0350j120516C88170e20771n31746m55467n9299K01323e65776
31174b13744D23793M06418L11695j52034M6542j57438B33802J75677O98504J039233
31164B147216N03864m03302J68716m91337o32995F24204k68755j53843c34198
31154a89532o57607q93721K49714L62838N0074r4699M27N60954b79882A06971
31143B53400O9457e66005l22730L0763b21392E24793K06187M86270p2804k63191
31133H81255l4211k96212c46262k93762e3452k89514j98494J90566H58785O84215
31123A543000J66337F91264c90803H460O9419A3220a21225n67781J00934j46613
31113g34685l03723j18094p0119j23554p5096o36118j55742O37318L11281P0298
31103a198234m69995J47488N10945J93304p82789r97376O7231a148939c27080
31093B08516K7377a91944j60165P5465J37332C47654J59469K95999k78090j547
31083E23485j39094J42716j6853l7415J59230r002J83216O04716k45502m73332
31073F92165k25491q7972k7213r2945Q5195A12012C1817K63785N96020K91392
31063A183014N52980L80109n79335B47814f66951j31343O7700k60020b58558A239332
31052A669806J15092n31385n81185B31059J10963N58727n1111l39394M57123M28354
31042A395721Q5906m88305a22100o01732a43073F91738j56447a42758j40064o55264
31032i38086l30305m34743k86416M51273g26142b98382A06722L50377A95230K95315
31022D90545N77698K65959k73230l672K04816m1675k37809A00033a637045l62433
31012a999478Q11319e54192K30557A46956M15990p0502J8975A44815L3236K46550
31002D24601j92051K69202M92166N5259A14492a69330D43187O34481P08579l37278
30992A448969J61158K7104G31618c76757n4932A35472N34247j12621A5973a338926
30981b097625i23202L91234O5201o32481p50172m14815Q12352d05192a38064k07731
30971c45795p28730j182913o5341g90417E52149K45018A47227g03390o36615n07913
30961a847918k66726P75985f1542G78904o0867B85857J9220C7871c38337p30359
30951a068696M77729q7556K34250B97866R74065j79093C98903A72074j3743g4215
30940a02784G46228N34455k23064B37042R9497N91636N54765M66827m61458m83321
30930A004988K1507C25765c17228q25011K17488r8232m6622L16302J27452B07403
30919F54691i773o36917l14764d09068E78242j72177b82813l58515m81717L27359
30909g95686J97886K48713j3923a48041l617F52917J722846J002296l36271j182815
30899A858973H15847m1748J291677L6931H40111e8729n13986N1418j90922K5982
30889f86237j37577C94445J211285M44494M21343k59749r07340F14247M02104
30880A016351J60698K07188k67375m96911j05680k25593M14654N436L24939k56884
30870G76823b43974m60096c7599F74034L66645E7698f87823m02693M99459a09831
30859c1077n49433n75153d30152D01761K59723K29188P4523M20004r341E17007
30848d07166p01600M78589b58253k50733l59117l22322J10603K94420K42766I9604
30837A72626a16774M7936D81468j61591K0149o1138c27288o55807j70881m37185
30827a591161l20188j72819P09191e47749K04025k33121J21379k42956k48008
30818i46430k32526L33782k7630k4118M13872q1831e7726A22636P11379j20873
30808G13142c98387m68598c89654q5452a44876E72267o1623P6291Q55212M2159
30798A484306C59005K5803O01376p6310a23860n92003K85919k2303J93028Q3497
30788a75722p71566l38089M70233B51469J154895j69842F13043R5030O75819M07471
30778A791363p26123B21830a253648q41123J04930m6908L03893Q33331M42106
30769d57419J05845R5261a16202j48196e9440A7011h4154l87534k54174l27203
30759a053065j169243o34572L1046K26839N22434M40392K89241J00261K17535
30750a029132L78271B91220K88502a07613B5241J026956J335676L38607q67790
30741A858690q88362k00987m3382H4762e51036b35650a17158B80215P63812J212323
30731B256350j32727G92447b51434D49782J137761K09799k35260r3618k50787
30722A217677D67532b97638C96894R14062L39027l89513E66988J51493J014067
30713A732548J332q06325k16592l9538a62178o45228n47448L97193B66192J53442
30703D19634A12186a73492B46693N71113k28200A50520a62556f320B03057J44208
30693C47265j58337d04519o59189N5588J05711k32670e03837D08543P75818Q7820
30683A272181j09386A65567d81159e715B70532A29824e1958B07283b1143G04845
30672A225018n55212B68033N64879J020827P49307p1406l32716r54918A29862
30662a51326D85835L53412B80842f0686l56292m8805l77745L71626a9662l28331
30652c47993r24063n35876L05412L39040b14657A190062M84138J7701R8344J20826
30642A911071n78248A57702d8317l8484B58587N51683l27365m9939J040904O32976
30632B106846l10866m22243N71608L49636n93065a22325p00251E62911O06196
30623A169107D55554e8099b5346o9837m92398j80986O0067a63717k80307m29705
30613h73729J29232J36892q14288j91181P37076l0998o84009n35534J51801P92011
30603a182727d84338r89605j152116L87453h35901i0179d1316F00923O89434K33080
30593A523437n38927L8270o5166k34943k23174P48594J232720P6406p50165q13001
30583I94051A22692R6232O3912h85012k68411M17113c57678L1943n20509r09862
30573a756106j95575J13288j48160M56250e90704A93397f85368j465243j76966
30564b327577J08109L1688L11629R09756B66210A31515a75260h3139b2656l6035
30554e8691j80953l43154n63063m7910L59681M03100a2586K889D76079P62758
30544A238837K42486o94120l46273J72865J70078C58186l8203N79602N33171l85529
30534A047227i9394q37918j45274l17982j8781L97648d49313l82852M0581B76522
30523I84828K44294l22880B43123P6013O54196O91695K53860K10358K87230J12503
30513B528978L04954N676m86338r80666A97737h9804N989F93777P57956M35257
30503A886990n36807B20551b07033j12698A45301N39166k2274b70147m39787P560
30493g02374J91180E79974N80172l79993K57991N56663K68025q05148a99793O7739
30483a32054C44658a44988m86449K34533o10004n93811M67078J73294J28300J54895
30473f77152J91300B15385L83151N20082j95204B5488a564536q49122O7394J97728
30463b148536i42960A47527J000015J05674E55155j58466j13699M89356J022153
30454A794499k35349p59217l67145K87558B95691h48251l4858j34374L24603a42783
30443A95213N57676L13077m38748a33972j010198k62459k4312e76821l04445p07084
30433a588350M62772A94616R20959k76074d81373j544067m56422j85845l4376
30424b702083J26479O99361Q37774h1038E05106J28054k345N08002M38135j51439
30414A425513n12401C99684N34026Q92072k54298k88151q1775q5098j88081k50388
30404F77991j16963A56045c8691A47149o7622K92130q3305D6837M2485c6137j134
30393c7271k0891l31408J67707F51692O81822m63843c51631k58827K80948m60060
30383g89570j29951b79037K616N3002D0094L43078L02685K65727p8395D16409
30372A02515j666L00445M11193Q8836j24061k00368b03969j301325k62677h36503
30361a07531j13332q43719o48300J95794L1746k80697l51135j97749J26809i15894
30350f86018J80807a58763j74781F0304K17110b75204k29446B19839J000215L52194
30340A572248J75767K83324L23464m93838I16377C17284b53998p55649k95823
30331a305470L38488K9229K92035B63219L91931L99167k40877B67485I5121d97120
30320i04158M22643G8781J038458K2203K01723M03302G33957g57441l46747a82665
30309b8407D93648M42721M96451P03857O80533l26592p39879k6509l80347l89231
30299I54652k25517j33666k4375A26951h64831r6230K30733K065K26032l3258
30289e35489l08372K25877j13725K81550B73787N66055J02000p483k28420M83415
30279A189354P6096n68848N18996D54253i56063o31298p39689o41719j80887J35860
30269c013796J361322d97749m39802k83687q32799l71769Q54288g64039a38067
30259d7752E40237M29193l74876a9939q235D92624J46949k31918n4246N17687
30249H71096N8357E1692i64978l35182j32975n03082N99683b55528E8991d74323
30238g92822P1043K53685B95556k7098J77948P77235o3298B86654f32615j18915
30228g51530J78022J6251o55304k21312k35569Q7507M04049L32265K88348a00226
30217B0120g1730c3795C81935J207120M86553J46072L46467l99047I32059m40177
30207D91882A70433e70713k14649M1670j66794L5983h5989j63136p40043K02728
30197g86440B73354N44232M63758R72290k31366m45570B89349a010006K64374
30188g45632c9271F3660b1721m32822m23229K5882n82741m80258K08246L10246
30178a396397f51328K86246p65570m11698J31111m2941g21529I31100J52416J10457
30168A193973P2097j1733l26110K08155k49406a44630M5007B59380K42129M11488
30158I12997m66P7934Q0838M44515j52811n34727B30086a35546K9840C96661J135552
30147A532213m83357A33904m6440L19958J37189B21428d80667j024111j082999
30138b587777N24715L97259j55841N15885c44844C01175O13745O3741o4904B89990
30127a11079F2429K60353K22097J14072A36000b4027l17233k31216K9048B2686
30116D58928M16009j07895C81214j69423a60789j064763m95565O33054B02453
30106G47110N11755K10819k55213J59044J20333K90299J200m13498A76415d83887
30095b56669N1649R321k03690m82966j2022J48516b49683A8610h77488r15208
30085a792696L7345M6465O59788L51799J31802C17066N68156P38338j10153E57022
30074c201m86886n42523m7124a54778I15278L55167E68046f71428o04185j03924
30064a379537O19508K84229Q9056n03704m62365m45018L82348f31882b6622E83858
30053A514551P05335J17213k01524l09593n2426m15390l31876R0104l05359D9066
30042c24804O7777l9634n95523M5427m72754K73644c02910B88705N55427k6425
30032H17707C77768a0407j92679A83830c31717j186760j040892L70181R92226
30023a196962A69199K96058k11670p1120M51306k15706b80914q6401K4300l77348
30013g20363J88138K49327A85340G4181d05321J83507j76132n55632R6112k37227
30003a094693K37292c10215k43603J37683p82401j380374J30466i24461B12135
29993B48043L77348A91628b44950j02835Q4740a21485B97302O5323M71340O71859
29983A505824M49888j57823l35068o27238a37094m84366L05616Q3920n84135k58865
29973a074924J36837J44484L17745g238r3784k89462l71797b95848B96839c7551
29962c16462j79649F7J41973e0389A54921M14173j67574J46783Q07319Q96217
29952B251839P9043r34858K1586M82170j35065n1841K05981n9670J95880k7053
29942B028012K89530K95200n69944I40929g36953j036200L1909J73538j71415
29933a739121M65187A0711a00125j1770D04838J303640J187437j13801j276177
29924A505937F95918k53365b48246K0203B3334L23452N73104N23764F99086f64923
29913a626928K8474d39368E29643L85807p8619C76316A86163G7954b54489j44066
29903c98555F89213N55567l53751k58869P31155Q45070n69605L04447J00398e5326
29892a309941k15026m2837m42487K5751J79275P20108Q8230K07396L81451n47880
29882i55960O3007F48232R17388M66606K93431M09784O5520j121519C61507N90436
29872I51943J015361n3644p45219n07735P79790J132687L54584L03971j025644
29863B206094r98286j73404m49433k81726R91023R26618p17906I1744e7701C86137
29852i5913l34024k74820j339119m33226a152126E78168J68802A42418J95683
29843C38101a11044p30238k64625n72782k0794L82156K34206M85220a87618d9487
29832a88599m10959p1919a75357A14872M19481j56807b60201n40198k86773K28280
29822h58892J8441k31662n49442L64227f16908p06940o12468j62014L72595O18382
29812a107353c58026B84772J003940j55426p9158m32859e0153I1824M45059a46838
29801a659202l39512K79341M77925b24922k77060p05643M0880N48037A86821O90368
29791H77189m27443a217043m40211k0818J71046K61312l12822n07212P69603L98492
29781h97653O0580A24092P36491j87359J41692J36410K46409j04033q2055j58271
29771H53376J36896C90980j08691d39140j086063k45904P58605A82722P87764
29762I70486L58056P9256m93197A06561d55316J29790g0711B90169K76143P33435
29752A299747N38007m79884n15219k54711K6004k55802j51730O36045J22048j96310
29742G68195B13534c9004j33878q50411o55782J07099K6864K45226K89372j61351
29732a171865l3926J07067G6241Q86860P06082J35204j76026M37945k0510j000433
29722A045363m61584B79168j09273K4553M06118Q559J11963j0668A83046k1590
29712A61456O63548L31556J9880n51540e50085r05418n34292h85658a1796E51036
29701A453939L90766k62469j70299L95331L54652o30600n53126O9178L63541R2714
29691A503627m33315A69528a55327f9544A25717J47646J79982a40311p97020m59969
29681a397300k19405q09567k70926Q46223O15981J77423m59737p26760N20688
29672a723380N44434L88529J59624k14824M2214C19501O53411L42548D98048c99413
29661d95486q04665l54508N40155K94313J75592a79242E87869j90874b60159o25417
29651h85576a31942F17625L22661L98870L88143L40472j39651I55506C22864b52301
29640d94782b00985H84001J50212r0333Q9344M86178J012066j20376o10528o37117
29630A163447Q34878K36493j019226D28687d12470j52804J91780o901J7048l66292
29620g29639p04812M84770a16321m87405m19255j36441J67167d38414k99979k43821
29610i82214K80275K82096E3487i50702q90877j50694P85231N26669q2586c80508
29599D21571o8242N30532L73510a57805q24186M71314b31270I297J37304c54773
29588g32376k98020P6090N9861M44387q02770q29785J01430O28315e78337o6160
29578f44497j103469O5273O63219p5169c20889A219160K14546k29582D79656d33202
29567f89090c26058a09627l04829k29328j33661L45871B77580J448991O00083
29558B326654A129340D31334Q22834k29574D42575a28560n35499P5187o60K25645
29548c63887G17091P6846A20269O93172J491028K07415j098768k60752j45492
29539A006872l90868J73687C39009b58246A87372K28361R3660j5430E7142f82143
29528a609696R4547N39089k7357n62974o87716J20168a016682A74664J076084
29519A250748N03020j78935m84695j91739M01434R3739m04343j20160j3701N06282
29509A361650K33868K6437L8336M47262L80811o06953H68000l25680M37707L75806
29499A355833k33579D96652j98309n5778c6827E96211K533J77134C13702d25324
29488e46826k47204n7351l38523n99733P7829J88839l24742k69135N63005a87402
29477d08562q4379j10864o2395F12940J247009o18222n61778K26093k2231j18219
29467G65592Q7382j46851d40514j182043j65635N82395j37364m38378Q43333A57887
29456G14171j30938k82769N2722P06332J96813E22069q598M88127N05043L99193
29446A905834j22859j73382p95718B18556a66008l2233E70435Q89077O23478M46382
29436B529372l34601q266K25394j18848H40797b43771B27071P94713O5915J01129
29426A188828l00472B91509e3272B8877e68056n56064M00000O6380N3025k58988
29416h63703L01524J49062o29153L61569G355a69947L14K330p27973J12299L70177
29405d12800n62439j45280R6835R9529n5985j010366m89317n81076L35058K61718
29395b464123p4972j93380q41682J09573O59953P24999P09492J93959e47760b8653
29384E15050N46494L83248J56805K44994L6239p06451n72475K29691N16456L48397
29374A698448p48934C82500K07394J075326J98012p05307m59341K2149k97251
29365D23482J93924P89972j21212D75634C539b43612m69222k13681q77244o70204
29355b473963J165266L62666p83034l53679L0298O51112K27266K80313L30118
29346e63637C34460M38142B06859d04251m45716l42277N15360J60245e6649H70614
29335A092360j75316l47828d37815q12246k23131j51241L92988B22819K6329h65858
29324b169785L6586J007666M26395Q8763d5060j11l31884j046149k32329K93081
29314a362452J67294M94509J40157J61770a80325H17975J283474k74260m99404
29305A327785m81164O17581r8974b14597j595033o18218Q49855b86602F88886
29295E71641j68346f3050j42054l67304l93693o1927c41225G69304O39775k71413
29285A137666l97129B14892f07762o08196j206994l96359P29516L3768j155307
29276c211334p41631Q36188g71179A387430R54558M01232j90840o85064n02165
29267A365151p3698B77765c85478R6860e3109A30646J86501a05933r904b882j5057
29256a7939m72154J46950I0500c19728o74526o84438N97702q6647j04177M75977
29246g95837e9571G32668j25342J88413N30098R3390p05858f64264k41165D2143
29235F65152M63798J45479m50871l25945A61222a259658r63718N34084e67681
29225A17481K81359J96286B07363b25076F08483M18443A80851c72789l6349B61917
29214A116791P43344J44462p69682n71119c52368j607388m19635P08645c53509
29204B68012J23762Q7986j32085F2796i6886n4553m66290J36n04488J30105a79584
29192C67592Q3546E2849i23080j056373k4414N60641f80988g7525P312A09196
29181c11504o24644J10818J3181M8030n56057K97352B24601J155017L1376R5976
29171A506970p02664b36457q03254M40701K72396k19703k97856K81318O7088K27455
29161b68312C33966P46368L79597J65886k63054D15049I4402b55786n52728k91545
29151a100059e13346J68649q64515o23014O6038n44828K44974g79669f2334A09860
29140B43183J2529o472q5784b52842j043651J85036e36270b47770f9807j20691
29130a90498n32544j000777m80231M55039O80653N27639K34337j51197O0900F37330
29119B013255L23987k01579m54306j05861p9306l34583e7407j022244O3754J31875
29109h84022J2001d01094A41526J76429J77638a57942j150870r72M78735c27013
29098c29337o18798k58284n83733j11523N32764M89669K01910K87000m89136R7595
29088g81873D50682J119562J05625p07175H1380M28772P75451n6623k80138J19520
29078A068362L01130B46224a615834j045917N12238O95927O7656j60945J40728
29069a406147O91688K61132b05779A35392J53570c30002l21649J99020A38057
29059B86732a77560n97273k87171p76149k64938K31415j86348j23729K67573Q27379
29049a086801M38950m11013l59919L08862L76392j6102K50801a0575j55303D68373
29038A811528K60731q85534C85232b2105j69584C57363j4411c74008j71050K01931
29028c43127P4460A77515b29637k07324l1172B19579M71756K41010C29570d88423
29017f74796a43301k86967o70479k6318J34101J35892L20421k20147n92242o84024
29007b033064O57502e45317r6917o13629j32536d53621A36735M54739J60540C04931
28996a23095B32943e841l16783l09376o31340J171f27088J59631q25139o96224
28986a988820K41779n3358K5383K42749M57655J09104j27572d47187H43386M12930
28976A256316j37855N8665l0445K17047n24383H6286B8389a57234l88649q64451
28966a410334m33962l1186c13735A082979K35884l70224m58103A34692b9949C5934
28955a27871j070163k63982O2934q01361r14765r1341K81605L20735J192735N78943
28945h32531n90696o27573O88005f31598L8441o33677o86208P68712D0633N38529
28935E79162j12618M1496Q63570J79493F27157c21511A96244N30579A92484a355136
28924a345456b01396A16506b12799N4498G48034O9401C8847a002479d62202h4222
28913g2846D5704J19241M63229J75631l79584k05319a70393k85382o77402k32872
28903a366049f82113K11472a25499j5789r2500D90378M79107l65437j82756M03500
28893H24792j71809P4394k91042E9283P33222l22358e51815m98928J01868L16788
28883f32087q8091j28715j09787l72549N69630K41730n73782l09690O21016c52325
28872d91139l12786b76876m51821J7066K41668M4302J70219F09257P54168o6283
28862A297142k7581M94171K40710l90295m45797a01613j338080k32598n0992j87540
28852a910823r4618Q45483N02852R4579a57748B43851L64871b06033n82685j22850
28842i11568l39358L17522Q7452O7172K99846K06886P9408h0252j12358b0621
28831d67445j434444j76153g66390K58585o42815K9646l07634J23142M07993L49992
28821e47481n10300l12390l23057o26621O63511O42965j42252M32471b63761E84578
28810A131433N7063m25598a45748k98573H918J08385c55507l5751A38328A329
28799b82972o34306P4992b31297a11202K9722J9026I8909N06726A51673c91146
28788a097989m91013k22457M09915f83660E62303J390528J52825p94091D28853
28778D62125n1930f8912k87444f7104E77981K53642A91638I1060O77759K871k09008
28767E62682B21738c26041C81878N64580a08615j193543l26573j01369m07526
28758b137626K89250g89329K42536m33586J26226I3431J709857J50934p58602
28749A195620D47114f6641A11350Q01251M12481j50536o8189L33093J76124m39694
28739A175880K08121l86153j45485L36751D75052d58075k90914C30384R55744
28730A286128k25636D40800A39531b55342K1393C07455L79581k42100E3605J82490
28720B36095i6997p66969l97888c07012a48256o54519n20068K54750d12805b3170
28709H6718c49022M8453n33754K61468b00205o6543m8563E76708N62301D02972
28698d20175j53492c7701k6203E93196L72604l59260b96550k92320J84857j11438
28688e15451l52396K95056r3294j57938c74610j94785m07974l7563J5365b28694
28677E67524B52976L38293Q99752K05614L7441F50341g27919n43514d49005A10315
28666C33664L14946C10276a6997G25784O63390m12266P7421L50691k95208L91991
28656A501803N28226p70184i4631o16453J91670o4230J66163M2673M4279K048
28646c28481o22829k33937q6295M8430M92098O1121p14643n25554p0956O68621
28636a312425f04535i9749F61836M07697K8926K56686j60150l53629b46452r02644
28626a149096L95511b03787O7453A41541J28965j26370b10146r48726j67016f39581
28615g62315L05381A15485P18130O19526K2669C79206a094905j00445f1596A045979
28604A139837k51751l78707j96756b53181k65286C19071q5441A6812L22753K68969
28594F08534d4222j245362k14061n92515l99107J46465J008610c94007E4858b36750
28583b85800a26255D20435o8236A23175b85318k43429b28656o3168J6873R1536
28573a83415k91858l49789n47502K70105a19977H68417O99093p32608a3407D78251
28562H00781B36745d75444j64995l39707r661L03067l40461q17583K52788M52187
28552a139809L17978A96501P96486L83135o56485a65484K8468B125d46703l18027
28542g64730l59172o48416L91413J15780K07863l8538J45549Q5464a65201I0359
28531c82107p63104j115564k40527J081582b86467n6088j080877j282191Q9535
28522b616088J87841J134920b8829j86988q28298j30542b45486D08467M16242
28513H24709L15267P061j45013m16777j4166L57212j6266j13140j05952l06645
28503C86290J38865N87889D87079E2733N290N06282Q45122M35691m5045k52232
28493A547841o13710k67352L24861m58301B11605F0259M88579I7014c42148A67372
28482D85872j96442L36250P92980J075058j98960I62188j77360Q17194q2552D42275
28471F0236b77821l12389l2623c07143E7427L21074K2983n332p6806o1114M984
28460B63216K20513c88852o15984k03432N96160g822B87162G2243h16575J01224
28450g15351C43235P11360C61702h99544l38864L36427C67680J174235j30000
28441A411915m41123D85232i4516A32815K88753l388a94376j331467j58211f25059
28430a018285l43700J48088L91347K6965r9593J1000l6014p6164M63756M7449
28420d85151l46321n8511L72504j78784n48253K97079a73010D45885K44553l02759
28410C87679A0378e00504j23330K47045B95540c69077q60205k19576n57576J95910
28400a810524e93821H3208K02517Q99085L26757k42881m21872j07864j32285M70208
28390A076873J03630k74035P7852j07197J2993N53697M09098K71957p79530A49268
28379A62738p4007b87560n91280L68928a65128l38088a30224A033720M26406j18817
28369A341309m59044r4969k73876K77916O0289p9169k89265J55435J871A03768
28358c88317o88402j83676J05953K33055L04201K13648N9492B67395M14444P74890
28348A456729N94325p90485l41374j67202J6874Q8086l0149K89571P5064M89044
28338A680483L15730l92367E01193d03866J11009J33166C6236R24512K39561B74767
28327b11140q75799l81675j5035q17683l70564J137072a5207C06790d09584m04330
28317h13914B2764M16075c52907n12331M625b9175F11988R9934j51287H3108c33622
28305d32208A00076J115494J52843n72233C32505A41789P3227a41008m1793k1808
28295b04609q14947j78886r0070j52217J00156O69063A51969J174062J242663
28286B568694k8586j137081B50177K96408Q59091p3488j72014m35379l12787c51657
28275a775003O16670A82409O45491K5571K76233J253763J038038L99085l55833
28266C464757n33249n46518m01099m94142l66256J02234F00067g94596p12546
28257a507142K39337K11582e20374h9116m2139m0581D55839L55191l66654c35875
28246g11954b97723C66518A47679L26933R55652j32323k57263M42718L16077q44905
28236I54568a61382q33104L3503l612K70756b25206j18400m32996j87174m82763
28226a446539p7122K11708f52066b18893l56791j17659a41806F76134N86641L83793
28216A646568j19875k73924k77750N6323P89862O16317j51281p71741H4076c44268
28205C98345N98199r3448M76863O15479L05726m90381D85262g26169k63736j93656
28195a183561L69581M0105P7443n69665m67454q9586M09207K7668n91828M2055
28185a936035P05562C8524R57961C67077c27035p59970o08064N1713K56204l37435
28175a724587k86230M09351N35663b43067A91583d1655A52810P20376L89145E87715
28164c12944E25239P88383k70587o8242l8996K19192P89960O70830j79481j033233
28154A403065E51284L54675K86904l85553b03484n39897k72061K99840a07578
28144D78725a54004r61693o53223j54395O1266f73571A6962f43561j53708K13861
28134e83408B42541N81055K24315E06002g70264m25392m10862P34053c17944m86158
28124h04102q48509K02078N93666d13092a08443k10698k88145K88634j05536j52241
28114e76429k02827l54225m29423m56984j105240J67835J095874K90339k60841
28105a831921J63058g19518a14933E97182R00638P467o00102K31008J37938Q7698
28095A361829l54104H8667J70079J1813N93875K01900A28545f60264K17688C84779
28084A143612L31928k67562m88203P03600P37740q8143o93125C82941G3342e91516
28073g00223d4044I8187e07062n65311J29016d51403A42387P27740R09816O34071
28063B414014j47938j077061B84623L01247R31463O15033n94724D39576b54424
28053a55133G0885c461j5243B12739R46507M18849F73631c3507n61774n27511
28043a122792J69905K2084j86569b36231A384279J286247k01819A205345m77291
28034G28054l35891C9854K25397o6090b79870k65020b34386A40374F4666i48251
28023a279699N02953o1499J12475m7264J29204K15878C65111K6667h63316r59249
28013a822565J10815N49178b02549F2752L55457J027800O32D1256e84483i2659
28002E12958K04743k17439j86350Q9661M47390N79735j17213L36696J81702o45632
27992A186251l54590k33683K94236m6638j25895K17864l34929f68146m84362L73441
27982g79067c40121P0815n39393c05945J37729A02759Q41849k74454J6265q1820
27972F04599e4897k64362j305997l88789K13293L38321K50527e69804K33459m51189
27962g87534n92536N63629L67540A1335J146083J262806l65234l12990K88629
27953B030629m92450D82843a01458p19066m63963M80529J73325g5232H14974M22880
27943A237854k77649m10591Q53156K84890l69054d8887p48270K7886N8049j22211
27933h33433b49428A436721R19801l38056m69791J1190l23798K38241M80598J67208
27923B122114p88897n66896F8866e10812j033693o90784i75454D0096c03522j37062
27913d40584a97751R5890a8562A89320n8455d20205n6682K08337n33273o57330
27903a459153o2827J89756j15198M87271J28606o4345J63733q20338l27457L28480
27893a551472n5724g99415P8884m18057q00005r98558r9017J244913d93564D25716
27882E06797a39517j195563p06730K11144K39818g49766j23342J7451c54345q2865
27872d37210p31592J09738N01634j67434J05379g7017B89963b29271l58843n31254
27862a119368L72735B61238J64398L73593M02362K17945l42541I6068a486201
27852b661166O63194h25323c76705J28853j76514o66445o98938N13558M71989
27843h04202j14410K970R4976B60711M77190B19179d8356F9657d99767k37434
27833g37201k49450J54194c38996e207m63o27112K19329D71548J31699A05421
27822b50965m73743j5162J02234J23508i8372A62557N3438O8387K28192r1203
27812D21371j5606N6212A2922a070701j012854k91735L47234P57184f13198a73649
27801d78049l65506L61920k65109K6233m424l76935J53752M8501o4344a6019B25815
27789F60862J47807L29691M45146m55330m60425L15634k99739A6481c19449p10893
27779a030342L22493c6334j74775l63020n18128o9694n37589n08624J16801h46228
27768e24848p19512J63860b40242B45627K35740j91053M72316J00448l75903K22307
27758G09482J25402M4501r0591l54865R3931k04835J9927J23835a17470o81799
27748g99269l16912K6574M72026n6560n06969m29642n23143l23665k91603k14233
27738b963396O76491P46926J32776N15627K90251J06103C14589L10279J9653K80131
27728I24652l27967B02982d8883o09581l6199P8718b20603B7979a35435b9147
27717B88874j30433N85276L84130L30537M6523O77605L75227p57779C82452i412
27706H62235l20389k21924J211732N16287r28453D56124M75799j66098A32988
27696d37069l84215A34020P48214M2617N32581R9963l35490E09634D3348d78204
27685c16780H58926L50655j69134L68655M473n18901F7856c30179m41779b15082
27674D56962B7657i85967j85179J37515J87541K77314k67785n2806c54823M964
27664c49859p4668a52908F745f28414o77591L04072J26048J31246L07202h7495
27653g47413m81725e76985E32564a90037k17974a66457m0406B40522l2017d39896
27642a682448q71165q60364K28184N34825J201208c87200B25054K73625K77560
27633G76239J25335L52149n83j61802n08467c69048k72473K06291J97308i6483
27622b50757m30234m78999p5513j81106M62658J66105k89271r6817k15709m15842
27612a805485n75109M93835h48586j6691o4519k61497J27188G4870M35816k20172
27602B90514f80083r01082L26635d95414l67893l21387m34343L88160e94457n02046
27592a096503n98778k18551R2823J71793Q1255M86591k12288n37615p22124M02132
27582b151265O04857M46854L72078C05022K98129a04294m41896m03643o1890c98815
27571A07560O5213a4426q083C58774J75705G0538K87847M63044J86377A51858
27560e70448A23062O81590O44235l53019F9630b90263l77358n6513K43403J04135
27550c76596j67692m09867o07281M22957J50470n03753N38501c67737J00743a29729
27539b09243l52778j88776m97756M96763C76640M87941O60117J006588O1993l79547
27529B213732L29332N62228n72985r57186j10101o17755k76865M90941L6126J3480
27519A110947O90020j85355D94294a43566C68442a13864j29069e1554D69271H3309
27508e1351B42573J66847a65017r51762K17052B96355P98188Q3429M4662J200945
27498B423579J283108J100822J16225l06905q23129r91366p39318r37183m27758
27489F98075K01996l84648H7417g65525n86956l5547c41410F69570M7493B94686
27478f27590l96744M4453q6396K88540D94228R18445F01495D9301F472b01660
27467d33608D0949N22053k27013K1530j02444c92776q29502k87989L10765l55101
27457a554603j34693P39881c9563H78869K02003r7022A55505h21139R5764B3948
27446F15473P4715K67043Q7885K52412K79995N17035o83080D88463e1451l05934
27436c57385j057305L70970H42048R34209O34761R57974k90212A184665b59951
27426a326255l67350J73777c11725p1476p43271c92238C48338j59822K31446N31725
27416I51687j32419B47490k1175K6564M94866N99732L95625J261291l9099j398087
27406A567207A02703f53098p1573o94934n86063g92590E80130K88809l23810A23033
27395a81732k5096p4653c8407F04601A59802c34268k37186C2933N41170L43690
27385I17793k71398A70885K30109N81812J40112B4570c03707B7987a86512p33476
27375i19988h6364A438699n6633E62659M18548L48514k87437D60868B923N56827
27365E59750J001159K94264k38806p22974A76065a71672q70294n2562Q2032k65571
27355a278067J5470j88521K57564L45120j54784j67309e76664H8385d4226r00796
27345i45022o82990q29038m82870R79471O51205N22401b88550n0113p57117o90746
27335a786526j51265L25424M37840b48557A30070a41766k25661q61417j029933
27326b258777l82122N7929L90548J04935J34512M38336k17911m2351N17045J70986
27316a086870j106929n7983L71539K50716M73375M27185h1368m63421o98467e69787
27305D98997K33067K69898j99498l20667d09694r1178J74216R2256A77064b02699
27294a290930p63988l43310O87256P88294l69933p98240K81021M65323M69080
27285h75427D5298L58452A57220K57806P47662Q19058O28340m58505I75360B52170
27274F41218N61034J9644P14935J55325M6416l44383m72557Q11168l61624A91989
27263B2380J43087K9566J01404K27704d351l18645m13817L20308A71747L28129
27253D99876N68655P9588k37120A08970O8254Q44991R60526K85936m70789H52933
27242b68775D36955R66305D33621a35778j70146C43334N4615b22243n84150L30712
27232d75681C72142M50062K57805A09185a153401r2478Q7793L73937L29034K18057
27222b37058m38331r29622n57726p33501m01308J7317N87137j57265k94396K46636
27212b898117N97146N57985N10817k95677M2741M68747a11994B85756I6362i79747
27201b195140l82185K24385L12653J65734N74486L11551j85336j09059c46044
27191E71105L69706B89796D4819J22423b74099n65092n61361M01175c87147j143500
27181a530647p98170Q1459K2384M2318K79555P36836e75426j39652p78042q0501
27171a573621P36481c56591J17494l41450l83245q8339J08385l22731k75223O18854
27161i22846b82062a29859b5452A0578M91260J60645j3350C20529h91651m80294
27151a371945d44780a70976Q3056l78227j483756r20717L72466J76785J47376
27142b173993n0480K69667J77005h71982K48658m58339K63377K78616b4580E5923
27131D95728L82133k17038a37515k48272g2050D0368J41481a96377q74526j93896
27121a264799K17344c50709D11359M87480N10068m6583M72676L37089j10624m59878
27111A601587c05102j214627j07195e63139G30346M57004j21010C06567h1245
27101I4760M68914L784J23985b4488p51906j72161J26730c95338k02764J122K27223
27090c69757a30113C70839R71939O30502I66207I1204M0956K91167L40010l32543
27080D30794c95530o84518L50375p47141j479500k91714P38483R47553f65038
27070G09180P53561n47933j77872r2954B57064H5011e14926L2270C82402N98185
27060I80587m45958g17258o19278J35236J84005c98405A24423b46961j94684q690
27050d50335o34036l41523k02843l933K28898K41189k12798J85366K40357r9745
27040a049403K86663j3348k10278K39976G2243P44340a9707j256203K13960b67538
27029B37079P15731P70767N25997j95183F92290e35651l57440M39004e6624j30701
27019a87325E09428R04186J459667R94714j169815A200841l92288P82028n2560
27010A538021J00184O3803K38244l39147p01826C44315I1765J6349f28572o79493
27000a308065f40866B11515L2713a23025m47727J97759B18016P67729M0378B79978
26989a73658c1800C15397P20982j14330B45773c07892n02544n34945L55884D365
26978A142142M50644l04230K6510K16380E27389g17717J96453E07377L00956k00336
26968F07997P9346L65438k91037J98617j97671D0894o312L06499b5667j81389
26958b07056p20126q00609q2644K20812P11319c5053l3448H3899j937O0841K14329
26947C57132M56463k93052e31445n64936O4381d54623E75728P04793N96624L35562
26937B212707m78462H45458A15541a48044B04154O66237j83546k52515G7763i07621
26926b087465m21224N13556K31098K08912f03447B67527J09318K23037L5025L61054
26916I95961K18875N07809L07230P3097p31394N2111j04338F22584K53230M44183
26906A319997B07252g22096K47634A07104O98052l04352a37635c3804k73811o5175
26896c72790B08536N49003J363406Q97788m58907k90301L72078L75260l8929K11840
26886C189774j02945j118074p48051j74589j03088M02721j26835J29004N59630
26877A907547o04686B23517a026161p93510m2497l19430k52780K24745P72736
26868a436897e76844Q4338F95366O79219j03585K87550k77083n67815h23727q52152
26858a675879O62064b10239G74670K98215M38383k20363m72093C26363J90233
26849E16596N61719J110226P75192r45309n14944p9347o98305M01041P98946q05383
26839A120432i5193A91147L43385j0212K12471q6629B15091h5746E23531O87927
26829A211458M74886k03908D47989F3649b23300j01251a26C47467j33812L77332
26819E90987P2515K01211j10378K59024N80564L92835l27130E39442c35858B47243
26808A334713M42297K08177J65319j49840J7567j13070m94647j11857K55630M36393
26798A990682k72192L65867N07223K40082o27886j083897n02891A25644g39959
26788g62218k01549L7169c68923H30290J135456P3752k71185P0033Q9881m52057
26778A476170m84596D56058a48291o29091K16557B32793K55342A07457d51454
26768c2479H3972i38195j066286o9361N60957k49589n33919p4781J12813O98771
26758a559590f11123B02834M56381L02579p7693j30991J21102J24367P00178j3927
26748A684830n38574j52824j95944B79152n2534L52700L88832k01218k58562e38996
26737a988328L34641L22137L13367P4464p98503k11778N43396d09111J3551i8919
26726G51485K29829R75055P18811n66859m54870k50069o65855l8069A0127d43306
26715e62776C16366J79698K71949j34336D7242e25271q4235A62373a68458o35504
26705h03962J76287b95758N5680Q9958A052132J217532l48324r44995D26368D8261
26694a3554B71375J47578j7056j27217N9367O72552q5928j79438B83051a76534
26683C25466P38507J44142k15141j10836Q7697M14942M74099j58747p80848a18517
26672c29742A39491P69466J090379j72490K07582M24521n48462j91146G36643
26662B43082O4750M6133L27560p9631j03675D4534f734m9477C03854J45947L806
26651D53607R8338K86226O23173O58286O5234p24395o51701B28500m6954M92787
26641F74333a52649q99868K29682b26354l43715o8252B94283J22078a05132E33581
26630A330312m83425j84676c19366q59181o67372N92071d99770k2875l8149j77206
26620g38000q13196J8613g56067K01581c4215D03231M8836n1806i6250k78988
26610c75238H1323k4725b90885r1991k60363n97431k32861l98563l16019Q12589
26600a375524b8363A70221f37159j82594J52883L32162k13284l98403k4074M05857
26590e64612K50959p1333A07588M12481c44105r38016M07441M25775k02467l47642
26580i99014j01950K5991L97113j13887n51191m59165j42296L92298O16256p41
26570i36586j96630L40037A9646L71556M85694N16940E87750B61248J18569L55131
26560G34948k65316D9139O7777N98232M16552m90815q1136g5838r56284n33665
26550a565787N6601K63204k12126K8512L78647n60477k48923K49595L03309f49976
26539C58821O32297O62409n11778A66349g77144o25009d91296D37855K52681J38837
26529H29373K42402N51907L39828l55639n79879l20761l9281P41515j42501n81872
26519F85092M25847O03152O34843j74391o84402o88444C95769O8721O37161L75236
26509A476887K44323k24313j94801P1912L20468p6980B65807g25459a24350E87184
26498G19521K32566R885m22494L5259K12244k34871A36551K97537Q540b00097
26487h76108N6138K1881K72915a81536I0800i9534k62007i9599p5196A47688K1026
26476A68714N1785A2751R6032R77094k8867C00773F5505b86664p79536e05303
26465c87124o76545M50016E15441P32321K42060n88649l38689J37021F4045g12112
26454f21662a78937g3769j018532r79070K06146M29777f27967b87467M3575H2513
26443A124402o5545k97077L55310J72387K47468K55473m51851J64989l59506P8986
26433A225036L62584O47981o4438q98453l60808J40115N95545k57795E28398o8158
26423D60240L96966K88600n72193H3929K94916R91911L3346F73136K75922Q05757
26413A754815M88339J92103A014297E7137a22641m41495k16074c7375B94887j28995
26403A65892E458M9488P72652Q28840k38487C94580j86381b49626n43520J81223
26393f11923j00487K9075L34047q92402l24662L38690j4378J92645j49037l02208
26383a500640f14843B92840P02440L07464k86730a94474o57435j12348J74060
26374g90197J3904L11205K3325j32612l47005R5522l19215m71215P64230E17222
26363H48555M48930P20200M17094k71810j024204n40617K55167B6679d45846J07224
26353c38622J12790j04461k3679f8016C95821a43856n37948p32548m28076k5096
26343a867524J43033g50254K42745j61779B8930O14974M08982P31405K15054r95371
26333A003974a05499n04918l2475l01737m71793l76252j02709M33010O03994k76855
26323a135234L12571c87125j86456r33560o11039R76523c59861j00117b2109A82436
26312B48198b54837r31757k53168M3427O1300a78687C48653j3735M18283R7903
26302H51104K2114k36643A95679J37603d39221m13270K6560L21297k35045m09583
26292a149262N40271b76013D6218J97563M30266K64248L63663n85886K97551N61749
26282A575372o3203K78671Q77048l31662r67679j88028k10465M66985J80308k8540
26272A588807k55292l08580J32502R07518l21718E73952h75368r31627Q2617K13320
26262a511058c68436C81465K17993A47740L2059N68988O68322K54886N84988m3198
26252B213785K1003p48004C64313G209L76302j54228d94294m60146L92385B50668
26241A016967M79932n79935D04798j34460P06492m56139a87614n95428l26118
26232a109160q4130J11253M10970J9555b51750B47607o3231L86791A87352e30860
26221h34079C73888P22249l70714B66822d24049k95450D35082J152794l69770
26212A218106l84616Q89748J87744o77357A67505f83867N7277Q2567q22643j61569
26202a528235j52297L81981L93243k28250Q9340b87490l5265o67215p43558m13866
26192b147394P15616N58473J21019K69694a42148C8411j3291J30170K13504a95763
26181a280398j02729N46808b25721A90797J47259Q7650a06847q74925j75926K45861
26171i11837K36548m67828l64234e17690a84396m50312K37190m32230m44416O00215
26161f73949a52073J5989F97287R57610L7477l36455o71954B49182K05348j66085
26151B88445l2031h8797n0143n17623q36035j05306e30093m98565l75953j19507
26141a524118K48427M34655a44740E29693L40407k9372N12199N05501K65128m91615
26131A631941D56957b54091a18665b3366B45184O86972L17675J0935n90830C11939
26120A22770l1999B397L89301d760q13369j29006b08984A230762J249507K24604
26110B704873k41063p21093p94878A85581l6335K86888l7661a17569B59772P84488
26100A044260N68429K56152j71377F80953e13401j159173n21690Q7981L50130
26091a756153L03159j83850K16407f22404P8864b63958A55636a14008p48875k7247
26081h90130l17246e87568F83310N71241J29009E23824a12935m532G94303M10435
26071A204738k92670l52067A70848J79798Q3315a10691j58747l11918K39757D05388
26060H34575J089780N94016J68430l02216k34402J02881J10998M1537L65403n57128
26050B213874D31820a49606B92961L59653A26317a03775d9758A13044J35723N96890
26040H45657o388a55160j151885m08939M93532b60942E7415g19060A07178J702121
26030A809299O79653q42461E65005C7089J18441k6f50468k92700K45292k99230
26020i97106j21341M35648D09454L26295j80984o6265k32962j06366b13701j83938
26010c97639G6820L75343N61295K17126k14934n6712L13571M27245j2848K45455
26000A932361l51889n64984m63493Q31062J173362m23777r56383D81781Q282j03621
25990C86442c83493p2124B02381L15792n154j73770D0871d93460A18698M92154
25980F10852b18998p52968l24431p53023p08844O47166j73577j22947Q76175n95059
25970b126506J76066i26883L7344R5882A96999P29873K86080N37385M82875q2289
25960B150923j63442j87388J49491p05420A60622e96913d9238A32608J71227A40025
25949d4068B78449f7518q96424n03699M27980c34325A8204c1627C19094K40413
25939E59507L30237j76251l32737L756K32498O54599K03495m09798j10903k70177
25929F84226j55307Q7411k09197l8811c70633r88816n61216O66313b35351I14308
25918I58484C65619p5464O5600J34885p6406c6848p1559G13648K79983A62961
25907h43319K3012J66562O4979c7828B32069B3794N44139O45170n94182M9214
25897F68135N4841j82639d88000j128134J43358f94729A11456M05696a1639p85702
25887g97341m06765O5619J63689J83973K46078a34343F96663J01502A35369O91366
25877H26735N57677F81581C36846b25922n05253n16582q70985M40021N59784l69717
25867a488654q46786J62899n14509j92231Q77535N25680J11913M1983K7662K79799
25857a014709b46744H90642l33109h01716o00463L81400K74392K24671b4616D66527
25846F10751j84499b63971P1269I96857K04759l85095L01026O48934J72781l65894
25836A573368n03388k65371k96888j7182K14269l45359i04202j052304o02771
25827b559277K55354M57055P21483e19328Q1846A04232N51364K85139e15078j062629
25817a577707O35410D24812Q63761l04031k74348k59254j28538d56972j086221
25808a543193J80087c45680A20824d35210o97685Q3037o6983k07217J19544b53711
25797H12397J71719B05348a199594p19178i24518G4357g45166j056479k08082
25788b009727l32619O42320c54514A37908K47218J189533J281430k52117l99694
25779B204278l59820k98022M6198l29010n32854J10981L58903j1330K727J07233
25769A299284L73311N07204m95018F30221A7114a42747n35860j34534c77049Q2951
25759b94098a10627A84966G6298d46730m39581j39544c11962A418682N21314m58185
25749A481811F21398j62287L06639n346j44142d21816l12323J93765f2430C25030
25738A066087J31147J14009l38140A11634e26578o76856n29328P25917c0315l43617
25728c73932p8913N0984k59791M7039m40957j04919N08527B11810l2415b5425
25717e88065o18842L57841L43962a58662E22187L08870K61864N17229N96o95512
25707I15234P6904k38804e3954l55557d4655D14720Q50547M75052K54578K74878
25697B269775m34916K42293N6339o04635G52888C44380J15070Q54625J075224
25688B389299m70437r30294D26416O21558n8898B20275b45108k88296K31572j53463
25678d55295l80839P6368e6178D11162P1139L58833O5977K48526K07549L90495
25668A753681J23689p26241n07196K22959L40082E00008A98508a08073D36975
25658G75721A26067H460M26774M12211J2736l30969k42908p6833a78879K0306
25648a58573f9859A29219K66372a24847n07039c11951F84367Q00895j95101j01231
25638A188930L69302L27398L71983O88939m51238p87530l51551F73552e26678
25628a188996m36337M516g96040O9525k45764b59608a6906j27028F58300J7906
25618F76206c47028j165751r82256p0043R92128L03795m83033l95162j98778Q2128
25608b264000L26652Q06244b29532a09978n873j22231A141N5420e61370l5867
25598e97237D00764Q82834R32062P57928m32082r87974G66275j3773K21776J59997
25588A134275N6494E72149B45201K1475M66675r614a75990j216466k69693O42889
25578a019260c57382c6459n485E53305P3933b51980o06026k367c98194j58274
25568e56468r58023R6280O59967K73912J20081q21996p75309J03944O55733a16105
25557C62134L26620K44184D14160e93949a78400A437442J41430o22900J78509
25548A134481R0524k40329m70499o0108K64296B22790L7570Q96078P07904Q1520
25538A945862n03746E27994c03409J36276j20801m81342l66288n0595E875R10463
25528I16338K63378m20751h7098D9421J20395K69551a27234n51071j10825K73509
25518e15621a68802C18228L83625d0712p68775K22094G16833k0947h06093o25650
25508a431743k10225k64928K47728r7669k2070J56697L11431f23974n69183o23999
25498a817156N0621P25876b79054a8477k50196n37175d00869F5436J32781a23592
25487b33201E40071R67840N60505J69315l68001n11180o78093f00713o73013d55434
25476h59548l23626a64782B91072J50388q0520f81008p07753e07082A23769N30322
25466F54091M60652L919C81927b17715C95059o055b7328o34683j52459A76020
25455H72572K52143K24045n58868B77375c12071n55769j21139J8026J20958l17593
25445a167588l67856m4109k43948P96806D24426R40832r7126k11696o7509K9496
25435A018423K49809k68104h5627m24003j11780o16005o00740K58146M40139r72348
25425b112218q14363n66240L27646O28201k36091j6809J052483r5722m73769L7679
25415b269203J03469Q81145c87961l04491n69181l13784k65464q6243K62025g97957
25404a93725H87037M35005J3356n93993A92737N7576N68873l45422e01323o11351
25394a112674L86347d5162A04080b57231E2296b1339C65451A3106c14496F5434
25383a79894n74517j23741R1282M5171J72778K48946k91407l38694J47368o00027
25373a402735o21783J81676h69141A37420O44450C76204h86678j019716h76901
25363C86984O09584B23007c48004l32871J98479a23763D59833f9995q64241j054918
25353a989154k38234O05676O89507A49571m0449b98084p32597n93707N56726b60119
25342b84328j136594j170099O65431M45334K60229L24646L04078K40604C89331
25332A957849L59856p48040n71902D97134f3101q09541n84487K19157d94486B44772
25321I93276L92437o1918N87461L98326j44483G42437b43645m33838r05859p73228
25311b356570L88287j41300m54541M01249i90942B488N9440b99374J26680C2472
25300C44440L44510J94895C28715g80608m08435N12119K80747p53410n26812k64853
25290a941252g47766D52162P79330R8631n17855l91330b31274Q3751H62173M13295
25280A275468J10915L64275o43476m87765k59012P72628J291536O06654k48557
25271B782666j200218p40262N79027j40566E29916j35722L81551j99375a89427
25261i28105K07370K77735p1031j53081J91446m8539p41659R3890e03744h7512
25250E09587E8405d02736J75722E18389R55256N05737p3728n74790o08323O947
25240G29488B93596d10460k82675A32066J261423N05137o90825n50594c83270
25230e43256d6504A4511b5518E16969J129972J000778M51214l69237q85620n54484
25220A289592l65183D05268j40294a24533D4968J061162K15093J36709C04168
25210a163364o12954Q04592d64898k16771n10467J84130j97624L64797b59488
25200f66890j52473l50817K71867E14052L36475A39349g32509q01616j35967M63026
25190a207066j94011k93407M99363d54764B45054M71753L25839M50359N22478
25181B015483Q57045N38945k75722j265717F09635B40641H3220L030Q79159O50931
25171A616340k49560A95387a207647l73334L81047d70071J84327l16073C19289
25161A916017L10575k29985J60406l68275n21800D94782A35393b40582E78902
25151A217128A82426d00210i9783H17938l0863a14q387C70553c7063k54640o80176
25140i71879M04269F91985J058049R72404R8635o03965l12982J65330m25068n90521
25130A053867K00604m58720A96840k1428R07178K48312D81020K67583J61373a34187
25119d71577a23168I25058J566067K50150q50888j5577L4076F17786c79955o10731
25109i90686J73420K02620J35966j36043o78006k86207P89054A44380b41597m37959
25099f79556n48704o67045k92786n75245m15987J95076k92915m3680j56626K26930
25089c250538P10835P74430P69001M86611j74222a13113A88075h58639j8345c76652
25078e41499a90159A098939N40750K16912K62490j35238r39389C50508L7134a5226
25067e77026n79298k08588O1509M24411J69039j66466r40125m7510L48651e38530
25056a82679D0455P565J86070L11086P74665R98491k5214m66996j20035p84021
25046I22066a0944H0430J00903J66321a56050n1356E25894R01842M88451l58520
25036A557667k39571l90006D18426D4540g86011l20169a12091C77732J78279J86914
25026G42925C55590A20922A9980b89903i3008n54564j030915l55937K72982J5282
25016a746160M38172K41273A79822J838178J469597m38740r47362l50269O42146
25007B393372P09476j1379n80686A182913C35907K31399J2162k72196a41805o2199
24997b04004O9637n54042m06921J34888c80337E51003l6966N32002Q53973I03437
24986a40720m99828K10686d5817A69412J7112b70741k79950K62886k22121j59819
24976f69745b62716N7342l26411n69420l55168L25358p6392k41280l53149O14347
24966a187489L52892p18276m99958n08492q7572O90156K72858l18603f65591b4321
24955A26243J38846K21008B32192a26631j5666o26926l15762b46305j22544q05328
24945a174177l86236P27247A8329Q6097a98431M9862j86805q33470r05169p13842
24935b787855P9793K68982P03145g41683a47575a7940A8237N8895B3695b09434
24924a82724j32912m16597K3826J40674a34149G72598K64860K92946j31886G8207
24913f23008l07420q3880l38259J59063L51921A80750N31483d71948p91443q7665
24903a351056n3797c51140E71457K18538j01210a44299A42648K16380c76614j185279
24893a561893J60752b26021C61544O21891J34194g1913q90774M28177a35550m83179
24883f18729E11819J269774P3582K54503m82094j93425m8300j01735L90997K62403
24873A937524k62470C65762i30766j04665J53754b13220B4023b28576m6403j93190
24863d68169J36881G2767J009927m51639A00996a10063p54355m1950L42431K08400
24853c55537E57871R68906k4339m18459l20724k62668J18391L37005r2760j10142
24843G53081O94419M03349n78408k69950J6957O9027N58497P00658o06898F99296
24832G68250L46286l69751j20489M50383j76933E1819a59998j87741j86968j86544
24822g21251n46547d41311C28562H2117d18857N4348J77565D51603N7253D4708
24811C57156J15955m2635Q2931L1501f4224p62944n54957j25010L17670M07832
24801g81633c83410j18725k00147l08676j327427l86443L46101O90381M82928
24792a205418j12298o34514L69405K37743l73959M84324M98805a79775D73429
24782A41696f55130J83537J70840l5681k21028p97096J26963e63706E73963R8683
24772F72646L6132K0768K95931M62829K1198o60650c337n5300C42978L30400l01056
24761C72322b5662E61569K24619c4290k92996a02293D13173K784A08666a14895
24750c72489E1250L68342M51299p9709k8633O400K65266L33874j74543D48464
24739h034j43779n29432b75672e1908k63359o11612M28636H46888P52888J92839
24729A792615O53053O83622o60801F46937J39700P69404Q48k99481p0209k24247
24719I62952m53726j33044a63681n07567b65638D74463J034165k61526F01891
24709F09469N55117j1633l37947a16033J6957F85188j8614K84229j78913b32240
24698b022934j114900m42358N49782O46396L61305L96196m3925O97333c36658
24688C12922a86031l99380b54679j42972k63741J42494l20385J88531C07126J86134
24678D93260n2618D9468e30803j14632j22255n4360r021L07855J48358n25561
24668i00419k12550N45501E1191R0482a25774n41892j229985j20150M35627m48376
24658b030550k26911l26012O71022O73269e16281A13338a296139j018561L08518
24649b006182L00802n04756m73493N76689R11419M40503l93242r01925m59932
24640b510117L36552q7913q33024N03871L13948m17619l04749J48026O45698Q31510
24630a373817f11699C96159A96959K47474q6432a86734f0345q1199j19582o26165
24620h87291m11028N48520k02081o77340m28903Q30783d42770F58613k40844i75519
24609a318125N12629K26615B27396N80106e9016n64964d03A079592P32575j5384
24599A796783r3622j01479k37694m88429k27990Q2202A46980k0659K46428I7365
24588H3117J62749j13416h78584n79119f16712E4762J35395P25835O38106n86301
24578I67797j95993o2063a18590K8352E80245J47010k11934j63367d26743q86813
24568a313556M91845E79071L26259j40816h2358m39612A21616J08169a22778D81250
24557I55201k79766a10653j034226p58738N66399b57558k0124l19931K39492o23496
24547i81617q82508N2783k9554Q30102d09089a90952c2013k78990o9249J56835
24537b23417A23315b93101j000325j066109L54844R47608j32661l32182L36344
24528a185582e87871k89546m65172M81370G24802M95932n64293F28e71233n64120
24518a135353l72163l46032K4468M81223K68293J10275K36225F5111N11697A91596
24507h988A44484R30762L91088M8330J223065L91773J5132n86069o84182k19872
24497A654511R29134K782k90348L29943k60981q50138o88264A04548a074729n54097
24487a628826h07894F00978P01150L22701p30796A61100L51318Q86350K35265
24478A634033p98361l49392r6887g550n29648K1657c5082A175622J74195n90043
24468G59774A71729d78199K30355A6994d02676m51223d09591C86375O0769I7905
24457E62856M72975D89709e38021o75503N42008C72273M26451L80769m3069F6935
24446e48847k37002A97413O02081l64072R1989A04956f39987k83468K00532b81236
24435b67527B9246M29730j57455b48902j76332j0307l17057g0456G47999C37666
24424B8466a3998n53315m10453N7934E3992J0741c22624C97050N00289D04454
24413B27708d55720K26615J10225o9832A9580L41771O45161m5818D77420j48916
24403C28504R5148N47112N3316l47488k05732a52889m87344p4901L07687H49389
24392A479493K03570k85989E40177F4260K34703R71314K30806n87475c2395k69637
24382c02032D6296a74511o30964K84957j58104J01940I0642O3481g8226C71643
24371A209751R0461C92257a24837E96069L05542C44805G6317c9079l52178b9146
24360F36865B83815d29794k53355J45761l76406c50192C88719B444i88355m36103
24350a424458J84209L30006J1563B42258N79309j26026A43922f07464l68789J35119
24340h41134m0818l16060d83790A014777J180204o51168D56021C1541a15867p0161
24330a86028j05887n66739n38898m4578N18750M1887m75325Q2276f17831j54646
24320g72477L81264m15850p69750M46857a42598G1707R1526M82740J26215l36955
24310D35233M29569J78912k71200d99295l60395b04550r2774a42195D79948L97153
24300H77101k03905k03593j60969e31516o16104l49760J35273L46366K47800l7097
24290h05038N1627j48300L3681G954M81476j52692Q29672N58049q7328K17457
24280A854588J46330k79831l60212n36470F9777j0266a2194l3174j47149D56379
24269A035028L74389m40265C63447A68151e95n68603A06714O15833K19506L42267
24259A284320j47400E11317g4924H5753M28851J26590A47871a26593h32j31097
24249a31929l98398j91521a19188K677p03557k27384l09778J42947E8003J225585
24239A283588M2847m75068A75477d51590C07034P39043A47487e02025F9969Q55447
24229I25416j76623A57305c54043J15870E93713k11825i91328l76496L33025l05433
24219a340232l17397J59159L5489l25408l098k60655k67407O97518f21069F80156
24208A880573J2466R5847m56011D82806b41654o12664j54166K53927b69615I80297
24197H28829B59761b20817l47932a31369B73117K02880b8351j226360j553235
24188b807946l31920N15488M52074N23578f08585C51945K0488L53735K87460D8593
24177A11592M80385J1448F2173O57826J282742L61522o84067a36627o99715c57526
24166b89891a21745f309k72167i0037C51558j06319J56527J42132J84724j7830
24156G10792k01767B28564e79867J88119C25222m6459f03454j30376b6574C10808
24145C48716N74149M56516m16318A34980e08439o91358J28479M71371n79483o60969
24135a840399L59426J56750p6774N88119M01630B65355R42382O58057O06190l72214
24125B099770l28978p69281c18715n36819n9658j9190d12207b4254A14510E0400
24114A51363a78812p9235k8642f3444G19593K18002B05077g42267k31344j17144
24104a090755Q9387j4086n06660R526L43342k62696J28849e44698a22500k8261
24094a50761k99078n22818j51550l80183J65006b36320G65743J05214l08815K6758
24084E88900j21107M1568a22503p8132k9147r5378Q0695J1691j124263m75402
24074a832439K12974K32981l58859n99812K08773Q15692K44883j25189M40611
24065g60385m3387m91735c11297D42946a05560p9397I4169a9398k84616o87070
24055i91084j49123K28409l75112M63722L12616D17229J92998B90025J03619K47842
24045F41486A18016h23609k27955a79296C85897b84763o02578o84348Q5899N30747
24035i55043j51290p2691o08354q44741l30898K82729R06944L01355M24971c20986
24024e56761l22045n16694M64171G7995f9725q67814j96236M72876B00108a98733
24013e66373N0367A30010P46006K96025E44456b20661B70954O05102B42198h67301
24002a175593e39776e0477j23279j008727o79875L76062O14143C39129O39863
23993I78992l2639B53476b81921g738p73834r61023m44460Q13098A16294L7813
23983A54107G6343a1062n06570K5140B83163M19719k42626R6307J36842J16541
23973H09946P33723N82437l48952l49909m40053j15875j62537j27258L76592N38654
23963A496768l13817a32019q70849K29957b15482C1637c4648C28361O10892j27801
23953H11452k24658O30970m79103a62080A27844a30071n08929B92526J090145
23944A382671j48020j3450l7759L421K74905l06105n56313L62480L15490q3249
23934A194071m29926a40507j140907K31610d91121n1547f9936E89361K0817d26694
23923b77926c5342n33337b23883D82189M50275J95579r0022M71232K35123G48248
23912B10131J57618c87135j054673o40724Q5780J99169L28300d79968H43510J35490
23902I79000m09058Q08919O87319j4225k26179m49058l81944D60058M34774O15792
23892A510624m59995f2691p95099k81287k62778p39034o94645J087346b80618
23882d63811k65234R0693j61313j067570n7514K63160g63383G48689j5713c77313
23871a200615n30104K63812P25886A52386K95168J08670N3719p428M75356K77994
23861A355865l928L06785L52063p61105D39278A13894O00948J157865m52967o46584
23851G73156k20868J08473I5006a039204o05217L60798g4986b449I6972N13995
23841F10967K36022M02197J6673m34215l85408L68442L98665C79226f12494J66350
23831d46144C16565N43545O76579L83150l94933k35403K55561G62399c68896J55576
23821b13320C46025J50567H6479a37311j78527o57367k62282d12169B36981J006761
23811A243742P54532r64220B67590f29810j57184D561O43456J38463A72517i57263
23800a475781N18947M57066M7571K16121C24734R15123L53144j77504k4719L73403
23790A764181O11900k46892r95615k93691J22607K42776J83542j38806F09656
23780A61035J27332N57681P90777K74664J40494l34970o59348N05990J53881j15840
23770A601696K5521j28021m50508C96121N52447O4719c75167q50924L99845c37070
23759f96456B42107J530512N31383k8535J61205J0127j95860j1187J59057J39066
23749B537875L38986P9843m74412o88011l50186j89618Q97296J235004K09086
23740C595863q72861q92393l0410j50775G27849k63827j46580c7508k49858k89549
23730e76915a45612D48717P35033L0617d2412r43260m86164k73407p6497R1584
23720a730156P03934l87579m97165P200j08370N40992g16404A45281P08023K75519
23710A128823C3235i68923M40464a16333B56406K77889P83692m17049k93180A13373
23699e54971J23722a8518A73813o4646L28385J78858O4277J84136k67248k19236
23689C78339b69591A03004J381561J36674G69548C76833M2982k5549K47440J58696
23679H00402H1894g24563k31817J60905B95515J034887L28359j78725E92298A56271
23668d68734O7874l7134a80735P8702J4675C9918P1316N78198Q34703k04685D23253
23656a12392r07811n73035M06146a36627B76057J76445N70719l15102B43893M53009
23646F96902j29670e6134G02697N33648l77465B31001c7414j68080l04763m97060
23636a007317K58046B24684N97905A18838g97488M6063B89029J212415N90038
23627B091482J34479L849J18627k92269o53783o76727j09200G8537e57238l8778
23617e96016b81247o58205n63338N37251J40799n99388p38376K0143i68671i2689
23606b51949j31348O6137m79697o29708N68777a52235M569n42086p70371K8082
23596a432041M82405P1385J75413K30392J58q3340A02036c62323o74526J20381
23586i16468R5969L11582E27774Q03309K42550G65710a1272C0016A1639K71607
23576B83246N69260J87118k48706l55398O89126N99624o03432C89813C3067h6181
23565c05455m13556m77995J07533A26569J081704l33760j2818L05391k58688j65845
23555G42553P38506J30755O09523K06627n46662q75996m64514A05035j6497M71056
23545E59594L82762l76173k1668m9707d28711J02238g2625o97742j77689A0765
23534C54568A74246J11710j00144R34922q7728F6247e6510A99097q2910K74729
23524C90916Q83537L48169j48424J40032j80650l2819k70346k80844j09588J82331
23514I22314J69824l67588B83021J78137R40905N15372m8602q03287n12938m2942
23504E09666M9649f4113n16091A65652k1827g3553A1579K68932b8628n98586l07707
23493i34921A57989J290990K5982F84525P12184J458350l19225o29088l89115
23484A517631k93501r3123B79850i94448l44565L8507J73704M25147b86080l09988
23474e96068n86133p38827J57972P25361J42307n96254l9201P20549b46445D34553
23463D89733k9208L05240o8042C26660G5680a34930m69064o8889k41137j061880
23453a975900m45455Q99683g44539L06017I7805R76517j17472K43033j81365O01308
23443A619826J026920j07906j135433n13424R05339R4722p14721j62674D12806
23433d17401k23510b43946G18427J628179L88082r50690D79543i08227b43323
23423A032901K00909n83993b75954r2263p89395j117433p96582m45690N44546
23414b972771P29435O30590O30299L60994a63114D95105f8992k32971E47826Q0714
23404F28540B19146O51145N29485o67015a73887A9816O87467R64095J048527M09387
23394C129292p69708r63774L25339M73701L4763q38671m73375l66157j55774K036
23384C97672A14489a05175m19518O1619F3174P78619R64350N7093l07849k7396
23374A527991k99913C27377d47093J7655a56518k31538j126094q62459Q26837
23365a549772h2374F63315L52881L04318m88605B27052d64054q42077K99737J84755
23355h21639k71298l16367p80404J58723P61188K39063j54993M64885a01756A29007
23344c77040p90220n11242K45698b53250A137889J265219N82995r53216F49941
23334G5838b50662k5851N0542k30072Q3339h8091H72950A06900f11480A641L13514
23323C15155M36586k85080a293507j304172K17080J20139p0889J01180Q12813
23314a417356f14947j42628p01252l01521M15767k09493m6164O18640b28515F3321
23303A031309J008211Q85151J500440K621100J791871k933325B312614F10612
23294D67933J17390M71480J77420J44943R8442k68725m5287J70037J89009m28582
23284A094060l68026O55243P5524F58179C00908p4588M89494J172111k55562H03621
23273b63362n97961c46190C41172J98202k13960A24290J68090N15524K83550O08993
23263A700447P24575o14796m10884k26961j44948m8797J110042k59171B37231
23253b52495q0851J53980F71193O75306E40862C1631K13224P95417J98813m18936
23243H20149C57543c18632C50921J694852L73312j060879F64388j79693O3099
23234E47794N49133P72712O42498P72230J616347P70228Q44709J410241M91301
23225H417193J255739J741524J868754K570972M592233P221251J1009748J9798449
23217E8475863L8565582P7794927J34154709K5876893j38272056r3499247m4590654
23210E8506017k3234030j3036301p157655m718097k669581k302566j941788p33413
23202B712586l15473k77832l0592n31840l62155K67806K05745n73387D24399J44537
23192E68936O6980C8814g06304b94987B24339m3318J39897A16568b20919A42863
23181d00795m21151j99917k99654J44475P9371k09043j74932O83198L29158r09537
23171a378827J70027J25851l33678N83069I98354J423238K0904A037514c48293
23161a072654k29259L47578J28433B53543M38996K8373n0406j90364q6288I6035
23150b42391p2024J42740B29146I941i3543B97539J46549k12562c47036k17367
23140e64403l1453a46489F11251B86460j13586L4446q0140M37770P6444O53438
23130A294832L15856L58165m26143o02856k29370a10841o73748j53497p83111
23121a721197m53213N87802f05560B3230d17366k472D69512N20252j02309j21742
23111G65713k19042A60613o4606C1530O0457M69160j71803j16015c61101m08231
23101g69332o7605q0159M28059n0808J83083A85636c22947n46600k23791k81932
23091a375270O64246K41613l2186K33196P1755k63138J76054A7929M342a16561
23080E08534P06845l08944D15287d8456l6796I76028J020791l95976o44099l42961
23070F13783B76861f03863m20427J96759k08401k86468m45513n76510i92844a22997
23059c38514m53412n04126l98114o67585J35640J69158j08459m26155N16867J033777
23049a040923K08418J23388j06526l02839a6602G24850l45125A4761d74991g5278
23038d0280m60866J2749J87084B20151Q01317P88859O82353N17569j13775k5363
23028B871111l79211m63121E37133b84904h2388C64743A75359a250946q49989
23019b100935m34615M06657a020891b38383G01219C33358r144K33295J23545j7256
23009F63798j05381B15676b04671g3526A89729d91571l59242m16129o02865Q07586
22999a062221c98143I066b20582n49505l88893q7076M26787B29930L0404A22028
22988d37734K15302k37244l32500B07560R67397R4066j17778j02569C79248A69187
22977d7805o34078q26153j753Q5256Q3984L25336M28352J78136A98437Q77963
22967A076400J126044q16883B72588r2825M54174J74728b14506D88799P87826
22958A276625D21270b27070j06617C09183F4485c42891B22181M35138M00198R4531
22948A152048B60921g24013j41572A94599M90936N1099B31657e34091j89434c18230
22937f7189F66236M5659b2321n95903a99721k31380j450462j93004g49818A64689
22926F49455L86013j46270l95103M093A5864f61831m8455J81991l30416m7150
22916i05861l67082j002895q14462N00931J082516e41437C50034J227444J053802
22907B631280N7725p20064k41539K20412l30482o67270c9296m50288b14643G97361
22896H86792a27612j345987l35209K80958k13506J95953f00853H1979M6663J52606
22886B81248q9078J293g2646r3502B20246f23180l98084c90865a36060m19116
22876e55176p9182J86763J87394I1452M90826l0352K80090l7057I7830f4790j27283
22865a92073B96627L70072e0474j570803l68570M18800f91733H15202R61741n32678
22855A244265f9423j442322n85173P39429c72940A36071f1052q70537q9821j84956
22845a206366N81780A23121N17726b4201j030130J65328c40138l0922p3451E1996
22834C50713d32143m73678J43320n23651m66429o31408l74675M65665K20957J0110
22824b061932R48422c73096r5710p91572q38867o88977N15536a134731b9530A240483
22813A018344A35181e12413r08540k68713L35525k2085K54656l1890p0198k69021
22803a492679J48868e08275C32980O9307c949p96795o99300M64640k98607J85233
22793a148778e174E56743P6844r3164K15237N43819n5330l63511B24919a76540
22782f19555K04971B81077J096210J61809E64579H3062a03316j87452O4671m2990
22772b69087D74742O16918o7760L77768M55355K18618p74404c3155q67653M27678
22762d73130d9412m54829K08154n08444p91893N55460c79550e504E17206j7536
22752D99670d0672o58769n53728j28981o16747J31301O13535N24619F751J544446
22742A551197O02677k06255r13282a88164m38185C05600J028283N82415k99036
22733A617262C20251b96299j89215m32028b65214C51326J23969J60029k29524
22724D05800a49863q29451l05609J0602L69644B33257O61774k13891i8376j69515
22714b67891C23457M60097C26922o0968A17490L74481N42765L34326M04688o48533
22704A125217b93177q84397j73629n44107L14754N3283r75174k43886N7580a025337
22693G04464J74583j76865k42995k05504J84441b61694j84871H8873D636J1708
22683A6344e03414l16302K75643a02127A76152N65825O23647K55527p4388n41777
22673A004986l0628K03769o4720m57229f1185j34052A373225Q38450q1203o01228
22663A529244E01540j39092a6596q26254j75897d97299E37931J669631L023745
22654E231307K661116k203398B543302j236192K19432M93149J14253m91557G33155
22644a013136j84559A409R30732K06152D55017a88166l23640I5775M63791N23355
22634A082921J11731E56835k11018L56194L60957K45472l94524I4088b50864l17250
22624e68114K24257B60407K55364b4681j057951l84676K73412a83984H74519p6151
22614G98368i7636r53622M84226C93088A35286K98116L92939l52753G6725d91436
22603e31763l54649c55501F61536Q82193L01777n587q38680a12637o0043A263521
22592A601952C31751h32521k12470L34654L53855D20046O81508m17247H2830L13488
22582C96318M26548j69486M34013l51751K82620Q4397m48630B64449b74567m51483
22572g26050L00696B6640L72b64168C2182M40270M08587M88943j52554o05833
22562F11595a03262o72431J2377J5015R8605q57727r61573m34938q83458m81464
22552d268856J390071h95562K40301m08260j69391N16968K81785a58107j79325
22543c37432q31657o91388O57454g7633n1082n86464j90796J68345C64539O77764
22533A042303C42847I4971M61771N42278J07371C25959g40608l86699l82483q89486
22523b399276J08457K66644M5679M59947O71886M12582m26694j88904K00065b30073
22512E69568J750444k3048I50080D65292L08682p0514j28956h5055q11032j117506
22502b013593k56289N71920R8774k23165J92174K17904K43508J02155c54870G45240
22491I03406B30788J41380J67732B00813o8774J35767L56082J107424L89203n38705
22481A581810n50386c4945l2785E84735N63427K77462m7236B11126e9701I29465
22470A779205L11004H81187b38105n04446k60790c86967d790j44091m2745B71278
22459A099463J72201l29185k13656j2948C23061A29427L16126K32563D4087d09073
22448a46569D64002J49619B29135f36778m95806M90322D05099O18551p0972j909
22438I50769D62500A56388Q35454Q38956j89620F12734d23835j18549B5430M68667
22428D94097N69901M22984k18312F19787Q9064R2311l75364P23622J252970K36170
22418B638560n72932G23894d66190p12599o663d81178B91867J080336M81992J38899
22408A993094j85119M77941K62156p29540n05562L15975Q8405J55695L40538n65112
22398A648471E87374B55799N22594m1685L56145J18691k44267D44166A26665J50649
22388B77314b4049o49055M4710A24732M15939K10139j74828i2772j078197k87639
22378a458608d55198D07551L02836A00619a127936j24156a50489F53641O59897
22369A313538P94405o35772D1290d96090K37154J27947j56840n3660C20666L05200
22359F25866j81498d33476q86435q7515d58311a79228O0461B51341K24083b60705
22348d45693f6192l50974O9103i383H00959L29988K27459E07564a036299j019725
22338b056024J23778l23715p48256J67140O99659N70201M97727K22622K17388
22329f29480l88686k91020d12088A59714G644M69714R89036N34043o62175D47519
22318d14p08865k39687b34348C34399K30510N30369L11269B2715a281649N21719
22308g59930A0101K0604L15334M89013O4179j02052l35612a26646e8278H8395
22297g9428j6212A39004L1641h7483m77927A14669J850136J220676R31591k23445
22287C893627j646930I29790A88350f85681j54626D62900P11438B84260r123E8220
22276c67126J8296J4374a51514a0739F1969a17166D58733P52308p6264m15066
22266G19711C58105f67027j96045k73091M10559K44150j163704k98820N10507
22257a433471M18030c29470B60140J21296J77237c29598j270673m53993K74623
22248a779641N05297N08040J81284A28962L00932d03532l25350m68607r33479
22239b130968n73181N69594J78804P827q2423K8087g95681D86793J47624N04895
22229A139312k469E3845a320500Q8806d69381k59696n19561J26113b91772j42038
22219d33810m09580J25026c12800D3139J000744N03095n53456B43459a60623a4642
22208g95259l69003p6154N23237K3370k68672k18353j83026O46889L49725B28967
22197A215212K30931o61557l81207R3555r289a69085n29252l17624m70240l10691
22187a796892k33337J87411k36119J05898N60462a54576E87956Q07130L7443F48008
22176f5468n99848J80803A02052P85390M89781m67706j11384N95452M07025G38915
22165i2546p50099j62273g488C87967A01133b0037k85235a41835k60051n75717
22155i77603n82979q35553m18766M87306J34877o69193L09354J014516K80531
22146a257510q46344o25105M70507J010563F8156Q34602q953D02833b89107n29527
22136h18634L24308L4496l80052o07489o02102P60317c35416k6070a24713D92145
22125A419210o22942A77545A3710M57162L00845J82613J81279M54573m425p57126
22115H28631A30725b42322k61375n24909n31874M47506c51241a09792B24788K36651
22105D61439K38033C29181O83639l5345C21130c329k45664B42187J164017K62266
22095A668470m09822k83037n0560M24953N6091k76403A80024a12269o5301n28810
22085g06380m56672N0571J83205L00710o81527O09653J23662k1091a57703k86717
22075d44420j027304o00355M78928e55832J76421m0891C97832Q3822A32145K4142
22065A56287K02183e30709r0529D10261L68811j33936J0777M5567K50076J140143
22055B091699R15125m2350l68746n72106j001656B02793b73608f2832G71602L67868
22045A139470L43790K35030k19067F47675k17772P7329J69816C05474i53126o21242
22035a574368a32546A129335l39493D686f10011m2249k09661j65780D8346J428201
22025A476547M8833E87531e98727o15100H513J210304M79524J98599H86165c40094
22014a04323E91133L82208l11752a051050p58209d04997A080016M19018j4226
22005A484808k28117l26879o1839l1855K6620k77634N04374n43867k64349L2427
21995C13689M40983J24375C30751g70255l48423J5697R8000R3237F369N71672
21985E78041j43857g1073l36586b02401A54308n2308J44903K3469J232952M33760
21975A937084m94203n21263C5738f39680K3736a96422F50379M40229m43477d85181
21964a430823l88408J95640h04556L39192C06291R74575J43034l77413j80168
21955H66319J63343J62301B15374f98583j36698b64319F59877Q54903p26780H3723
21944h49279n32923n42J65282L61571a38458G70374k11542a001732o27306k60962
21934a890000M88409L3308l9723J89515j2778M37093K66589p75862n42966P2703
21924a773712O32306a11281n80284q77634k290L87090b86349G3787a80253l33562
21914e13815n60035j088272J2401L38504K94830e91850N1569K0910K57887k69446
21904e30930l97213l38093n10839O89503F40006J647403J59595j175126D53502
21894c86592k05438j47339o0164M2003J9596K9468j32556j6675n26180J96005
21884a187872e43464F38047n9644a73110j73461e4737j57588k21418m45286l24223
21874a203252n61711l41858L41364M74757N44744J83115k70262o70583j160579
21865b664265J00608O28016f91005A68049O4164I9840g83475r15434k90623O06001
21855a383531J23426k94399O70430b37873D4525L20645J08668a19232p90607K38214
21845f71625R3055p60025J90696J97388K48653I6787M82866E821a84024B34469
21834C42209A18936N6864J68265b10963A70064M80202A78577K79858K62680A72616
21823g80586j063773J67141b11112A276726O44574N05360j029185o38937k59724
21814D98814N1365P38316k3823j80596K27808C38120b29442C68586O48590N85888
21804A603064K87252q6085H36886A85702J2214d77357m49785J37572D40555N2335
21794D92890f97123m25510A5820O99792j63737j99309A12910c97243l63859A90112
21783A021343J86620m7107P58350n66994A46161b92927n7713q5481A25922J382540
21773A508462Q13738N54444j211872a85532j268608J85679M55491E3452L84890
21764D38342O69145L59659D61756F5926L32785M63971M59888K96595K33429F91144
21753e97810q3677b67923C5369b6893m5938q0277B89183M08424j22714J54296
21743G29189Q83825n52138J6939P76347K20238K34222M32212K78877m58583r63704
21733A597424D71084d35870r21111l60701m51380k2947L11722e72130b68656n89219
21723h57875J32951K55819P6590k24656o35931p12541o64044l13888J437361a99303
21712i5887n88186o18200p56155m67925O61929d45749C26929n5927d50145k32919
21702f83064g9157K203j42832k28863B74547K58437n6111K37784K89987k43072
21692G61572C34180J204087M47580o12168l88441k30007e7821r53284p40940M71117
21682a280928N88972r3917l12969r4391m00171o13400N91891f87990j3517q38205
21672a539712P5304c15803c1852A33817f0444j67466l84397J73197K06327n17581
21662g50364o6368L10609Q713b05174C96172Q4279A86562L74882k17306K2500
21652C66638K66923B64663e26872l45876N2510f0365G23405k6242j3392j31404
21642E52367a57310m75876R2865j25158J29247a61862l47451k57388J0090q1023
21632h37634L82762D30755Q70555l8696A47240g09801o77079l24344J83618L24349
21622a203257J75280K42024D31318M53085k78395k63459a23667A05559n0460e51010
21611e5248H65683B42235h16317r68337K28902g71628h1533A72798q2924a31118
21600a215126j177266K33335R96713a90631e6710l40341j64811p4649j6530b52020
21589e47386o26476K39150d32286C86895R21598J89345L57139l4565N31981R4106
21579B446499q80501a46952j068640L43576d11895b04849A68774N5143N86641
21570H10558j33064O0220M19185j72324B83332j03779L83773J32078J01193l0653
21560G65944k77578d50254q81546N28245D59625J147793J41188k72581m59839
21551A016186a8554q83515K01789l93022l42893J90123K79274B14098J071500
21542A285598J41256n63575B66048p261b87402k17572i6642A5697K20747J94762
21532D31206E7470a15115C5940b13297k10240n54501j126626M23328d53753B94672
21521A211658M80375F49837d34880j1790k61754k61660n900j28912n16223l7740
21511a658859O85104d31660E53124K50816L979J46019j3817K98553R7790l3579
21501A302885l57268k33853l6039l27972d5151B00474J31769K50442O53686M77172
21491A713543N63185L0277q77467F44752L10436C82097a119534p43919O18016
21482a245437C8996J069468P02538n28865B50790f06627K07521k7291k76026c18932
21471D82201f64282l71366K84071K36231j55892a09483A329742N33697N33890
21462B397329K27501p34268m37865l40773m05374B11553K13354O38181L37574
21453A400662m9885l19654F6665M5361K11395j13820M4639b33658j67371N4727
21443c46302B37191b18726m79676j74342j033601j26220Q46244j06835k82674
21434a575830N5148N87935c92905B3347N530Q52485R08064l55865O6318P74124
21424B274003K5397m15767j33775l23948n39860p2165L76663R0572C76038c25189
21413a17545H48440O44305k69772E07538c64378k9651E82336M34881A62286b65753
21402e39934k73617o334d04233J39449L2778C0634g93677p33919l03637m1696
21392a872929M29861l65850l75065N97293M47010e10498E64127P94376m91726
21383H66777r8586J64852m20356J45631J258700N47096n13569l70056F93054c54583
21372d91022L1210d5885l23927l12325o85493j23696r7602K85525d93808J77315
21362c16493l40184K51850a38574l21437o14991p39752K04290M38456M44631b59403
21351E72817J058261P41131J73646j158027j92611M1510G3239h08685l45108M21626
21341g32167B91604P80959M50784k21386J9952j1959D28266b39321k63783D30902
21330A556020J087129J41942n50718A071076a60243r77133q35563R7249e66778
21320E00479J04680j31416H9395L6365C6964A8294M12376J7322j17199N46537
21310H77330L54547F13765j19780Q15818K95273F92052L2782K13472L05620L79488
21300A623414p9657n97090B14112e99063r5086J67201n317A82355P91293Q56412
21290A830060M15554m99891G47139J83663J56574k56214k96245B8050f56767F5884
21279A289344j58518b10002j059897N12101E48082Q62256M51109m00161o27021
21270H34265D15560l6292O76145O35525H40221b21119j133694r89737J60123N80589
21260a603838J86079l93412j78383J74842L43859L59999M79693K54109C80559
21250D10788e74792b75770a14133m14182p38156k87643q34488K54847N65339j30355
21240a698771j06681k3375N04660d53001G5053i332l50322j19475i1282D66507
21229D92764M0960K92291L62165E78681b21925j239275n41110j37326N62235e60194
21218d92714o39186k50218m19801l69014m9635k28038p5937l19682N4604a068736
21207E85785M51912l17919l16434M85544N09786N85446M88433r7849p97315o22774
21197I54615R6294K73251l12969j02758Q70278N38376J50797J1894M882J35548
21187B620208m42666k69794p66436D20887j86780b67661k93466j45970k49243
21178i56340q41233j32341O89621N47474j80089j59372M12535L755K34170B36039
21167g3965k96130q8591l8491L4985K02050R2857l78195m74045R4364K75290L8602
21156f11269j083215k90012Q91437d49839k6497B5866M00915N55153C8132a072337
21145g27016K52480a94043B56770o2264c54657k87808a88674D13441o5381o1000
21135B87060a25774l16305C31252J008485L88324m83727D64188A00965L27952
21126D28917K24215B30141j8526J80959K28296P41969N41821l61108o4713K24595
21116A703434j68915G30175E9545K85963b307j334530n09113J33433L86221c79692
21105a175230l26397K09674c40493C39970L17933K88173j99436k46091k34270
21096B66279K23124M57492L01400l34585A73548M90337P35640o8871E47370l2570
21086E14800d0499j474839m06300K59814k15335i23891b09836B03138O00360K66670
21076A070168l4583K25398l81094A70085b29228N0925p2292j76070k66404l88647
21066a081716K39046J34012L00589D0513d30850j152461o45416P28412P00270
21057h00045k44571l6217L67930a86627A4661M82314J058423L69802j17807l87742
21047A419651o13698p4530P83347Q64005o0926j153986j38882Q48386p85549f63499
21036a653238k07497O46277d64256a66652H2714i9519c3682j05243k90946p65569
21026a195440K62199b86042j48576f0008A221547P78694P12752j28750o67188
21017A917055l73178j56736n9320L11548n1236C2158a064067d37014C50447L47406
21007F97853O0768J31522C90271f95985p90606j21185K57938j55352L71511K16396
20997i17283l8274m77603N62192D15300N13634K82199M89684M19610o67697o26103
20987H26627C96813A65468d3135E99700L49248d24020j271815L44626c73108J53823
20977b19285k29419B97182L99686B44318M88486N25904k12749j89630J99266l24666
20967G30929l53961N9851L23856L39116j80140k47056N92811Q64487j61128k9997
20957A938768K31677p25341C79171e47588m79700L84380d1500l62686j163301
20948a567487j124678R5697h10211E13836h6201m05341F29923R06040k60466l40230
20938I35267R4905k8182K70616l32172b04736p79723m99875k42466e82522G40015
20927A391511K31414M41464M9296j96036m9598p20446C71357n8692d93210r61858
20917a455068J38978M48545j61802l20913L5834J95659k94006L00282d68920l91729
20907h60649j02037f4671H01466K19990J11490O9975R2865N97913M73216n84319
20897A782596F50561i6809q63789q07513l94450O03321P57665f9880B39906b5440
20886E999K94102j685E1521N18026Q28844J57827j71293n32158B28137O87233
20876I15370R56736r30168A07452L94403R08979K16189j78149E79434k24387L06557
20866F61604L37646L65986O1911l95566B63121b11197I6378J61044N70452k41264
20856E86610c32866l78936b24994e2904A0125b01023a6045D84217J58704j93832
20846D49089A82856d80285o19707q46961j022680O29619f93614a02117Q633j85389
20836b78873l3243Q1158l58176o1486c19034g981B83621R0424E1708d45430r4455
20825e39885J32298J42501m44220a94273D52476J169317K92370k45885R2947J97068
20815A958293I43586A20528g83247q90965n81602l19501J058920N75137d07031
20805A03939M87174M87334l61839d3572p30490n6900A12218J048815K98463r9428
20795A360068n21503f14938j541606q1057J094450b27178C78288A12564d42571
20785i82889n06435l65331P25343J69137m40661J062f94477J01447G480b2443
20774a12113E86742J98294A56469e61330A41886J187106R32863k10914o88128
20765A362813J03581k94123E41862d54303o1227B61117K38994L57778J88151m38824
20755F07216j35776d4994o89717J32822e2341A94271n5613M01626J460038O56290
20745B656612n74496H97617C35581h25374k64913a9275A096902K78009J04142
20736A479053l16946a90749j066220q14196L96823d66720B9381a118968j175259
20727b294227q05341M68716Q11159d93006H26663B79599c07624l51377o92806
20718a351807l49377m1172L26341d4171F90924D9749c27884a4528A014037R22013
20708A936050p85743A31182K99538P48071R54616p3403D17875i76377k13293L35110
20698h54560c34054l3327n20764p65452l62433k48359k61430J49302K91173M42753
20688a642591f28598B22238L84475r0077A72732g4238o08552m45048l8558j61509
20678a327905e20933K3518K13782H21121M64509F34863l09419A47800b90481B27855
20667B11039n958P27016M77201L94458l99687m05197m67048c41543n82897k2932
20657i47372K84584o48703p18946j6217K83309O52117a36017D72117M76688N75280
20647A524085l20775m96887C21426r8766M78191K38128r4414J88664M32455O11004
20637B076688q59070D90445e5082H1555K95166K08190n6719G1643e15444j33802
20627f49246J79776G2279O37127K6710i87578j686470M77308J56945k0158l44465
20617b404418J45749K80548P27591c19223C04489c00453o29736j03011L54242
20608f78958p17238p15129j57617M59992P24593K27478o54114k52281N61487d14355
20597E70070L40054J87372K14369J81521k03507j83382E37216Q605Q0571k84120
20587C42272e2409E02029K13926K257J19663D09482B0710M77179P00162N31581
20577A729632j33501J33073P5333o33862A3112h09360r14071k22873O50010a82065
20566H60521l16513q5214K65966L50822j87807M635B35251d56462j83658K0332
20556f19788d7442I29012L23321k30887C00759D3300C54d45305r97472m69402
20546a912179k3028O7990h03956g1343B96105Q7158A8123a260546n31741o5191
20536a857478P8758P58390c47889Q6671A9926i2124o5133I19035J274701J38617
20526B332353n03289q42827A69837b84298A27004M07259O02086k95854j11106
20517G29389M3708C37711c4475k64343o13540m00237N32232B70061J035038o3267
20507A241832C99827d35745j42814k90785j34727M63611a5051q3149D70279N73672
20497A043951J48418m02457i1721q53789j89196M34491L27013g8351B07811P33754
20487I41565O43985L48088n75099E64168J61535K84840k57387l46707A71040C6632
20476c46075A00761M18692L81058k80269a84550o96966m60010J07898J86312K26158
20466h21158n52758n65078J47950k51958M73848d12312D89938K85662b84152p40635
20456a024787b11215G64571K23531a19290j008879K43237E3662L82226j31714
20447C04174d93988j070750j68527O78233d9590B56997c36158j335878n27248
20438b199284N14566K72773f86765J12562K07199C75678J024508O86745k971o52784
20428A431176G06538j36840A99375a132281p11719K86283J77372J83628m4566
20419a241283l19949L7281d96458a91929n52585Q7594j19597j00497d09217e5928
20408f38272m78329J88747b7583A4534f00832k40503O8347m5438K16887K09561
20398c91978p9367K12148o33692o61702j0539O72154b89287i43E11382J171431
20388A682813K90187p65455j43800j49009A00242c92156m88981k02765c10642
20378I0888R3972q05J59044O65203K28661l14847D15595e30727k23471J19324
20368f34874H2880b11917p05004q2700f9278E20286a25912q34125r87715l92999
20358b340751P30683d62544A7176P3789K28488o7407c18301l8661i3711m46042
20348e39753l36302K18173K58362k91329J26520B80339M41493K4144j22733A16312
20337C16667L01191k93425b44297n14512k06714K06558g2483C56135j37831b94965
20326f75169b45078D65857A87647a07416N2380i835n52006n01943b35749M9084
20316a86665r94002j158321n08995J103838g62087b45168F0412b61697n99296
20307h60993p17599m9383N08933M48150n53267k49664N10956M7682N8156b25261
20296B35139a92100o54189k5327J67749a93528K7038J5800C88945K4238m1589
20286C71594J84405L44977K27998j18441m31866d8296k58862J49385C60108O51793
20276A011901J40803E9059d69241J38288L8506D38036K29245c46429o7519J42983
20266b70965p30593j3219L03233b50226D91859O36753N70026J42730q2028q01290
20256I58050d71770j136041m00845r9428d69979G74263P44478Q36429M51869l29683
20246B477356j012231A22904i52724k90115j74884M3023F5597J177383l916K00807
20236A439871k57966B79660c16666n61573K09661a68666b9677m54905q78150l27039
20226a689771N84020L02142p4516q73169o46738J03030J083012a54082H04934
20216G88875O7317L36266k11982m03941C7731g5766k54865a05874E63707R8791
20206F62498A26687E2513M68761K56677l05604B6568L43129J96583O1960e5641
20195d35946a18949k84431o71775o74103l61835M52071L95244c00685E5739N5396
20185A11135L13481j11080b81201m4313a06498B06941L02267j27647j11500n2994
20175B17067b88796n05764M8201a89827c6916p26160j72819Q2316O5291n29817
20165a318105J89975R2805b07851G20089l18402a37308p44489K66719b96735j15118
20155d11853J88367k0003r69223r98170m2716O13834k19459J37562N33132N28661
20145f59868L20468E54038K16474l64244q7396p122h75400p07435L73484K93777
20135i15574n0565b67849C74867K66365K06322N25349R6996n08312k76584Q2924
20125G67927M31498L73760L21654N53447m06591m52163j56469m51861B59723g06172
20114a113205L16215q8480j92672a00668C46147r166K25381L30456k13923K03671
20104H82566k09619F1772g48442n81073k60887n60623O54591a9400D40615d01709
20093b84449H03594J413843J03314q70070k31429m78175C55241a97860p13772
20084i11632l27367o9630N64290B8861O17664L49J11863N060k97762e749n76149
20073e81898k70525J23706K72349O2696a44585C81371h2934m74706J50094G68715
20062I62985B6766h75863n04292K67412b19287F38178O52642l31518D27350g3815
20051A56767J64374b34029k76635K42526A98345Q33981O70060m7419k55245m0748
20041A358974k40526M75488K35858q16375j25733j11367C42955A5924d06109j45159
20031e51268J90482a58391q16475p0461a28390A062408C80301g92957J57531J03238
20021e32188K53773k47528n27606d03614E36031k08131J004466L15674n09710
20012A138330E41311G301d49583l37062k17326a63708F3821K44230K2374C7639
20001H05721K75423r3115K82432p7799M31678k22006L8306L35868l63935m78738
19991I33835j30372O23273J16089l59010L98614K51329j52054l19937k6508J42016
19981A477275l79845G7504a188078p49907P3591g63136H0558b45360p4810A18525
19970D13952F0336J8112d45914m17923M14772A12149K46034A56936a22176c6304
19959A2084g67926o68592J51909e23458k9702n47555l33131r8507M41235a85761
19948E66513K37580a05571q23895K32697N1228l10997L1958c0905C41890a4114
19937f61029o89052O7625R5393k13308f08501a45264A65773o4770d57634f4060
19926F90650j21360k77777P14102J66832C83599e63957r65010o70984P48890I6609
19915G26339B36791n2205n5178O08251L37960l60417K2488k64322m3547L79436
19905H09257N4072G623a62598F77488J0006e1926n32304J86061a39716j5279B8280
19893A69662K13584N17882O45913n8472l02135J88333K01161L63765j5240j79514
19883A744939j15515Q7385o49548c00509N2822F98735J5100j41124J69927O4831
19873H07469l72199f5329A78226J67511P24984J066598L82432A186863m38224
19864G48639O21795L56967k15997J23625L54478r2507k08101k7344J53749L92826
19854B208130L64567m04400J64096K92936j174749b65843j089521j69337K71283
19845a253418d70921G05045O25931K00809m91858D12701J71861O37224K13182
19836A434968o9530l61172M42620Q41507K39682M93678k54472j316455D81927
19826H756J44025P01490J20495B30958a071510L12834b5C11159N63033j23563
19816G50629k37429a2553j350856L08213L90573r6759j69898b74778J00738k95769
19806d69809j59714B87656P22724P4551A90758J5074L87366O49049M80412j63793
19796A558866l82367k44220k24291l13549e6458j491589K53247b93434F79020
19786B77341b84608k10440K18771B86083a37355j290610j061338L05849J074354
19777a109100c94787g2663j93583r57093l23821L1462L48591K06727J01788p1218
19767i29810A08039J287984K9069A15822a67484G67825j6517P5689p7119d00901
19756d96194n51201j20284J83103c80192H12040K17301D60003B6830L7150K69778
19746C33758K56916K06158N0814K29586l24569J13983K77321L08206j95247E28647
19735d74497k99604n6885L00724a9616k85689l19138k0737A53181J314783l90295
19725A077669m94880Q783K30468k32188j18596N44856k10930A39412b31347B24
19714E68556B74594e87812n18181j04439N9077j60447o27653K45502P73872A6984
19703C01729H2111d39237H1953L79012a3189B14073R48002l91452I7839b76589
19692f94263K4244L11740I9926J42432K01084J16484O3762N62459O20190m04115
19682A402222I3818i04596j043448o17794P53796b06019A344524M43935l43076
19673A445383o15640n6099k76657o6776K01500m2190L86001l40671c43556p33455
19663a077011L99648c28433A39445L17269A33161h08674J55974B63130M73474
19654G36604J15099J84150m4184N80622m07820a88788n12921a13976A90583a82399
19643d68643Q2537E7181N34449J07546A08864d09017A38872J610999J041747j72566
19633B619052q03704D56324o6539P93179M86996J71907L40528j31178n66497j05358
19623A379362n50856A32403c1143J300K751p10915m5777c1307D38811O02298N80029
19612A621138k47900n35718M59271N26407n66096n67657j02287A5540c68509r4700
19602d63209B81685N26901L9610e8759j023735K39257L96847i2626a9836j171807
19592a191643j034102P11808c5034A364561M84479F59354c32300A95234O42238
19583H37472l69218a025837n13007k7928o13358p01076J410186d33436n43408
19574i76844P0147b09507J01686j37799A24363i8251o89745q82284l53684N68600
19564a455364J853p15374o47325K35061M04913Q52169B72515R85789n17719l8297
19554G02288K46401N62809K08979M6601J2674n81098l3099J053929m99090A29654
19543g1787j6938j571008q78930O66911J83354o633M72750e85164K19847K956
19533c62361p0798k53788J97010j72560q87776J20154l75727Q4492j42508l72495
19523b236357L4442L27594g86706B03739J071007k74611D09979L19267N24981
19514A254227n5713n6639n10061A95265J05313M96075o5516K33397J86441m40271
19504G10704a83761j45890C65606J87068L70982J30767j89690j15142k23349r7286
19494D28956h1119o5943n23930k83680d08147B8829b76834j191906o78339L96687
19484a750392e74048F28223M18973N08857K20002m10596D37136a05149E52348
19474A290974R02672N55973k17321m76321o59605k74909N52176J231805p70628
19465B134816A012361k12045k9705j07318k10067j58654j9130c61261J17871E39252
19454A78349c89678j3463E47970L49640C40108A06595J7910N20948J282554P19568
19444B647575M17786K47129j195778q98896K76430O43987k2616k96663L87217
19435B206171j87760I63256j16816o6020b04017q23543K2883M45187e7782F35109
19424F22696A90347N8814J00714J82344L89943M73443m00478B92590j2047N16045
19414G96588B54359J11247N06192B29325a38199A17189j5617e06666P3033B33367
19403D32479e90023r41499k02148P07352A75509O83635a05584p94270r43341n55418
19393b398613M63553M37755j83873N12507A3828J8631g90959l50541B614J223109
19383A225723J48789B04198h21121k8090M00294a73566p4463d0298C92030M16782
19373H08812B32717K06169P87976L8232C17842a405196j356885M11539J010678
19364a339864M89802o32010o33551J57268h10782c54971J75962j5823n36170n05636
19354a236638J92395J72331k44084J90300m79l30660j22745J06078K16290l28024
19344a385236L06777L07066A0992Q86818l30617J31445P95948N15398m39826n18740
19334A051418G0167L31021M32468k34825j85561j70816m6247M30423K8859A4959
19323b09408r8211J3086B10304L46989r2702B17104I0269c7005r3318F4856P23595
19312G88451O47955k39046m63075A35878a04222j71165j19598a8380D46482K65045
19302G11527e89749o90142e79701A94852J15794b5515m97591m46689k49677L23707
19292h95765J94479k63945N1716O5784l44025l06169N6122O20767c03280k25490
19282e28770j97362e004j53608q46832j3608k81085J84010L14270A47899Q31282
19272I79181R22549l37734n43255J67312P08930L60112p96434D41008a76433k77047
19262d53480k6759k18854q6083c37763E25254J64920F2333f14186N3991F1379
19251H57496K18419C92909j60614I3366e31644n01982c47648G48618k60243c45798
19240i23768l79501k71004M1384m51700l33819K43271m0269j52301L55859e67334
19229B2390b33803O5382E75334M70271Q9928m70752g4559j125719n09392O76711
19219a032959K36380L19732a05885k60047a13989C00876Q81922J69742N7503n2800
19209A357243m22929p5327j89514k4622o8279b64169n88666L35051C26592L11351
19199F37943K96108j75194A10310c31058o00593J0928K68385K57344j24092l66442
19189h85528l89603m28437O69050A38718L44938a27901m34816k31321j34740q8749
19179a017527k29384d49325G82536k36053j29514j41614J30754l5501L99541L10321
19169A080470D18653b09915h5233j6095D02550K6854d0965A41778J064991Q5314
19159A292083m33553k29284a58827r53952L683j09242m80709l54250j18f33901
19148D63539O13104K8707J78955R3297k94700m1191j678m2881j56944c1414j45176
19137a76590G5044b09552p2r1691j206477q30130l36833p4756L47986K21798N43545
19126a636182L47402j95042q50843p18483o09038K26166a345079A307271J044922
19117B352193o84952o34880K35172k54619l33226b526F5730M25418j78105r1591
19107B21452H8378e70994j90050a78796D46098N84480O73704O78089j43198H87382
19096D09401L03898M66607N64079l35962C25191b98519n3596j26933Q2948A114146
19085B403014m7388m24952G61523B8489J2419Q2350a49107n47760b04016E83567
19074E32149a84838a1713A093972N15431l65306n53837H3808h03342P8488B19402
19063a35498o30901m98526k28420M86126D44051O53737D91841d7111A59524J25563
19053B85087M36081a97144m68047J63369e8689G64761R17137P9751p33404B84662
19042e91807m97220L79672b47779D1808f5378j027391m07080J49415J67882c44480
19031F36934J018488L89209K32726o64005d1078o91485K52442A7953a52009o86845
19021h38854q6539b93893B52999j6382F1444J18521h22922p84310q0477j90312
19011a878021J71004l19385l89029M76993h34084C96728N83401j29409D2219i5708
19000C41652p6876b63560o82554l86887e05514J58710a17597B55115O11612O06914
18990A473641k61083k59890J60135Q7016J59792P53403K11982j63740K45006l378
18980B402884m14722k66342k15474n25376I7156f48579n12330k90312N64240B03153
18969G01939q7939O30184R18584J32966m36027p6182k81540E37859M38406K87948
18959A264213m52499M66086O12950N8860j49524J30023L11209n41748c890r44515
18949i48405j9202P2927J86996P9767P8663H2967N87144L96821R9776n19276A51014
18937C85958q0761P1209J96545a57102l47034B71421j741b79287m56639j56709
18927h92635K87796l3382p2962J56783m4222L0587O7986a01168I5791L234h1398
18915g1549D4132R02291N80563G46124l9653J57692D10338A39217N03712L50941
18905I93870N45141l110G20672L19656R47561j0240I10649A29277c64429o4095
18895d28524q7633b52087J21490N3069G34044l49825A90242K1054G8609L20657
18885C99266L63880j20880A56608d89216l08323K59828K20131r18709o43378K04612
18875a675055M66212c70366G72401J67621B88550h8270k88920k28511a01800B268
18864c69299O8306J18603m37696m4665l58210M85545a32257r28652q61126P31803
18854a190232h7424F2368b48640D24531L99909l96573J93822P4766l44241e59499
18843g72307b37478B23708M980i7384C08776M98723K74818m61898a5867p7315
18833i3182m01741P0335A42655O39265Q12557P12788p49256D40606M8578J01572
18823E90756m4598B03692a85656j27180J33792G77799O58845J69894j83670F23840
18812C75018N0834j90740A9969e27217a23724H4723a79310A1391L17611J96955
18802E25957O04741K53590n31434l41513j70759b33276C7296a90569l35300J40163
18792c85706q459p8776r0207l26459d6357j19999n53974A1621P43645q4948L10062
18781I80380l49620b34407o86851m7663L42608a0725G26125K81138A12346b65905
18770c56461l23475l33167a92374A134923J04062E32399c2680k67398P6461r111
18760b32728o03775p54285q7226f50406D58673N02553k23497b53923l48094K23745
18750c78272j54449j98834L01412q9800o30971K63450H2998a85922j271536o30336
18740b087794O293K17451l77034l75486m84828J50586P80587P28815d43467D03708
18729E40431K80805K31920C1736b88837k74564m34645j41323J06132j11127J62502
18719i81862f8901H92593M32284n37046I9296f96690m2617E1019J14609a35856
18708d42143l0504A76570N06155F4983c04831j9243Q6388C07982O23b89585p82170
18697a071755o50678l24249K38999M14727e14557C17540A15554f9351A09866a08185
18686a120722l58927l56631M71816d76545C4744K17420c78124r16474K21692M95661
18676e77245D37798M02226L55685N71257J194530l40789D55342a490390k80240
18667a770630P72018E1200N91821O7473e6867o37254j23124K18570K0876j75039
18657g52838j39301l54378k33555L9335l17655j30738L55922K61166k40290J27357
18647a384975f52953B18102J36861C2725d72483l72315k59541j29561j62644n19503
18637a916047m63483O46260P10404c90219j34074r5596C85815N99750q2695p2292
18627H30578l85268O66325L61271J85300j79170E17768A04212M52001P05958M87472
18617A749643J14801p04915m44566K17149k47076B42008H7930J58915M26659N8652
18607G32156O99736l26487f10678r13849e37667A25047h92098j20476A98232J512275
18597A710507O99661m13372n17164n13693m12133f7700m11516A15002i3952A40832
18586E29238P20914J59523j16476L09073R0691D30734g8642k5263A37608M83929
18576F21537k26237A74996o5903L58102Q30604l55910c13624A24279M17985c85331
18565g85488c76689B13851N97141A65196C5530L46474B3223b83975f2970o7226
18555a30196q0403o56598m29389O07773A23893M19229B33034b19089k93377j25865
18545f38331j68159q73443J47075P05934L16383l29980L4431c85854j85792b4040
18534f6337l56458E10551O92821K6346l94216D15266a35954m86247k54818K02585
18524f74434B5976h57920p66307K02672N03196M41894f5774r9602m26883o95866
18514a288125n10619n24515N21024M12084M92912J64246p3442O0267l73249o9759
18504a189176p0689K10641E47275J575438k55054k52671j63176j90762n84201
18495F76849B43683J97434j72863a0090A3947e77668k11842K48189b21979j489997
18485a711976q04832O56585Q14422c25847E52382M89362l54440b39187q91980
18476a131167l39701d50629C47976c74991o52293a28247C71312C7977b29709A65296
18465C48414g4090B12967A04772a7347B3912J31187R87644j91881e1868o71666
18455g23534o15285q41279J90276M30765L47831m4066J93353M34670d9640C15056
18444G07866k61615j34528M99355O50508K13401l43146o49015B42369N88445O05518
18434A436332P1643o02843k52714K74601j06286C81361A1554K25996O81843R59604
18424A878997p8244n17401D35592c30728Q085g8355E20302m2749b22706o9019
18414b91725a34987H04913P84115K09246N00689K28909r88583B42209F7860P20912
18404G88772O32365J69259K30688J94474n26971C00206a126139j487461K1391
18395b592209N00954L85261h11291L15680n67675q73367o46398K67121O07557
18386a708373f75545B47150a22965r18040l47052O53857C5024J173298Q08499
18377B016821N77543j87055k72905m75970B54819L76109Q28351J29183m86363
18368A102099j73602K89711n89406k72443h0936l65775q74013j078266l56486
18359b755476J07926R96804b08710I81207k30924b71497q15484L1115j67064p6314
18349a299244M07154K00153j35782K84368B39229Q08153j92418C00487r8650b10358
18338a256392M37600j4093j75131K63754B34259M30133l02228Q8772P1930R2488
18328F15354k17681a45569m28397b22449k45940n61160m65168O20089A10670P36523
18318H47193J063472P19212r10406p26374R47635K31224q36683B46030f74938
18308b87011C91031d43288q04169K35506b58121A51856c30445l54809K86216j26547
18298e25585a26869G64335L51089l03406r64r0762j696J87820K28426B86492a6364
18286E79219J4856B82056P8719p3828a026758p97774J71925M03651N44399a18014
18275a011l70876n07039P7667j34209J58917R6965b16926H03576M82966l69604
18265I16938l094O67054L2217C59995e67594h5694C07748f0002A01389J59830
18255B61219g0558p6543q7963n34877j49692d11978o8460p43547p99123P19107
18245a304001C79335M50892k33642M6134K78194b54107j262329j33771Q8210k73326
18235a835323R9863J05155P43390F41376N32963j24820J85737K14360j02256L19455
18225A666815j76492k66719L67022j83140m48028l09797c25036l91567j33326
18216h49929o5316m78165n21460J93402k63705m82464Q13517f99638n00776l04649
18206a505063J52028J21368R0115N31914B70736N43324J23161k49852q6013f2855
18195g06414q2418J84912o4679c00652e429F78042J63333l52578a62628j458156
18185a620784p79664j88612M78299M92370N62103A04046R04957l2537B59323a054486
18174b106964R9657P07844f45485f9350I46110K15609D72033b91918q2822A31355
18163C05829d57056p9469M4552K13515A206206O35468l78439n60390A60030J58327
18153C18357K58480p5186N81379P4473J68955N44581k69146o54951m72430I5432
18142i08613m48755c46325E70269j7489r5062B10518e48058p77408K67940M71386
18132e86140K47131B15732Q36202m63907b54294k13402m33427j68368J53922d43130
18121a21212k71277R8557o84469k70611P3258M25230P4358a78355d3133l98806
18111d41939m28866K08338a91430j37692B68397L7456A50130h9181l92143h2470
18100F13289J74247I4181g44652n29567n70178O11938K42280P7787A55518a84778
18089c83753A07430M6430Q13671J051218q46502Q2030J369869N54615J99586m62426
18079B915921A320944e4101m48447p70427r90807m5894Q99752f41690j95363j04525
18069i41578k19454m39748j44429O54122A1459J109277l30837e2509p54921l40505
18059a147935J79930K87800k71785j49599K44809A57076R91131m21507B7668i12935
18048a709402n39983M20996N14245K84456j74091j82352j71721m93732r63922
18039c015506m78990R34753a245238O21193E9965e1149k50967q22946j537453
18030b662515K17944J205991b86967E68125K15858A96327L26877N34612Q5589
18021A143405l00818j60512c72156m62493J70576n9048a61961E58700j89127L86722
18011G56295N63499l82838B36955a334I54565O04624j80896C06250i16483l12204
18001a228687p9837j532K84110d80609k61416r7599j80861J16126l36378p35478
17991a976215J90303Q92752M39790B86439K04697A31006g43874p4208a06341j84105
17981b90446g9309A170345K57781m36044m29732b32996l24863a64861F73764M31398
17971A105162J176067K40187l53789n11913E34111a88194K1398F69789Q25178
17962A494967l70659L06187J100612j85505I76617m52034l5011k36007L08024
17953E61589c8054q76661b57898D13215o313A47555P8539L83686j5475f2074A67341
17941G70405Q4807j49872m1922l10258b74854k55548J17632k46061n83144f04689
17930h46269n48095b52810H57204K93235E70633a55866q3913b7971o7748m218
17920i9937C82732L4649j14411A11109e8609B20234L49362L02853J35256m74294
17910E33411j34745O35384o6799a65486o944B44988J72655J75963k16321P3240
17900D50525K69291C22589J05259J66977L88528N99946p1378D05902f17402r51925
17890a569327j70516j99959j73755L33537N19544d06748B04075b4148m00758L5212
17880c89694B25055a30441j29547k73919J7150a56272B05053g6818l33839a68456
17869F53385Q9085q1724J43674A57864c7398B08224K50014A25323a40892C57248
17858D54522a56987L4891D98351N11128L73074p4306m08516C09272B7039c46434
17847f74912l39523d48678K15537q0477q9896k23138K01095r8231J19616B85909
17836A275551K13712n12422B15384j6635M28662N23075N09400K17840k53737o14604
17826A009385m13929O98343L00074o62246a89162r75019O0003K78237J08193j48766
17816h66514J43737j40425o17829l27136M77425O23773A2572J12669e3063C52618
17805F48820P75900N43557k42927q43227a52916k80103b10927b7987A01924i7210
17794f58409j45535P6577F9063a82990j434278j169478l76729N85287P77813N51304
17784a249071N20162a79609C46063K45897a946q68173r27476p42659l47955J050148
17774a838061c15732A83225b33762j98169n16457r98742L03321k21970Q29806
17765a035973E35526J012758q7274l18848L61443l93534b45956j329310m33822
17756b009088N71740J33869J63867c87246C73598P56165M11212n1016p11433c4943
17745c68299n99731j08643L14345n92765q07085J19078P74237a58775E1872e70678
17734a406153O24812K63798r64043p52935p8711j46109K22493J41776N93299M65801
17724a035972o9926K63617k47884l97881l5779p73105j72262K71463l20033k98803
17714b816565k91383k81127M12189R90651m60929k19415O40264K2117l31207K20577
17704b114828Q59604b32783C36786K54857J25870J28367P20099N07308r17118
17695A156169i1888q01128k4214J87529q21955l29798K73553q284M59372b43193
17684h397k88830o8098j45311r50986m13731R7978M96365e62794g2986j09346
17674a82332k75257q08041l24658P860L27260g5448G38364A29338C1530c54863
17663d47143k76475M6240m35040q32627j14082n2599Q21209M00024m13978O10035
17653f94436L17057l21725o73029l5891O58165E2729O62312h9275j340927R4492
17643a335710O52087A65794M11378B40208m6310K0518M62099L68890l82916c03804
17632a050565m01754K59154a74009A14603N43877M19316E23014B15436L85152
17623F00588P29858M46602P10801K72475q1686l98985j084886n81536j76278M36948
17613H73901k5938D00216j60296a55680l45452J57786h0622B09291a41373n74447
17603g15820k22000C6735J93367b25412j92334J62991E76546L66125m04286J049
17593E39434O11138J14231p0655l13106J67685P7995j0797l64783m0413K89053
17583I99782J42707C70743a59900o8541m37682j019804j41623m9656R2230L7877
17573a747099K92144J78316L9542k19146m80262k5450M3713J11592k15380l47794
17563b369824M58629J04836L48281b33694H77750M19980J87769F60748A41497
17553G34743L11573j84487k79952b19160n20010l79560p81870o89858n1030L56511
17543b284977M99364P84103d47445f1608k42832k59851K57400B06121N57363B42971
17532f30512o69224J52399M65984K54525k58911p7051E61508J398359O54586o3490
17522B550963l09310k72668I02579H1404b87407p70482n49198O53120L24155L01238
17512c28574H0744K5600P4959J15492K73128g1543l17284L0643l35261j344165
17502b037610N888Q20926M39394K36789l0068p50737J95039K97284L72975B82747
17491C19931F7470K71065J34524K58981M42511L61460j58934o72358j97082j497
17481E06140h29178j180515P30913J77140k54343p7674O39753J26450o43593o10787
17471a921834l3542M51903K78725d60406A59205E9799b13309m77925k95248q05755
17461a792237k16193i31745a08259J7468j65554j57218k49669l00650K55808F1744
17450B73205F144M38642O17312l0633M02828M08220L30216k95417G25542a47512
17439a514149m68501L70008q4170J12181e75864H9736J71274K78211a41574q66510
17429a008084M30470J7234G8851O71186N93595l82021M247K08214J82160k46929
17419A109303k71998A56995g41533n3437c814A23046d15229l58987c39594G30473
17408A688620Q49608j05797n56686J2249G77701c8781C88545M63668D09901b71384
17397d31315q3487B99295N8086j49027N48209O46223r5515R4642F59237H11g6277
17385d10727o8073R5289F99298O01992J87837k93378k97194k21875A45089d34792
17374a77693a6690A39937a02958B76573o8575D1807a99728l7464P7264C80213
17363A095574n47629f25775k29433c35851g5041o58038j89092d16578C3777b08086
17352g22219j017852p30723M01022O94709d26981E15976G4049h92906M25429D09671
17341A237616l60396c40648k60546A69269P89282K36733M55223N25687L45076
17332B521270l29106p44135E13447k7987J39126J07851J150737R59282k51840
17323B590616n49592p29940A58955Q1279L84306M36685Q74246L27644k28668k86589
17313A747858p02739m02626D6112i51545j024052j27590N7215M163O5501l91030
17303b367338k52817Q06405f82889k71290j58355Q3083j488853j091793Q8264
17294c521833N46825J325012L92563n40654M9101J8314M49767e50057C2762L21612
17284C54374R1501J050875J97945D91607a081625m28104f23296J70275l46061
17275g99082l3420K6895r28454n2206h17234L63333J8925J78155l18004q9639
17265f64464B15455c9368r70175o32364k33751L22800a47002A024550L23621E98363
17254G48421j33285a85343j23750a00875k4j05375j586339j029015O27149R08281
17244a286198K59535l42643K0329M45088b21227f3077A38926M24379l7788b16308
17233d73458J65410k66006n43688K17109n6496o3954o1888L29509c68091l42949
17223g11040l5081J16197K45978J18845m97544b36286G6533g40482j75521a51207
17212C48675K75179k5631K98590L74486C38927f20123k87138p96948j368485k34345
17202c307039a586490A18970f9764q78703k33667J70675m10936K1059d27958C53848
17191b35274r87638P0065M18970k41803M9838F51487N48445j09415m14356k12049
17181D64112N03640R17946k50552B50852f63693m01550J17686d35842E8349d91032
17170f88461M2136p8085n5252j12289k97107j82005L65004q9355L57214h1187
17159a78743p1701g0284E3046a68413A09650O26406l8332l35353j79295a5777
17148g09569K60409l29221j02193L40851r634a29300B66736J37220N0909K23397
17138F78262l06924f53218j081034k08095Q73902B0639J075510k18469c328B32969
17127H85373O26195j47372k921n54050k25400K38276L23734j13681l02473k33988
17117D93693d4908n7751n27463k82784J59917K66532D09865O52091k85035K75000
17107A051921L10021P1491n83155n265K20827N81178J44265m00120m21450l04024
17097F65689C04238K50786O2161J8758B21861b01635B30297K58983j81579N13839
17087H21540K3630N9436B84366e10257m30746P4228K56625l52807l21545d69675
17076d8755F68339J68721C805h51082L68023C27795R3488B05442i6410D1534J80673
17065B22207h7245G1106N7379a67596k26190n19222l87638k5826N31111A06302
17054I88733N85800m0136p2390O69973L55501l04423p70169C16946c29309J50869
17044a78440C84666L0913c77139J65299I43896L48523J04060m31261c1965m32159
17034d64124j76578k76087J60474a64606E52901j94154J50805L89898k64270j99840
17024D35340j03618a8181R93f433A19562O52625J305179Q91964K87140o2074l68940
17013B825456j299683n22669j58171k32295L09906k41230B45399c490A79730a31110
17002a18790G66812J555826l92050F02199b44391j06810l33397n69881o346L80443
16992h80382p8947j14413b84103D30494J4905N08543O49432m79790j51877C49627
16981c57447A51561O09927m8947O8264K8592n086J67690k08951L35331m74568
16971F23813k90004p9611I3589K46645a02173n38263a44300B42044n4179a37810
16960c8613k184H36610N88065O5169l19115k65928j59286L35306E13799a04551
16949C03546R69778O99538J0357O43822j23640m94376o64868F65971k82465J00076
16939D83582K71647j80867P31612M64614p64326C49648j41740i8464r50846N0012
16929i99298M88968A65780J031794O27895o1944o02168C78028d29808k60017Q5354
16919f04471j39667n44060o78365P9686J53963N1780K08842r8191J32741K14435
16909a223307n66933n91813O1270o470J29288e53318G88947K05363l66132A7892
16898a039936q54851P67352M58112p81145m66111j56308N65753e18862B49455
16888B46337a81343m07491m09884J86229n6231L20146K26603q04363k94162L33432
16878a087064c21480l41435Q7181A6030Q82278L22270j72869n7152l66238a79148
16867h63440b74157D3064a47632B81352P86403N03862J27515O36386K17707j78631
16857B374594m92832n71585B07150a29495j63213J26817M6207G86166M61183l26589
16847I20760D21172a89458l23263a65221C91525N95752P8426K25859K08025m50080
16837A049507n23407J89690K05685K89307C73295i77868q86209O09664N65527
16828f88886K7854p23314o96477m1395j75L96925O87059j33523K20062K86509
16818f65361i9901I5981f66704a82708A362685K01554E24027g59011o633a27737
16807C11549M32856p2500C00895b26590j45127E2159Q15614J68930l0397C20912
16796d78387R5121C03866a36474O5892B8896i332k1246o7334C89047J308800P87243
16785B485090J66075n36717j021359C60551A34834J13507a69054o65899k26155
16776a061108j07702d02460J00969o05250K371g4750D4123f09406m95819K40625
16766h64600b05802D71007Q99348O65894p77966o19706N42677M72645m77039l03724
16756H73136P4923j82700o9458j6034B73327e52021a41976C16124j51478a68105
16745e96149q3699k73923L07182a14904C07913J34877j76428g42776m96020d2156
16734A057636m54750O463O35343M25957m01413K18722L49206L7646H13101A39326
16723C99699K06770N55535k60016O0772k07316M1804R8614A10206a91222B41651
16712b57263k57294G2603P21463M65503L72781O7048H08918d31718m38529L0245
16702h40002q7643c46782D01966O40979Q32782J46177p2305m08796o01166k66888
16692F72749j80347F460d17288l80208K00596m09625n05286P27679L43319j91275
16682f32088n22357k43914f74155D05429A66994C0787N78751J92865l22894j83423
16672B96086L71738a07425j94805F00668k28111h37565j48791L01481O2199J74516
16662d48160l3588k11021b39472E96264L10091l35077a0513o30089a83329E24095
16651F41573J066462P29443r82843b9734o4187n87298m08046J252o5231L52869
16641h00375c75625a74983A27184N85772M10884j92352m09185L7344a67299r46609
16631a113908k84850L38457k15486M05154L88184B94587J4275b23949q0789a31825
16620A12166J28017J55198m5462d19643o72363p96265j055120M36564P80064O63643
16610a063120l77836p51953O91171N21167K87510c23051A07774O17987N5148L46434
16600A127343L03181k55538j91172P4747k8120k14834l40991m7706h6726n39617
16590f26343l74473L90748A57967N45505M95995l41635e67594m63189J14426L51119
16580e65238K57617q30465o90929K17504L58244j51640n91613o29387N52671b70087
16569H95858K6246J7307R40772Q60836o08363H69557m26104K99509B70791i7827
16558h40300n00583O05641H55203O33407D92170i02675K38215D6577Q41921N00886
16548A389384O27270k50196m94134j44894J3234l52269p4841Q15620K39999K06878
16538A976051j01433n34426n51189l03275L15912N62493j21608j03211K75182
16529A414496F30575a94078C78767M31080a54185k66287n88903j67102a37255
16519F84240J54368J40614j47624l35202K82748M126K21678L04720p3721j21102
16509A114845j24493a06041q79581M77460D26444K08833A92241g64837l46052
16500a110889b94955I33658J734914L45984j138881F00435p4142Q58540Q72055
16491B256888o19595C36535h89321o44789L17002a40353F76943k65307J4445L12532
16481G38613L90297P3901A50068o603a57164j302439j12789P63548c54560J26899
16471b27661r14724m91497K92701q464M36114A85426N68121B14139J42684L49357
16461G06180L73473K33196O75786M59754l76116n45154m91889j90789o0800A39620
16450b46687a01665E14435L21152P6843j54685l23844e03775r41291q70233n11443
16440b826742m3164K67397P45354g11706B10762L31b50082o19816c35309D48689
16429A143736L3617n86497k7314M25150l1280m47859a66550j159734n00616j4189
16419a841089k01572O27228O84409b12299E05771n0025R5207O25408K41112L01043
16409A718516N30170q04296C32217A61392J08270K1228O86123K97963m22807k32244
16399F19925A37956K63932O2656B3892d57650g3614o1733k51902o86143J15415
16389i57977K06967k02340p76129Q36574f2768I43913J075576k20753D18524i38691
16378a206548M69167J61872j34329K66870F69746j50192d65687j24417M8508J8813
16368e22783j5122l85280o11598j4093J71030l59411K15364A23714P86286O32270
16358A542270M13746p59899j61688P31523K05755O1834L41115K73525n21602m97251
16348A629328n22026a72402j293836j48758g93391F8987h483q20765l80037J57924
16338a051361K00793a74314D16637M28539Q37856k55181o67324r8432J49646J79322
16328I91063n1900J3998k45095j13222a09160l46335c0967H77396P61093j05647
16318A532842G54919j36849A87759h39245j107975o52517k7505P84380h71584
16308e0652F89672L20605R9353J49126n27406a50720l62340K21451A43984d2500
16297H4903L31759P1830K93888J44782J32948B80005h0163G51487P96157M97497
16287B045141k58502E22062c4809H63141L81572O2972j51615o351j990j80656
16277I67073K40753N21233l01818n51415a16168j243503l76791J04305K54364
16268a377793k97305o0955Q35951h4435l75008k75463l17073c44329F29142j51655
16258D77487D2209J90210L17140J15075e79386j587547K69310N22531J93535e84108
16247f00979p46872k86086N76858M46741J46359g6087E30479M77638j42565B69481
16236b89984q22444M91168b66073m46828l23720r9782A09552J875960j32780B9344
16225e33254j10738j64902K34486A94695L35178J15665J027453Q84806K8941P8254
16215B664992K38971k2965q42093D42136g99091b54719E43073k8932j4974J66307
16205F65474P22211K420C16226c73518O5492D67123O92157j77243A17159h27561
16194a534725l7525d71151H52010J83420A97701d85975m65534r830m04281q06672
16184b172292P97350N33584b9020C44617D6582h199C44030M1750j64894Q4601
16174C05487L26784M96406K92635K38572P3604L11824m47784G40981O34171P38061
16164B113213p00236a22432n02049J01322p6195j09351c42210A23407J3907B6714
16153F457M50244L046K39790P1368A09531b12496C79663j19097c63312o06022
16143i69334j26966d93167B78483O60176L31440m57314l87898N20704q3424B24013
16132H89512P44492k36579n09023k00178J10406M95402R3170o59356b92379n8841
16122c51220G684L30409J4336L78534O62271r5326C68801d88316k50315c57274
16111A32244L67291M82848l58742B965b3885n9466D57100j52813b8774B62078
16100A94965i858B40489M16171J69182D04042J78298M34654k17885a65531m67027
16090f32558K71278a38396A15288d20148J8834a54033m00849b2808m56367r73132
16080a452307K18394b71685A089309R35237G73977a10739F63323K088653L73911
16071C125887j209208p84002l66479A33758f8340k08274n55391J77441J69829
16062d84735n17519m23466L4173L22722c34892A080132M70793M6225R2591o32699
16052A057042L29261l21990d91474p74249K87705J57217A06736N57247B49932
16042c66046a62060g9098m93409b59335E56586N33600k08361B41483C5340P1904
16032A07244K87733M71241n6466l38175L83043Q0150O2881C66733a01185q25548
16022i26733o05038Q6762N46798b50330j0432C80474M89914j3570j05308j37840
16012F13670N03046L33974l79535M42241M21675p60518m30292B6036d87814J80036
16002c07778l81925l10832l69108k33189m308M65660a50073F27260R35065J64512
15992A726837m35044R8610k09761D77712k22444a82786j08803C1604N62459k66971
15982C27092g67467j525542J9372O33241j97204K40545g41154P8725r98472j004283
15972b665184k87509Q67261O60381l2198l31439O3037L21350M13401J08691J67252
15962g14957D32196Q5973c21754l40353n34249p13871K99902K99302J88342c18241
15951A41889L30803P7938R3695A81944f43074b00634A49544B9801f49728K7840
15941f21888D0152N93337K72534k19945l41213H7417h17304j011821K19044j6543
15931a626624p9493J99411k04564o7401Q08209C76143Q66595n2090E15380d54122
15920h49922L0329k3146M863k31896n6437r12k39741l64978Q23145K50320o90811
15909a349186f29000G71790n9445c11178A34759M67323a56383M4689r3227o94693
15899h99614o10445J2675M0721f06851B58588m5868d75912j99142q24214o78569
15889b177837J89556J60714l98787M68632f68129O3757J78118i7180B30910D7479
15878A96832n423K04445A01141l4667b27154j24996m5936J77356A17620b37734
15867f48497k94888l81944m49300r13884O52156P22180M06180L1462j7317M14274
15857d79578D4456Q53828M04150m02993k47171j06639j42587I9937i4050C88233
15846A075739N02705K47645q5677q2550p05497l93559k24294A37097d09176q72130
15836a281306N35601b16751A44456a254E87376M93219m35907N03093P72837J31134
15826B051752m35371k69319J19664l08628B43718h94836j64779L0245k94172N43054
15816g80488f5749A22304c71286l06656l64855k424c94546B13778L74581k86233
15806C02126M64469L56406E48828B4756E297K71167b35328m77779B23255P9329
15796C02584a076697K09618B42853L92773k57470K75857k13541M66903O90466
15787A597841K23640n00080l20246B95303a53479G4672L25288j089I8344c20242
15776e71785k71762M03699B08331b88428J24346D21787K12362E1283i5211F4918
15765B58964J10626j49191Q37507Q29370O98040j80244A046621B91385J70396
15756D61781P44229P36243j19738B62553a173840k69558J18891k94986N26441
15747a093052A044J257393j01698H6259b16680k48224n95212l42597N14254A80521
15736D95345g3941p10806j30749A10254J336605L30670K24599L3232n71236K30137
15726A694261P65888L58644k99301m31955j033800m41920O9794r1321a27313A14141
15715I30719J63448C15984M3504K60395B76447n1963a00549p84097k47997N13353
15705f19290C03952M7267e2348o08147O9399b45438p5085J00846A8945N71773
15695E90718A88970h06751l62928J18198L76448E57441J107246J77833k7045q8871
15685A726604m55614f5261q49122m06219R5020b56857J3640l61658K8912j2980
15675e88943n32241m64976M52555C35910J237678P81539M59339L46375m72739
15666B688102A128510a55841n32805m590o08482k85836L4021g30868B37498J14575
15656C52073c1112j348794j483886R0563O65397J8009N87628L57263j76304J70741
15646a150495J58878j95948o56823g65779D07777a8467n97147k69361d41878H45303
15635A953888K5878p81482L61441N52086n99794j10366K84149O2202m74106o9737
15625A204159l93753k69015A88675a11924m0543j12155D72784M66602k51256f5603
15614f39748n97572m54312J4566N12674N80283k15817n20798o46843m69993m21905
15604b859465J021067f35740J01450o2712J94851C45762M37896k99024B05679
15594B29764d3085n39712o2561l57221j53055J09685J05375L14328A41896L14140
15584D56036A1707e89271l59307j83916K3852K37343h6339C86144K71884J043320
15574A701348J441177K52465A524044b94493o10014K03462K67845J91885N6424
15565a84891D90732j72158M24411M30115O59521k59090F70602B99248c94960k95423
15555f90383j04375j69670j18643J88323b006I97031C16816g44692k47857d88853
15544c40240j42706a25949C82385p6892O47196J141128J38002I37481e7720l60981
15534d18701k70717J96292k68495n31046m54578N66419L77296k22034M11316b40189
15523h46094k14471n56012l82499Q85492d42657a50625A63492K04493E2075b50769
15512a008863l34333l28412J16121c39807A072822J090393K82629J43931M60623
15503C050398l68096j259123l57912C51231g6298G15536J86543j85480o439j65708
15493E44452e53893n31111a05414E78136k169N3169B93934d25700o11087J65983
15483h70804L42539K43031j98535p05420p41577p6254N81981N94093b84186L6436
15473b47750n28192j26209J36659P0009K16961b08737B45639Q34686L82913n08267
15463I54971e41453m23913J80890c49810H34796L81991m91427J80789J51293P25836
15453A783278N95581k0679q8899L57906m4420p23843l89833G11081B25561K929
15443B28490Q27299N27641k34931n95051C67773d0080k05915j75915m98526l87304
15433a307740e49268A084690M18416m25657Q3035M29976m56694C49307g69754
15423b093863l43415K27710k7100J81644l1347K52635P32551K35158k28387k6052
15413a120466M37582H9198L82056j03583L23782L63218n03128j42206M48864k01158
15403F57043d83399p1956I6823c91509q72447k11149j16547N08689e17107k70095
15393g87202m90796L45049i4124l12876k16718j94101R6558c58476j30849J96479
15383b92846Q894i6603l01086l3273G91612M60335J16680n52992o2683L59003
15373A111955m40361f2879j53476C43696K85617l0953M2139A86471f80209m56635
15363a136844c93466C27286J50912B30810p5750M50483M11600J067838n0878l19590
15353A714513L66117L81768j61780I66174e9211l83970k9033i3953A275890K32428
15343A508318p52185E7867a021821j162195l03853J61597K18620O61905d53470
15333E79477B61248a198776k7429K80612M64361a25838k22080k00138K44004A41858
15322C78185J58375P0268r1051k06282b0597l93364a21996B80868J69922M65821
15312I16611Q94140N27138m39636r05054m54007k45489J28692C8016a92570j03337
15302b95907a43236D92288L92321a89496j229533M01840A18653P03012M75919
15293A297584J55642E40213a090459r68937N4555P65612M17936K25956K85925
15284c09412C19111M84656J051670J35408q24276J75913K3441k62963B58857b64076
15273d06208k74321n44540M14309b338A119872J039851L13758q91526J34229M98712
15263B214896k72204J23217L79973l3025Q9519k92505p81894E30327d07833l54889
15253g62722l08436n99459g44006C14963K54543K4519N35176K46641j6729O40380
15243A999493R02341M77847m30652j102749o17724m13665C47701c6182D4411a31806
15232E0793f17759p62857L0517f42765J19040j062772n03708q4974L43691h49287
15221d71333a15826C28450K86790A16775d96563A12976J441417N99469m47603
15212A706259j24308N4660o54749B65365h6731l34209A26568J214971N5580F97592
15201i783j70810C4589K55504J09379A68256J08996j577l1799J30957K85039j07101
15190E52771H4902b7286E31666M54911B31512g56534p31607R2099N01982b51813
15179d29958J42909a21627j16071m05547k96528b32321I80848k85982q4479O86718
15169A297105Q0350k96120J1107l78977B62584n3528M13377N93911k76466k87917
15159F51961D6330h77677p09405k52669J00391j49751j88006p6910Q67293N3862
15149a232872q66089L47369o281m53997K86900O78203a48183D46486r3813a16281
15138i04145j88933d93053e8060n30092m43855L88648a52502N5267E98863M44922
15128A043785K3098O89586K67345p41636m09765k18119j00015B39968J54943N12455
15118I07366L37415M84634l7408G65803e7893n73769l39732J22143b35135I76793
15107A730257N31159k47446p83924C95480J96605K74716b15136o06259O3559j09677
15097h67513j83448l04765L06916c60186a21827C41458L49947C20827K07445K25048
15087G53320N56814m04587e17634j283306M10381d98351C72719O87167r4005B72170
15076b32477o07865b89773B61557J39541d98793m31235J1678n26033K55114d29299
15065D40667M87437O63358o39400A13023k6431G548b99358a6256H67699J04701
15055I72400B30714c16033k5493a65374l49682m29686c13724A87089N89092P0648
15045H46829E5082q598J70222I8166K30841L62981N66202J86058m12282r948m62570
15034E59448B6126d11596n47015r03274n44747N49584R03943c94164G78707L46891
15024A125598l27453C92015P6833L45269J62577B75324r3552L03251O87768J51529
15014A324320n69684j1683K80885R9828m85314B82638J762a04320n77150b50031
15003B11254b94150j49301B23785L04845j68090O48140J025876L50113l87546
14994A997123o94468m22419a23500j17261p18456o62785L36020e21251E28464
14984G72851a47883p74579m6250p5046K70448a23109l93097j36803b54571A21284
14973C46183b62379l83821K74910A57764M71600A00905d77296O3446h5483k9566
14963a15049m08009l50541P3789N4523r6570J54324E56730P44700k6715B59562
14952d92605a44605C54924M51716l2561A77447K0606q5584K23406P2337e3296
14941C55385R10723O5005k19266L23623J10070l78785l37650L6936K96034r6677
14931A065398r6050N23383m03825C09523j4201b81015r99145L71721A42554O36230
14921G78784L55426M67699J51883j10367m95551b01803p13564l79366o38888l51672
14911b285293N61481h00916a66358F23023M2959B8598d06264o80662p91880l83943
14901b262749K9754R34052a87865B71735j12742a002600q54100P10605N7102J00430
14891i88563k02775p16887p52495M38830e28898f4467o03483k27954L97615K38063
14881b60226p2989j64108k75455k04631A49754J341510K96752N31951j9281n30626
14871A770060m61835k24564m26569a09522o94263J91112J53938p31959m27702
14862a618396g61233e2559G11751K39737l04369e68061r06478f48564C07154H3849
14851g59759j69192o5481b10278D49278M97759B55075i0602C77867q484j82497
14841A86886L11654c6490j307039J54174a90186C99217A31579h45968l01820M77628
14831f70160L20734j91361J02044C51659O81934C65792h34923n93632m3362L49298
14821a122619M55235K20338A00417O12781C11983g98695l53537c62367m99464
14812h61831j012975M42750N56018j37284K98488M1985J88625J47292J04039h5395
14801g55586n74850k45453j67744L82597e96589b26651P1756l33845n30254K89834
14791g29160K54956J70064E73133J70505A99963d85554n00841d05194D13463Q6959
14781E00422j58526F1554M69705P69792j64757m85507j55862c15673j219327q74994
14771b409994K9901q163N38759j58196m42134R33477L00742L60151E51181R58237
14761A509418k10763m90240K00611P7324k34444J44244C27602c32138l02071l21266
14751i55475R8095h9397H49064l50650b92740k54407j00134j7533n92951P3042
14741a184723G6322J82194g77572m78581K78788J01121j17010K48214K94062B4695
14730D79808h5895m27265a67050j97516q30917k19909j08930k53285K64752Q4980
14720a427875J80098j0169k5681N99687C98261O63530C76578a101704k99844b79282
14709B44203K15336N90686J10961k33248m07729c23422j178609n73943M68084
14700a607890d86270B69541c50109m36812j387384j755315l41784O55616M13613
14691c202175J011317f90431f1926A39254d4926H3500J99044M80506J14905A6146
14680e2995E92188L15233m4802j10369R9340O39042l8073n98672l88159d81985
14669d77778F05095J95130l39261f7436o55414J16673A57452Q80396D01790a00032
14658b09185m13463m729K29611B36282a48234l51940k11614j31970j99243c52434
14647E80771N94320J78601o67644A6447b62683m51829O0060G19485P91290O44014
14637B154789M04723J1992L68244N58957n95912J40881l46997p33500l76599j20629
14627A465949A57427a350886m94988K50087P32332b47729g1235A79893c76288
14617f40591b54534J06356D46846K80522k66684f1185o66300m1456M7464k83069
14607a004546n54708l12166O50685l4672N95857C78436P46245m39699J05908N62680
14597A353570k51546c02389r30972k42981O00109a89190k41939j391584l62865
14588b185578n24719m77327J74589J213681e86264a59274k87362k70989q0818
14579g98443j62091K3797e1553A096126O99421N99045k13795o35083j4648R717
14569A540783K61971M78547J31664M23312L19445l36677j121199m25648N39032
14560A811230K99065m91149k73746o69243a4621k22117l01036b55733A48097N35411
14550F83508K31631K3770R6370N49246Q199D89995j25241j7612b65254p74833
14540a040087j55682q11154p32846L79027R99620e76864c7137F68170P38417J90121
14530A596708L16756J49899m33719o45942k87218F7143g38249q17500K12847J7601
14520a325301p07315K18252c28187H35903e1903r97850L51682c39945j37290k66263
14510g43498J61871c025d89o81297k07183c3066m57627k50631a89900k83085j00779
14499e73764C29102J21707j53410G509J85491P56605K34237l00951K16895K72765
14489A372551k0372k87155L04873l08922c43885n90196R9373C18306J241833L61960
14479A922099J7268o32284k65612m74389c60966l22343r7821k12981J78166k94040
14469a109985p4122J85424L52625k4962J06037J59937J98273o39230J68532J20561
14459e56910m03760p92914m4054K51931j46239l9410J91056M78824A42686J071356
14449A214042J19358m42235m23500N92935J01899k02458l47453c50416l03719
14440f54135M8970J88361H3780L45576j31570m9608N02997M00968J24861j27856
14430A149148m68014F3946K76071M08117O29186p7025F44903J22909l63443b41104
14419E0825M73929H5518e73816k1074a29802C52269P9191c50945k42353H3244
14408G61222J98264k78522A48416b7296C55276P38955N18038j13608o01599k1458
14398H75604k97482B28925a55553q4947j27621j56864b17178A168198J204981
14389B373179q20505n80991m6090c51356m09207a84086l44618o02025e43824c7674
14378A34502a084799l58307J89901R2850N44612B68585L0421l6371P66507M25762
14368A454904F11283a19300m2181d4479l3354m24680n95986l04558k93018m73516
14358b169591o5566m1541O24558O41483j27407M7966j77692r19233r34016k14652
14348c335691N26578J17590m7568K45672J048150g10079l62214o56133J14085
14339a614341L89982c96279H76909L70654D86035d72488j209054n33808L53223
14330a862127M41145K76108K79653F28576J676386K89788o2291o08706E33572
14320B9395R44324J007819M26193O23549m29080j112242E16006f01046j047187
14311a648233N36906b91504R9638d1980H28496J917213L97221o15970p49331D04998
14300e82342R4702J48175q3645g4698B11040f99930r91109O80734d34949L4618
14290d00331Q6413K9233l5101J45467E63985K05398B79971M30442J040542J52322
14280A903277M15m45630k02726p7775N39591m8528m72297m11797A56600a8856
14269a4373l63408j81038e4756l86515m95136j47692K39392J26991l63262j4046
14259a095024J84077M14809k22823j37383K72292o10722p11351j32489n4967L99137
14249a694444P52007A97630P14378m12510c79234L5243a32037n04907l63558M7962
14239i52540J06555m42399n77749l783n1503N44828d26985J78471J12928F33333
14228E34038k64104J63736A95f71460b29575j75887o26315o96327M83638c95556
14217f23781p67062K73787J69684a73434F7616J42049O83701J069594j76962l90533
14207A395465j43759E44645j30341L98614P00448l0810k68305N83209m4798k75683
14197A476979F63256j89399L72905L45370R425E1019f23232a24031A061523l42195
14187G19328A51777b19547j059012l2976A254J448622j18885k01702K00153K98055
14177A627497K10845k78807n72357C53913j17725c76502k87944o5623N4035q229
14167f84263l5062n12749m01974K32986f70822L28388q53689n13856J58895K14831
14157a336253d91927a36582j73437i8215b6030j76523j007854k35015K48508d54183
14146I80140O64396l19074K8317L96358O7947m70802m54684j05448k18416B41293
14135a40621n11076P8079K63900B00783O66560b27181j382397P89362a3200p170
14125b0370E600K42272O95637M85646m82567e33794j187201L35654j929j019964
14115b407234m49427N99043N69498N62399c74960J24654n64950R0781a65904A64936
14104E8049b75488a07289r7608E86455J0199g11767j034824o25775K10960O46761
14094a514645f80635j4533l73730o64685M02875N52435j04832n6343K78378K24203
14084d36867f4475D43845A98731h59802m31460K40134K42623m174l68361K74099
14074i06941L31349q34715j48857M53140A28002J089916j16522J87386J59525
14065A448307D11278b40304j53589c0939m3313j07681m39668c03278F33863J00864
14055G34727i9401l22603a85619F29982P68061K07944p28646l83234H7602a82550
14044A41008C4630c45323k40067K58627j02217m30727c50900D84946J17930J38953
14034G41829J125250K24737o04727k42064C62747A4281d31174o79008k1777M01224
14024g30735K35548n53618p43660O90839d06379m48770j00752M60943E03617A99797
14013b83687j33732G8261g80j141556p74689M05191f65718k66668k40805L84483
14003g88708a68072A70427B0530d13227P4792E73681m6830A26089O80423N96750
13993A403262j93755P21631q3609k9424M87423J36737o35516G20782j89040N93746
13983A125488L17264m2166o22827B95564b46043i5522j49157l97501l30926j04061
13973a077167e11958c0918I52008O71358p8290E51532C20M80938J81830j52616
13963E10472b18139l1853a3273H44347Q9814C01704c76009p8847j66085b84490
13952H73219O01700J0728K02235J34444L20627L32994P3293A133537D72054j91202
13942B80852K69916P20363L8080l49391j61312r3179k16107K28781L73812m45063
13932F46752J67592a6826m67832a56096E2082K13193a78864A48567P45782O12053
13922A506402J85496j20336J48809N5101C86318g66650c00908F94462N92759M90144
13912A777365m45165n97975a59083o64585c71643B9385K67176a24959p34643K9494
13902h30108j97923d95791H9009j151L65003N27900C94626C0292J00545J76913
13892C07750N47381O6175C46701d45494j48420K2255c8116D17316i6237m80229
13882e76466l22104k10017c20189C89881L96869q4021j68785j39334a04217k0345
13872a24562k16174j15631n89014l7154b07043G29027J57594j15210N27013j62024
13862A136400a61965j283585m00108N58013B2560K33257e11196p05536p32833
13853a949565K59108J63968Q8977M71355K83447K5327A04859j5008h18332m39375
13843a257707g4298H14292C25192a2706C61793M44822k79589j00023p147m9598
13833C70258A79797M662c23667k62122e9137l12879r43202l36900K49545O10519
13823g92054C40753P74617J09264B41681e13349l12180B6487Q23347J27189D4510
13812a001270p00424K22277O27574J4029q56463k30228K72640M67013d72683C09867
13801A096686k56415l19265f34286o24012O19448c03050B04419O42155P22587
13792A569161j71040o00440P5722C27747g39325K32210D31139O85407J74693K681
13782A293920m70613L05401P52423K51480A063151A33051b90820k24095j00272
13773f15187n4486a6872A42021L16299p9380J86011J68190j81456B22730d23491
13762h88305a98336C13111A33106K73329N25170j38450J09488l57215b26852m38809
13752f65661J24958j94454j40538R973P4903j71722n99856j75034J14407d1300
13741A199885j39711m60268k27566G8187f84629m95526m21c71103F6700K9824
13731I6524c55759j049257l94070j63130j05176J12435i40028a05028o84638n48874
13721a338540K06157L74864J54949O6373J82153j1270d1100A145400J472093O30538
13711C248031n12222r46234B70551i59771l84582K75393a1845G68015K68899m40440
13701E96474j94396N16362Q92580J76936m3161p05432i4133r81360L50855D03786
13690C78904A6288e32886j012333n12758O7161K78112m31409Q7081J30987d88714
13679H51647k01709d0857j619694q83748O85O8921j9387a037704A396976N65045
13669A962021r26014d92364n76066e03988K37563n30123n7607b99178l89597r25828
13659a614603p405P45698a62203P8689o15025l96964M86968b82013l40731n80856
13649a203600k9271k96337n51982M41196f52837E43205q6538f66206o13351Q1061
13639a198496e84379b23637j36636J42308l48645j96312J40715K62320G23328
13629A070487n28770M26174Q77215j34838l50047J47357Q70462K28673A121365
13619F76131Q74431P47599M09763j84555o49884k99342K83131n66348o13459d52238
13608a118399P2047d66190M4005j81415J2677K35480q6209j292541L07829c27185
13597d49998l70016J72580b95635k03012j24783J12160c4692p36415n40611K89602
13587a022116e1882D06197L56885j38012l8712a60956m09025A03891N85104J64832
13577H53827C23540b89038K7141l09936n28329r5273c26435a17114o82903n67397
13567a367414J4417d77353f8841C53118Q99027R8253B68052a78035d9449l65682
13557d15131J93493k71411j004456p3405g83896b17050k96252p03589o16551L62541
13547a470901J48034m72166j17213k13180l2970Q99646e90353K69401E3335c67975
13536a319912m248c74713E0651K68493e33601j348474J40750O22880M03007a64381
13525C32974K81214J082373J3541H39965d16401J76085G87762K88545j64680a89191
13514a505975r20671N57261g08491b3433j003j45610n92337m52217k5729l986
13504a244315K81103r1485j21608d26860l32305J15169b56413A30994c74634n60003
13494i34637N1783n92808r0520j60046n00083Q80925c98430d9025A63713J53455
13484C17168N23010M11117k86848C47622G8290c01536j48957O4055A14383K27466
13474C41849K64879M82264M1933q0981k63795L43730Q46243L27990N5291o35115
13464A724288n1688o6213o45366k92932N6742q3614B04481d85406G9957J005639
13454A085596L6425D36011Q3803O61418m12126j10376j31715n6993j69109H2216
13443a10790J248I5500L14448J9769L95571n527l54635A18921n6634K01845J55254
13432D19386A02112c64626m08534J82852N1083j06197j42416K47585J85562O1178
13422b93513A20192M31593k70025h96362l45196a75320C05110A4630N59213J055837
13412A629680L02747j21683G93902a145710j236671n77244o6481N23553J077892
13403a424661N70864b10770D36930E7631a36087e9447l52058j47599J64313q904
13393d03695l41393n82912N89444A46769K48655K74935Q7436J93948D20639A20147
13382c0667E19068Q12115m70192j86630J40482J07853O36942p78799f1848k21115
13372b82963m77877j95467m0233L95724K20312m7744m06955o07565n6825M28496
13362a071097K61813n03279p5572K22358M30527a16701K5922F65247K27027D01522
13351c632j68831E6916O88822B67652d48183j73742b94878j32143A26128L79294
13341E05422L49190J96797A83912h79129J59631a85201A031588P18290j83124
13332A566754o64061M32343J82591C15654i33420k76559l99686j56481J18421
13323a647725k61737J00089L00427L34649a69524D02715J8539g31770r13237O6926
13313a578081J92774N01017K47539l2684B80888O4908g5520q680n87576o33021
13303a304797j27966o78667J7096i26650b01098B07768c38216k85419K35717j21252
13293e09170J44993R4182m39883N2162G7723P01278K62514K68711k1096m31690
13283H57440F763a156949J06119d11109a17561m72743k58594k74087J29466L02155
13273f91364c36611J04573N1352k10770q48993O3760b83817D02682M03181j62276
13263F43587j40136N16163C60014K7964Q78590N12720l81924D74812K5485N13705
13253A014002M0512K33711l2126K33514M6573F88704c53545m10611K89315P4907
13243c99934H884g302o20066l71346c15190G77225R11644l09718K88170L88645
13233B055966r98264c58848n07737L23778N5089j24195a10771A248462J109632
13224B358094K24523l72808q32956F70158L56351j13224b55652r27032M46450
13215g36234g1829D79449N10895J56403k92644A98775O6823J06898b38476l20561
13205e59037J20177A91889M88376K14179m21390A64647K41851c6923C43443M73049
13195H16492K68686M95j468J25664I6253g64281m91088j48186f84668C00791J90552
13184D91343j49934K99563K65762L90932n3072l10938l24028A8795d32144q04122
13174a236266q63669J42330Q21937a20394B16001N6980M74535P24865J78194p21019
13164I29556A98300c00087q9164E51953P36394k62080C84416r3857A5280d96863
13153e83339m81466j095455j6304R45009a25312G67292l52852a4385k00189l7806
13143b52380l0443a01591I01722J030566n5051p39515D8035J6854P34499J48808
13133I48196k54046G0140P2381L6700a71280D06346J323722M94542q1068n24572
13123A618970B57042i31933j264804r09193M06936J171153K14014p60546M73223
13114a601150e6740A75561a098512p09380J39088P49196L65667l82793k73144
13105a209878m07330r2015K79216k29711J73667g25471B31173J271140J026974
13096B529287K02821r64870G96031C56349g5610K4676o9787m09178o2786m28224
13086a020909b42635A053607O37562k91533E79585A68271K31504p3919r9117L46408
13076E73147j50597a25407r23196q17555O16597H8044R2130e87368j494536l78328
13066b460232P58019M85188k35388J85478k4430j59200n57151j30599L45485J25915
13056a666915K36183O57229B71459M78479K79039L63613C03144c22811g0138j33328
13046b03466l77497R4951L1396m29365K17981B62593K73795c4786n70094n48937
13036a153817P6554J38538b38531F1401b2414B1725e11615O595J07797J75304
13026b21919F09003R65235m8966n50210A19116a48854c5295k232j97826p78268
13016a013621j54619b13448F98947P5549k2927C17371b82825k00313a72407A31178
13005F51913K80029m25610l048J015863R44169j21164n60759m14188B52921h24296
12994g86569L53792q8997k02238L8146b60756H5837R2505b18238j66724K2237
12984c62725B29978M06502B26283B8639b17008N9449G9778J34133M81730O52069
12974A347710k80066C24701c38403B72539P68191R49790J57222p19791l02226
12965A125725j47950k79621k0523J22380k26654B43592C9252K61299C1366a20591
12954H85151Q72443m95427l79847k92226L479P76282o5398m78875C20298p4218
12944B46080K1522a17433H0890O0195L43166M92403M16583j88350m91358L51199
12934A064728n24474B37884N30770P55717F08129k75798N75969M45877j45034
12925A209143l4092r7097l3942P564k5484k06728j52929O13343M46188m92701
12915A233265D97454c96239a77449l5805l31747l23217n25274M5016K39012k8942
12905a138406K54197L14114R2878l90578p3275j69051K62732M23253B55128c59827
12894a399569m63574Q9207J56487M62323M97778D2734P8020b075l63874j5200
12884c81149i3456B66794a85067p48143O2518n19127p29088O0534j21906K22704
12874a957575h96246a87341F1382N83474D4024h08293J27585R5042J24588o44015
12864a105093m65138M41316a54138A067969N56098m58171D48976j15899N06851
12855H39928L21087m52535C28359b22736j124291l70341O48715c69208E23760
12845A802273k47789F37436f22204m08616d62589D21462N76192j42879B3608i08093
12834a262330N80805e1955k45687O5823P3748k04578B94298K96109i7943j36445
12824b34388c7392r9871j24694q5780r3625n65955o59976R5308e61956K33028
12814c28928m22905J62557J81767L7189a51428O444k1658E93341K547B21111N78259
12803G99370M98907J6634M3921M4407o55408a94389j202793p8057n21787J66097
12793a830929L60884l59967J13943M92539D7624O48131O355e768j132617n36754
12783a675139N44370H0154J233803l46975e010l44051B21088P30093N27976k85833
12773A193324J84609M44636k0688n00787l83436A20610d64697J20579E71543L9649
12763F11192c8521j26552A51246n6464d92659r6184j7064j41595J08921r942N6149
12752e92374d553A322266Q50728p279p07523K82264q0063j80914E05468m8243
12742D57225M23041P8512k0767m03056q2185a34912l99653a31360C25698b19422
12731e11783a64799k8370C05560O08978B22689f08311b16979h3397m52157p10706
12721a246260j62682e08155D15940L45782J76091k77409o3787N29693j12796B05746
12710B71986G1418e09224l44501m66581p77663K63929L19241K49938K79893a44608
12699G52307K96887K83164K74728J80920G59314A68589d9577l77143j67092b75712
12688G20205R39192m04534E02326k2845A73535i402C69577J01162J25879M51446
12678A048064J19952L32102R11812N07360j200526D43289f49177n76481k19566
12669a445224k54643O9931J40318J52435j66432J04628J96070j38535K4424d51417
12658E02373P46069j28808K03255L58648l2010H12811b45820j173926k39131e69347
12647H16149l09263I6548Q4196a6652k52760J03805C02058q908c33569k14903
12637e48472J33047k46366a00676A61420D0312L56328K52053N78569J38816C88821
12626c8718A96523n6044c84442B15933N71969B75869b36706q0121o5281B98805
12615A398598J31050r949m36303a87251r42758n4418m2779J03969J5318j87755
12605a295674k67197p27500k50710P65137L57814k35786j66069J46809M78871
12596a194305c38047l9483o20033m11513p1849M85553d06643A64602N84210J8495
12586G67307J61283L91323L0114n00700A12469J79644K77402K05032C06714j49587
12576A57127J51560P06804O36928m86726n54860P2720n0070B04586b95792j12654
12566d08446H4345R53598L71244o56094B06947R0167K01997j82916A38957L67981
12556E06938M55202B43577e38401q29562k51120L04582Q918k40841O00049A12750
12545F7498f32153r35477j62746O90901M06761L15744J54108k40895m77402k22573
12535a103732a63351A43650L56825M22863J7663J48320B68734a52998g5000k43319
12525c18319Q3949D12567L73741k57676d32799k3158E9516P25169j21999A62871
12514D82918K9751B39734c12945p12997l00549J8202l58763l49327N15196M98266
12504a002917p7865k81528N66271B86797p4704f05533l92186j7671p26025l03060
12494b044475R10149N28112J28186k84119j31413k54954k83876O1685O10019B88152
12483C77515q2215a22631l01113e8026B12114P96904N19630L81162o33599K72660
12473A548871K63869n47980n05680J71606J41946K55873M24011J62832K48035
12464B163383K325m5335J83175M1533p87848l53883Q37492j76290j05799J82780
12454A941533l82103p18270B09270j00708J002819J007362l74821F5989h63524
12444B37592L98187A42967a02645j77975o7248A77852L25143j57435b21404j82016
12434d03420m16423j66145K05852l49468L43820b36302B23839L92518K42436C49563
12423I2641J058479J13461B64077a111021n19643l106N83334c04319A43163N23136
12413F66299j48755I9503a410226p55863a052172c45194J20881k1197j29409K0173
12403c54746R8038p464l25532m76369M7429c41548G98176N48721L8484o76454
12393G08927k68021b9155B02421L33852P88746Q96070J77375n70761D76597E481
12382a94304n53703J85262K25490j098575n71551O43987M36504d54895M1742a27672
12371C94187j07631c03944j404134o85688J027177b62650j3883j97492k01014
12362f75039b26452C13072j51663l3486Q22439M94587n4065E67069B73895N66987
12352H40882J18395j49176c6167r31389j08119d70572i6879p3570J2161l27363
12342d85651K9647k9080j191579j230489n02871J042560J094078e00620p41515
12333a242135k51508N34738p36908P53149D03919O10138M85964k27612k69860
12324A002549l54892G3249j149L06510J081219K42711m77049l20347j37181J96187
12314I64150L9708l24176D8811b87101a2709k88405m65032a53438B41265P56862
12304I98127J178936r2830Q9808M49817L70790l69154k87319j35643l94154n70537
12294A237841J87247n66832l29398K14264Q6543m11634d21241k77962A7182O46457
12284F63639k13837c06589n71060p39304j26990h47327C04181M26735O05250o22786
12274G13380e6558H434J81191N19745N57763n47711d81028q7582A58525E5159
12263B10206J14134J25752J156201J45045o42711k89693a07035A74140R85969
12254A160109K40225k69830j60795j69712d52849Q3553b84o76140j15457m1864
12244h33745p17733l19915N32861d00882J94106j16694l76396a36213j4919k11312
12234c62444E06166J411653m11533A50155a81420B71494N70644M24741m13368
12225H53511c18038j563455k13675O45371M12014M19322K66267c4132B17683O3904
12215B81587l0042M87619l7327K83387R03499P16489L07851j94156A244609C27018
12204G19526K38002l1029b16798k62113A024806N22419n88345D70387j70910I3379
12193b34929l74789n3655Q3078j97222k00030J55903L42093P2219q01137M03528
12183h04941B53380K72189A34653e26769l29438o73573K17904K83052L51055c12020
12172d52466k27576j180m08620n12815M63062e39807k53995j69473j140909l61242
12162b465426J084248f80221o62017l24597N97862A4901P30445C02881G1115L4196
12152A05311J31430D353O025P42224L29356K04665L4718Q6538Q68666K21974q53626
12141A644893o09601C98104I8094J87100a67364p4660E36477M14599m35887G2929
12130B53099K58197A19138d22736k10513J54810B42258M8191L72096K75363l44684
12120E93224k71226A35343e09336l59113k21926L92565L10097k29205l15701k08102
12110a140721l28978q75057l70749P65978P07757J425n49979N86935b64527j39248
12100d03775q08198l0293J62727p67352l64913J0169K76763Q04510L41668k38921
12090a017615j484572P806Q31604l1834K04176L61321A20554J625956j55443C25527
12079a47771c0384j1107D89534J95510q2751J32684K80446j48511P9187k48024
12069F98075C43499g30734q56086o44729N77440B64928O48673D48950q1760d68520
12058f30816L12312C3000L91179O92816R986J23742L10330R88038O92879r96361
12048B245609H93371m05743L08288J51188M11336J023522q38891C55981A48732
12038H68525M30666k09817C74186B0559K56816c26469k69867g978H84816m08007
12028D76809a77342k4990F64010N88602o12183B43919N1269K47785Q1361j37874
12018D86460Q75822M55534m39757n30265k52979N4344f6303j100655m01635M55747
12008a112846a62245E57061J43577B14408l9989a49411n74542q09636j310684
11999b844273j53677O31809O12706g41223A10302c76602k21788p4618L17642a03997
11988e38505a20345l077D0332a28670B67509J167839L02884l81196o56004c58404
11977f52760n9704b72387A84694q0403c44084h5416K9416A10068c1791E18333
11966A367234j7375l4637L43372j40825l08488k62752k7864j75371k11961J89547
11956G20880O20814j98708n20036M44792M52736G06141k91007J47425J05156N09860
11946A177575k38561D9921c13793k29789k06425j44371L17859G08056R57116j54857
11936A510315o60978a89913p68273a66105A259811N30434j05547l8665j3075J23472
11926A756430j42284l31476O5142o5036l88168M34815L17518O55913M7681l73049
11916A977486p11408c07473q70339j849d42273E06524P0223J2241L37649k72066
11906F54571f3693m04103p53910N4596a98508A191238P67322n35717l33184n5083
11896A034576K7896k63553L60924j51963Q758K21487j97065D88696D9398c74744
11885c90778n4403J03811k04305q6533m45311l48748d65528E34037e6336l46867
11875d03203d3815F8700e717k99528l38934p9556b10659p3577n12015j02580B63223
11863E93280B94027E094A363O34013M93104C96201o9072q6608k7933K8520F5606
11851B26672M89266J43384k71354c8283j77284b8031A54685L07360J42663d94018
11840a265609o5325M21932L23047C00316M42670D5959b72678j93555q9640j6101
11830e71974a23890I91405Q33148o77969i1903o64795b29582e1926B4758Q8945
11820A13703J13358L17942J26704A93760e63070A04291N9901f66948b36820I16995
11809A355667m41839f51851r62372o003L30179N0069M49274a42261E10819K85394
11799G96213J66812M97993J19043G57779A28814a73990r4953B2029a18935o28553
11789g47488k33939k46497L4383J37856k85814n00526Q3454K12024g23773G51479
11778A505097N08532Q08964l90211H22260d054E75599L25778c35885o60302K54742
11768g41445a82858M5383p38829o00867l09185l40747m19548N86354J57568P1193
11758a731536J91285M63253c22124P3716o21232n08346j68591M44356c81283A15962
11747D69642K02337k12154e9979C54107K297k0178M72072N27363O15614K18447
11737B169722m20899m85394j30895K98381F08554a168353j87636g8239E85756
11727H98569l32772o6434J20447Q44197P42554j09448m30168p0781M76544o68808
11717A403900J65113L53482q10943D12087A89091J06051d20918m52403c75564
11707B59595n0418L67130M32542k94252b20556M7009D35850Q32450O69924J74877
11697B113101l96685G51107C53484c2602n9801F43703K93364m35242m5440P9779
11687E36164C8090e78944m26742L02819K2601q12692k93939L83501e85826A136751
11676B523319L89241m63901o33793m84978K33048n71754C4901b52715C60820L54957
11666G15777A1572c15615M1778J4319j72362a75210j63424r16382q23810r00859
11656b979685m8248J005584R78860M35125q4886j70455k64217k78233L38691N9468
11646a007996J38920k95712L06695O6474m52657l3469d17994r7575j37340n0959
11636g03868m06073K85220Q9413j5598j06759l13280j058341j28286Q35399P32015
11626g90158Q2326c42932h703A71669i6659k08044m66607K8102J88711n39005
11616a093502j09339b62868B51203H709K89181q2800J20858J120580L43479j89717
11606A610290m91846K96755K65279J56461o33267E08254r3946j34991b65615k41961
11596e07576n7421n8954J613b71955A07913b31254k58677G8662R78451O79617
11586A736730L23285j81538G81366b15510o99648j01478m19196k51961e89685
11576E16021J162657J67155O8138J45128q47706h2776l68325n01612k3118A46673
11565E39250j44703g13186j154339l6275O7369P18135b48062j72340q89448l54213
11555a664063J00431d07417F11556L36695J58006j26652L4820k40178l39002Q4343
11545E19588M23592n5760B88947g2917l43216a07851j022906q54487j95846P83482
11535a397608b27741D66456N4124L86954J60200l60483N1932N68004n11584b33993
11524F2245M57456J70233A9049a024427p83965r86476L25097J035287N18056o53764
11514a570192p17859K54677M25585K29791K01924j58098J9411l90848j72500Q81121
11504i96988d05759J92003j61238l34252J30192C75961b8053j025004a93975I33392
11493G17275g74226j361520l43305J177598N44407k25973k59623p69R4485K84647
11483h64279C7020K5728c47642p34467r36787o72402p25450P0260J219673R77705
11473a149110P9577m71801N58b2658I16256k12549I0330b59883l20019j53725
11463g33627j90781K15484E62395L98294a34397l83526F4531O65266K40105m23506
11453E46396j25795M40482R61461N012l00211p8591D23707d48410a00470G82856
11442E73120a50513n54873l26410c30740C65978J094911l08208n57893E0353K75738
11432C26091O911K33789N93406M13785l11419C26837A23791N13462J67710C95004
11421g5798o23178j88916L56783K44618j81134l80875L5070a41423j6561l02425
11411d60409l59417j67507O6911n49370K81248M96605b6331E77605R7599b2070
11400f61595k75690J74764k74442j78647K64922K2499m84487n33152P12444B20479
11389A230695M61980m54185m27363K54707j38726D47137L15120O42249J92057
11380A596563n91628l99422B63946D3120O60480K76852L61493E70648e72144l33305
11370i05449Q9154L25116J59549A25332P46436J40512j74564B27230O8879M31551
11360G27660P59859N47636O05188n27759p30623k25992E60644j00099j4399J37902
11350E84048R32689j97102B73391K5923J495021J357951l97726j301682F45521
11340G52166R1001M16072K79701m99160E02890J71266k03089d8312D75088J668302
11330B143390K22011j78833k48723n03238m51632B17627a56406N5280J2370o26352
11320g15108Q1199J39087A85314F3035A1577K11047O570k2480a08198j20190A56796
11308H27230K28415m81193k36026j35429L88914L88889B58692d60049m37138k44645
11298a141832d43336i9466n22423K69260E2879d33053o23979p5621J2299e03960
11287B73753N28519K74156l12747k30770J20254c8736p59081o4786b06018P6540
11277a29478c0453A26189J1881K19191A48310g01250g9914C61927p7254M6165
11267C30838M25976L77582M02797n5936r1014j14608m39360A67961m1594N1521
11257A77888P73225L85323n94757f29226q06368N12474M57838A5141R06064k50833
11247F70372j49304M8978k11718K62246r1813B10608h48136j25872M11860F874
11236A196472K1091D55740a66147l34032P8720E60732p3438A39017e39039m14620
11226i53659L94310a60893e1605m8245i25m4667l47229l67980H445J057299P66058
11215A831802R1852p93349n21319q222K89755Q5969l37066k53804M70527C88767
11204b59338j009902l00076M77485l00047Q0368P5562k56473l02797o87841m91788
11194b974847J66704R1261Q37697N82731e71250D47873Q85107k03032A67544N58725
11184G26269B80862a055656o77915K64147N09505q9755c41444a36994j024356
11175a161350m88769J07965r689k03092e63714G43601C19191e91740r44232q4897
11165a620869p2710O92439F2585G285e89150j119358l05733N64565L54266e27789
11154d67032r02881k48995M45364c19963C87057J3920H2148a286678j278480J30414
11144b434744M9538l26900l11226N06582a192047b29152B22799C579e36719k60671
11134g97390K90408g865n64290o09739K93067c89235A28287J295535J303728m70186
11124B257364I66757l56513N36486l38482c29133A00294J153784R74531p28695
11115A499914k16546n5582l94643A99698M14478J124546p7785l87171F15225B54627
11104F05191J7759k99923e66820J01260d1969A122722P17105l68990l43737n04484
11094F22616j31979J62566N84117L7145j91482m7214O1582D70536k12098E3776
11083c49291o41755l80875f65865j43085l62912d35201a31043B40967L65212j30089
11073D76090r7643N33276m25910f4058F7817a1833o19257q34431f54125C57719
11062F76434A10336Q3352c3253l70313B73019M13165A92417f6760k24610j19830
11052d11200a66759B24274N32878l2772I0407d39798J55711i3334p1057H2525
11041B51834Q4499m4365c60978r86984o2614M22047K9531l90374j93900f73661
11030I17915M10617n95128b39262n30768b88334K6958l10837b71647C27700M55824
11020G83524C71424A39532F262b66822A186K91407j0280j2434K61680M74614K05155
11009A211328L91862j19639M03672j68634B80332h05221m18437p6829N28459A38932
10998A812955P64629l50090o50355e7804j008753J09949A91652J090211L06061
10989A587924n04952k48118j83722l12669k2166b82889o01877k37104c12115H6451
10978E0928P17558P27344M65530J24895k04752o33347D65198K52239N04191N42104
10968A763732Q2395E22884a570836o60186N57935e20070d8697C16856J357366
10959A674222P65321q98035B92853m3754L61914L78076D04406A08082J9133C217
10948g37679n18108M43013A58005P51940l658k20699l33028J98224Q3526K15505
10938H49815j98347c04506o60835L75213A95374Q33803P72341q4411p67165j42854
10928H07088K99994j46748B10641d4724B97982O58962K42665l39636l10828q3399
10918D65746A20142k8283J26813f24042J01814n5763j78750c38616H9502J97447
10908B86949N46231l22482a98604j006148r99112o5146N04301m18307j62298a061347
10897c23931a34634j39180k81973k44025j56838l00667o45597o60668M49880J013798
10887a099904a83522F57940C14171d58804k72728k24970K41565c42974L3104B72064
10876I5342g97231p58674J47365K27003j18986L42187J5130m15133k88025M33318
10866a213046c95065n00265p9063c75620p6548K03785k85983o55159p70036K73559
10856a686002L5746L4275K57553R7580L50077L86737D1305Q87846n9089l09509
10846E60553K04280n5793D6081c0452H43147K4238C20480r534J86137I5388J2693
10835A08081b14656m51858g9906E81134e5188r37779J32956m1353J72162c01900
10824D06854M85426C27555d17438n24659p55897p09627L18134h45210a67298l28241
10814d95539l78280l65172K96339h0288F20766K39901N06880K38898n97275r0588
10804I18582K78363P4992l34111n9310K48048K25541o044j89286l95537k29127
10794E32111k19765c7668F0806J337667Q81901m19866l67891J82563k85426F52751
10783b73669l68672c7096G7267a10992j89864k10060j00971I1018N69272Q66807
10773A527097K66380n58372m66306J63457l36859j29764A06052P4567N63002J38688
10763H82309k36212a44895j054157n86102l7049L94743K41579N65161b20891j31716
10753c52607l38049K80239E1911P30486k6682j31163I9087d18293B5224J2346
10743C7570K67757j12990i8815k56039A16883m4863O8896O10580C61790d09727
10732b88508A00029J54676N66456C61376H5419J20130f9220j99164C8749b36269
10721a290574j213709j94350P59052P98635N29912A75490K21117l2847A78402
10711e19281r08696M43625c18859j7363n24109q33124n19440n64930L33994R16634
10701a527197g00019J27809A0515J106674R92237L09868j9989A116674a112097
10691a801495h71182C44826N72368J43400j82005c52704j005547K53701c40442
10681c59255h4799k53021n56628J70832L07600F02068j47032A86140M65056P51177
10671A402373J10077G01930k26657J48155k58261P26618L39479k34831k73560
10662I22873L39031l88151A43228J72853Q12353K97546A58092c76366L880a40047
10651C29696L18314j51645b68290j230198m80589N14513f15552M1013b57639A068771
10640I59300l94967j69839J83159n2183e40853j110454q56878J28988O02026K07336
10630a569835P01010J77365k46066L47174A56316N04408O03558m47218b24869
10620f92498c35883m8095n72648d16338B58914N94544J2633a78824r45259l39282
10610a463365o13222l77393O6045N39655e13356E80531K69560j27576a84330a8332
10599f51545p86849J89613p7375n10469K80465c86157E73525J143343P09186L39764
10589B765818k16226j044270k42646j12139M02587l54999A89344e16419o95895
10580a212314q4986m3158M61696a26745B39775a3723j418451j049013k51337k6005
10570b758529N71803Q79025d97665A64766Q94675K38246m64857j79434b40319
10560a345568M61316M20577r4279j13106b82363A020700N09468n38712D66449
10550H59822J58180k15676L56770m04126a39865l28715a95308k74962l75215L5055
10540h10430D4461K87743P8425K80717J97825D01016D7646O36862L12573C61708
10529a85565j73335C65864J821529Q51832j23071M49797N39161q39035H73378
10519e52642O3376a69946B6608N29394L70130J32796n3828l8935K88838M47130
10509A702133N99337l49806H63190a39567n87047J41629A02705N72962G4510d49012
10498b1043A26435a81449k29263k41971l0508C78373O63197k0979R59067j80124
10488A799534E33381e14080r62723M82269b83870l9542C176K29348d27077j152357
10478a579434j154532j60329M73262R37679d17024D78438j87245a83104Q2303
10469a00801F02573K75929C70407e39811l60782d00650E48952Q67594o93060a88309
10458a128402m33939O51801G9650J196705P40752k08823G94919j29150R92414
10449A658183O67640L86519J6127m78194r36629F54408F4115c47925j35543j57706
10439f41174b51198F29379M81792D97964J94437J66612k56072j85115a76425n27761
10429g04186l60095M58481B69143R48162K45963M72285P60159m75448r63268D45077
10418I5911L58814O15959N25468k77054k96493E06719A63446d58377n43925P8470
10408i23832E5151J716161Q65604o53546p60271n40036e01078r05790j81462M27934
10398a160396K32406a07797B44416Q9683l6424A45049b13490r76124l83272g23988
10387c54739b9022E86910a03879o80574o9437b90999D20527m1557b35710k79506
10377e15216J66675j056826m39645g86082a28764H91706J112767O7297K31344
10368B303114n13733j44685M29556p44013B09802n0149a53775n04074r3056P5712
10358f75193L6252o50157j132796k43913L72758L93551e27048C86704Q36383O20494
10348A843581N8057O8803k26658K45802L18956o95286B49652a99759A82087O86841
10338H68928Q9331k30986J091766O20322m52689o48896n34419N78711J14014m09457
10328A086625m11493a12263p90623n18181k92862Q06006A42148J21694p0866Q9063
10318B82039L79121k05200k01639L90446J75517N8271J239579J045262j27953
10309C035443p78164l01139K5579j3012k80772a13528q68159a63055I05992J0589
10299I16581k73546O21767r336J02398k02577K69625P65683k24936K85321k68766
10289A982214H74383B76964l3405o1741c0814B41816P21633M0787D9204a505026
10278b826181r32702l0511Q61482M26897J063591O97600Q69L17372m5542j01494
10268e68619K36234q42337q25679K34606f73222D22707K81826J69980o8453O7735
10258H73795l16723c05896A1864J495449J174021l19772r76542E72183a03936
10248d76549p60996J96279d56052r0114n33230N00170A113875j35198b96535k28489
10238e25024J91051b164H85536M14661j23116Q38588J15192G89935b00452k31875
10228d32327m25430c66440G06660l39558d84396n8599K36553a39386D94925P51914
10218A246839D70597h16122l13714r0782K46645E929O04999B45864g42807r60764
10208a703571l91793M90056O49044c46178j9385j76800k2313l40570j90325l46184
10198a441755o24571m58107j55599j77288q01589j422384j514693r23818j608689
10189i128493m034339q413582j7138026k7973315j0691478K6465784K3554573
10182b7358876J2819002O306391K996719J005811K61066N74191R05744K12994
10174b276958l07130K79919M22986N5699o99079J30285Q16169P24659K35054r8539
10164g16935L41105l15755j34515k6145c86210D9833F176f4529m8708C04567M59602
10153G64169J92998j38129R9619L39215j44770D52197b56366k76470b53975L7045
10143b16930D40176m2083L74758o2258a54879o92263K53283r8315J94230C3019
10132a58568m04484k43998k04814K92628K85574j23579q03886J34326L32125j78012
10122a072688o6375d68220j29482n40406L51947J36218a44422C10158o0505b28078
10111b76185B75577b6150j114789j269977J62071a023609L00905J27867K97051
10102b97786h2592k60843r7111o5738K8642p00642j090416J16522i14446L72545
10092e41901k26839k67513k04682j86665k83596p99545j18816J227552c69615
10082a8355C22613H4963b59191H5582J94207K19345B29496I1407N12948N28090
10072A132445M91350O32726n93496k87186k10965D50607d0749n20851o9283p4419
10062g05302j37739L16920E90305R83001j87341l83109j44646C32389K44393J078741
10052A655523P91695l8759q82171p50047B73264c47381j55240C7188P43483J08967
10042H89638k2260l07718b5400D03009Q45500j47039l52317k19304B5596g45898
10031e50646L7264b18500P5759q69870r5221b63464A256161L32168n78189m80782
10021E29358d0560o48925O6361D85067O75446B84822r6487n3014a24629E4427
10010B75299L53969N0973B35078N8919j19393d60583C5977N80249K24788M64353
10000A305367r7000k48055k38026l04515E8849d74205j040894k66749g27412E96314
9989A525634J10103p12224b4039p52430k79548j23859q0867J75773m2226p29290
9979a856486j69711N43747d42412i448n45207J74518a17521j15521A92727b20047
9968h8647C11456A27066d13631L5817d8023k87641A96082P63807l54678f5856
9957D76596M09029C07998d24814J21899I39724K86576D95822a00801C05780K17481
9947E23261k49002P6202M06405j60679M9495O99936O75855l68787l72824E76035
9936A42692L4613d09394n93937o9622K04990j93518o0670i7432D55385K9071d0908
9924f246j74707A83047N09165J141021J198922k40629q77639I06634a8036j273049
9914a291085j018033j21636K27543K81129M04332N94713N8033c13868F7753e21660
9903e08836E17287R37440O3475q2803j1264M7799m11461b33190j086855l92113
9893a712158h41323A81309L01524J99523L67459L44604J56571n26753G9141h93101
9882a144480K66403Q1321K52452a97335d9832D08073N41465K32282N60631l01273
9872A441178A43117a313502q72682M7544g73236a907B97255P9199J2783K85142
9862F74379K48910l55200c87428n32070J48065b30588k7466B049P45533O30836
9852A378418P97121M81776k46653k83115K98937k71109o85110l28717N59816j24741
9842A576623R3767J69218H18547H0023a70525j11963q1898j95039b25558C74742
9831h2963m99669D51164N98224A84589b53701M2019B76946k9729a74231m18803
9821e93034o0887K14763D8577J50238c29851q32467r74331J2529O30492J67716
9811a325912M8756d06024c2571o17017q72311k4843e14304D92781K05961f1238
9800e04189a28049m50210j023089r24515m87068j90551L99899k65513j006394
9791d075490j353070j416088m504036r499133j8580311l6269084k8412526L0051317
9783g4058421L3220888J7939799J0156251M503624K562253K010358O58230N9017
9775b948001N96024L60551M42227J99979m75502r1659P04790K18965o80128l27405
9765b000159N14588K69779k47211r82704k62222J072228M94799o55145o26454
9756b422501l81143Q2465J056515f42831B4113e06532p35778q97507p16420L75796
9746b480441Q47071L33325L53737J41315J56501q6288D03413M59337j5786k58857
9736E88107M35878Q85910J07954p90004j31468J31626o09290d55732m31473k26321
9726a113526k83109M75683K79897b96497a24735C73395J87911G0880K82245J284526
9716A637651O68794n97117n12858N54191j91984B40677e57548k00311l6466L58121
9706d36204j24614F7321R96865j59246D50763r060A75094d16873m9546K29821
9696b36598k3281o0630o3854F36074O51685k05111k22915k83302o5038N10660
9686A022053M2995q8819k06455K63199M00604k70521Q0031k66791A74167a18285
9675D2087L29679e595j56317k76346l71198l7100q67586l51258O49564N07186
9665i08650M40151G957M38430j82027c32768m00946L22515a64651a9348G33356
9654A490782L50894j83739p40466k68704K15833B25271e61796p04599J340c6530
9643E07526B39237d28783r6339j39177k79244k32291J07546c58387I1783M3097
9633A34880j0369l9323h90049j10651J31728p2902L88600n50810m2997b08681
9622A645033R33389j73315r16015k42869j04561n20854c1145m28154b04664D16914
9611H64176J40832k99828O35322N78288p828o29788q1880K45549n49728c96038
9600a042163M02235D15363A96701P12M13636k48857K42196R73094Q22310k34990
9590B164802p80327J53046P58468o81776B19858g59993l21690L23294A9725Q02214
9580H21939j24007j94647B9836g4683G3260c29523q98660j110667M38819L97694
9570a502337m45833M15411L70417J74367L92496A98973C0687J429K50080i0204
9559f9125A23933J14101O53780A33466d27088a99708Q8347o67300r76170j67424
9549a922255n2537m01967J031302A29898P57068k68293c71231n98057J07366L79569
9539d82353J69660k55376l69928l42566L20280l84259j77743N27852b91176A49041
9528G20204L23813j81009k30725A83915b21574p15514l68967n25922j37912O62143
9518a307746O26626b90028D26252N31313C40514k8949A54441M96815K98527K19484
9508A169267O30765K93585J37643o2777j98578K29228N76213m51930n42593j95079
9498A585744J79302p77825k79786J37248C00838g85360o7784L42551C47275P60494
9488A107769L5017n00281j00092Q0543B72184e40439p51580L24257F79931J066193
9478A746124G67840e56985K900o49527o77056L63045e55236E64009m2616j86712
9468C34681l1275j03558F7131e47707o31287o7062K72312M16261D34759L82605
9458H17364C33539d52377q0299n20867j119723J21603R43407L4536q86518n29859
9448b490097l36129P93819Q41888e50726J40903k6328n87039o6963M42764K46076
9438d01313I8592g3794q44495m85245p79679m43748M54892j64948J86375l93131
9428b543773p43135l53471j47945R40617Q29676L52345h17232c49035k96856Q5542
9418e60349C28722J108844O00249M52824N01728p01565q48667o89358c2170C42228
9407A211814J44630j11229l80507B80821L40220r8876e3539C7307K59704N12754
9397H09765B66141e60489k86560g869I82281M36294l20192D19995b73006j50402
9387d23408C66350N00779N17522O48052n97554p07576L35076j80084F0858J16898
9377A77756N736d42360M0628o8115m21060a41689p5394o92841j88069L02646k65176
9366a060523l36240r8277M06205K1926L36311j46239r26236K027N49497N27452
9356g24097L21411f6563A8096c45527A51314P46329j42708A03547R5973n7456
9346A42064O70871N83347l5541j8188n01068n4523J58005j66898f3952j61468
9336b25420G3759b7042A31467j8121L63243P94323L4256n50077l22178a31626
9325b54482D5794K30827O9074m9508b02092n6480A0853b69512n94492l24329k5806
9314a214139e99469a89550p44370k84801o37656J2107R5060f13165E58901j16363
9304D42538g5563o53050j59498c25579n4600m42667n30536J41447N06896e0039
9293d5189C57074P42757l51650A41720a78484L1503D29667R02747L65348m7805
9283A649957l92420k9405j40252k46774M66405P03138M25114o94940m03153j79913
9273A157757A19249L40044L98919N1459N65016L94703H27099C60273l6208r0284
9263B33781N1387N69890N26698D50038b10948F30283M89172l59465A16810D6457
9252D92955g09607j098082N1602L74387K18898l93583O67278A87310e55566j113277
9242a668843j52459l26190L87711d84971a36325c4665A2117d91652m67301l14254
9232a273207L23582b67712L3884m95893l13249K17783K81801E54846R78565j91792
9222A341619A66048a21314q30424p09429k15931J37234P49434a01918C10L69665
9212C69975i5063q94171n9454b59268D38204M7398g3315m58242n81095l26378
9202a439030j97125N21587J30812l29239R6550k33387J98493L20574r15530n41882
9192b388177P65850f64604D11035N0871a54409j029953o65518K11966K57160f47132
9181B3196L23178d98988j211724j68457N59591o12610p18290k52494N70445a009752
9170e44873o23642j70967L05671L91930j85053m5946l61337j83777e17380E97311
9159A257296k68413A67265J7816L50768k11926F0a61554P950k47109r56379l88044
9148a745136k6352d44012C70126a14094j106N4550n57490m23180R6584i9019H94402
9136G34807j79682B50755J66836A15028d15403J03294C06342R10577N07743K65921
9126A990583K44566k74638o54493D30410I8643K52105g7703l75695k22319K66866
9116d08851J41963k50376n28061m44807L31385E3920K39120c8250A78926M01738
9106E80664K40025K59434j36588L5004m40478c01531l05011k72169l0784m66938
9096a376433P881f26590M8239b70541E44808J055920L61900l598r00775h97355
9085a099024L10455j44468c9230A409649J35417G28868B965P4485R91982O10098
9075A679530J368015j5210j323988o47096j04871J18017l5112K67068L3836J90293
9065A530482l81875B70717d18291q40089o35143m8762O85377A96484L41395B38803
9054D0260O73164M16842l81985k51786j55982A076N48099O82189j5638l00235
9044I15491C13764K63525L50913m60729c23256r5975i0708C90853O71271n16745
9034E45379e49685o7069D10733O58166j98364D22829d02508O299m04253o11593
9024a412055J47445b49807H54520C34008g55675l28256M25524j29788J01359J07709
9014e79127p63450j9267e90942B39669J46558c21846q36735l46541L2540J01850
9004a370732O59201A07278K89864M25522k7910C8568J41802J082726N97176P43450
8994B603722L13990o65585r07790n71264l78592b4186j64358o72584j43965b96091
8983G28335M51253K08257o0244l82331k64769K68286L54759N551l08885C25483
8972E67652L65623l62667d94250q39432M92044a47713g1716J7879m21755l82955
8962h58547j39746l44904n73829P20800G3336Q96019r4405C33441O87643K25366
8952A246450C25910F7457R68261J525233M52192q08722r73103l85813a46099j540167
8942a686266q24366k62265R53033f05974G7280l5781p117O8769K99559b70118
8931f84533K11884J52914j84537l55112L2111a63298k96860j152760N12635R4300
8921a005983m85337k26472N6608o1290J41291J50560R905k3276O06757a51227
8910I5049a3274m88871a59068E85943R52341M78030G99310C20744P78491L75568
8900A474803k26096k24893L78679E03232h73987q8941P8880j98358c41316G44937
8889A317833L92289r4025k43973n06759l08391c37663m29057A28689N10453k80690
8879C58452A06979c65850m49714m60771m84219k9022K34238f65883b28594j15339
8869c43933R9747H4860a18557l57031k3197o77086q78222k4560Q09524H7952R21498
8858A009450D82032g37483k78215J83814J84858K25045l51230J85202a46355e9452
8847a7021A97924d12973l08876J20845a19781G43504J61712k5008D17349F8272
8836F73085K63491k12447H2390N91243Q07134j99057l09786N44702M51849N18200
8826B486675r0262p48786o37455D48824a17369l5075m06154j50114l82999q06958
8816a898669p62094j75639M33119J172470B22474N34970G4987g27825K8880b84069
8805b06283k58912l07284o75163J99193b50631C20199N71349N29560J36741n73325
8795I84524K27401n16538A84840M93142J95709K75634M86466Q56207k47070l85584
8785A859344l1569K14074m55018k57111N6529K03545k05790k07387R67531N50253
8775B694401m73053I88551C05605P68089J22241A35258i93407L4144c89510k91879
8765f81389l81309l43301n22536J76661O95362J42142p8389J61219r3124c85633
8754d75677k6819k65903K42901A818d50452j60776K74855l89874l69946k35408
8744a331601J63851e64929J09009q91547k4222f22410K05570l74863J50384G75530
8733A485741m59528a19386j007617c31018I48665k41699C21546c0426k49802I20496
8722A780621l70513F48768d00680p35102L27124L67770a57143o5616B96675L53322
8712F49997k62528G8312b33523i9584F6445h7262D39345K61490j45329B36562
8701a82370A86501J318410N58518l50467m36907A66222f85722K11100K17601B64156
8690D46569c10789l19001A4710L65817A76446j9642K57054O18332Q3322G2589
8679e84605j96045p83382n83221P2077M80552f89827A04634R3599d23526n77791
8669a001317K70267c21789f2214h399o64831l85918d51291l31648l57296J18925
8659a021310d16942C20192L73722L21402N65688L65511M6107l11578o53560A67337
8648h85479n24828M9233O11988L31083J81133G9423a66658n4966k14430B77520
8637G58850J45868l2934L16751J93730o70720f47975p59448o5158K09085l06633
8627a570129O5356l4310k46553h26962A020433J735299Q19356J90938k46994r68805
8617B550227j024635C38303b65866j76272A49786m7979c38127C07668P85734q0348
8607A013054a97003p68059a81286H39997P64969m06791J21544N45280K41149k60867
8597A845281K92725O62842r43140q64187Q7696J65629O58476J219083j30311j31902
8587B862192n10263l73658O19610J506873J393526Q66377Q32443J215130K535176
8578A0947406L805925O091814J1484471J5017217O31772j7210638j3536683p229826
8570A0001458l688554j921747j615238q34748l80317j01518l07788E21364j53982
8561C67382L28196j50422j90978J79950a76971p97193K93603b76760M1790n9105
8551b94075m37472j249609J29407f23607B90128L2872b80748C11597N97220l32622
8541E76195J14817D537c90770n93705q62052M75974L05088J47399K11902N1745
8531f54419J19006j22647j008146k26446L74279O34183M33912E8384L09426A20090
8520F07851L99997D47490m7691m9855a051136j179558m83548l01127L35110P62193
8510a918066J26348q91794o63177n53105k02125N36045J227287P90740f57066
8500b98832l03398l05925L28701k07344r14678l63131Q15093b41688D36872K38474
8490F75346o537C25067e30877p69878e26575D35421P39756N3312E02507J84317
8480F86824R48860J40415p10939D65977D1208c35675q85052k89239b93273H06094
8469A287006P19056m14284F66146J39426L21317l56033f7983j54446I95688R74952
8459A970640L21292j008q20971j67193p5026E25680b68882o65736k11073M21502
8449g24189I2175J22258O61559j3373g6751p99254b68341H03265O6765C65145
8438b76385k08430l26418l42985J68150c00274H11775p1399F9108c36976j31565
8428d68541K30198A57233J89307N55619P06315K62792q17405b35640o66923L34312
8418e68251b8269H00666Q41617o72161B38943R708p6417h1787p37882n05703f17450
8406E98320R40021J632657n6110k84553K52007o02432m66069l12895j87089K8652
8396A542509L37770M35732l72804m97056C98735d81893m52342L95096K58210A485
8385D34045j20452b04698o01353K35545d149A102049O01332l45466o62752c41108
8374a072521o9322L81897F0456i6170m3905I4855P66580L88305Q4407l76383l83084
8363E74680A82324c57833B46524L30606A42222e65005l34385A0902R05759L27011
8353A243672l2232D56848b67838r80203m86330m70984k83610a189874F7336d04700
8342a389854J87611l65108l1877L84662K30158b47371C35409A58266C7641b8740
8331d20161A09505O46606B23843i83400r04235L3909h44688E06966N44079K76545
8321A327590k6501Q67334r1540H53279C90402L51230n8347B15152K52409J35702
8311F03263k79481a67838A57500h8641A07955a9664k29977k11811l09582l0291
8301h01325L46863L3970I8337K33748J27918J5056j49382k2594a57408k38958
8291c96366C29237K54827a36160o61955n03655J93812L96970b27670N5495j86016
8281c58191l56170o93354m50152J06161d39036D11316P5934L60053C95196a090609
8270a355141K24758c45420E34318N02341j53272k74054k7711A99238a74946d2086
8259i9293B32357O23334K72720J11784k10761P914P88958o11549l71073J41980
8249I85664l30738A84376a9244l8200l87960p12517L28396G8185M49195d6584
8238c34654J02257m00529n06209m94154N16699l90020P3111C7698P49077K94695
8228A081470j9478E08152I8685b68365m40917m67554m5966N70752b80968j45643
8218d26611A45004K56638Q17536L79275o98499a68072j37419B15745P30291L63244
8208A309280J45377j42796C63867g21293k38904P2269M6372K77545i2137A89302
8197E5118c91412l94620c82523G58434N67729E57633A45193b76045k42741C80229
8186A261015M75041L16513j05471l07952H12669l40384A94504K53446j33733k9131
8176B85086P87625K1720b04767p57726d62420J19635J54613G57760Q58475L31021
8166A947256l29519J70487O99087P8001j91186r50723k3321O52478J03818k44107
8156A912271j88278o87798j88055L70708J46263k0930o65387g71998m29311K34539
8146i66770K71878E2898K99179G3202J77893N83079j76811B94865f34912l72851
8136a007763d78489E76731R43681m15882c34300p82029d14234F79600R06487N76666
8126B162753O53018m2679j218029G70256A72258a098176L00922A34375J55472
8117B89847N88580R66627l13294n91974m2255L72089R6767m96976C46850b14136
8106f62354C5946M05748h5223k99704J16940o0737J61280A047868Q03183n61241
8096A289810k58930E3860h16425j39174M20221J87552j43189n23976J23861J95425
8086f95705o35998k19119f56505q297p29142k43934N01615K50650E24845J256722
8076A781567j25457m46179D98171a30759b3787A99108r6019L88016M17204m30652
8066D77657a028330j087361m62230O86347j265k26253j54821L01028O57897a33233
8055H29817M1939K71418M85694o39616g885o61453k03571K98604m31650m19782
8045a425737N17089K64402K53045P3668n97377L36871F05525L13654C32886j12288
8035B20598m7927a39269I7077R61813l82899c02296l88501k50700j68673K87293
8025h22877K68245A86873R76565K13641l23469C64467c296o42320n42394K61537
8015i26473J84484a90478G09059P44108k5315j10600k77623M54266P2307l83698
8005A182504A59872c3359C84426e90085m14955b33854g6171A38949J108624j18064
7995A129509A35386k8381R02636l7632a2436B27753P85219M26472k6295K55208
7985A668357m43793m79984j33246k53047R15159k51435G919c42185j46702q9712
7975e78599A08654L5063h67026p54213j01991o5976O2815J27743N23283b31489
7964C52856K79454k64849d83088j245683n67851M84886M74583L95551k26091J83681
7954i84012M28953j53502k63040j99224J36603L49723K56875J06268j1910b4473
7943c64540K2814C69144K44068C1534d83934P1360Q6739l38336N4812J99433r6286
7932e06212q3460J39037b0375A14414b37281n92449k27278l77608j69793M6330
7922a558079P76372b51893l82769m71468j98745k89331k95394N33385B83391N17398
7912H00789I4194h49075l60547j64492R5324J67522b10850A305921L45613H03307
7901B65013J40209K19593o4055l9791g38589p33600f84025A92289K65631k00080
7891B57840A21705e0626j89231k26634J24777d57C73711d8589k13547o95625j35045
7880a092806a25735F46000M35292B20884i75826K45023C71872J412589J73581
7871A958042m17194L54831J78768o6831m86748o72233L83993P15676O49008k39343
7861B357969j108480C61730B1195N09647k26221a1023D96649a1498n94562J08931
7851d97129m33173J36191N0791l58078b89877B98324j06264a42070n6672e2053
7840E75303K95359D06308A04543O33942J206336Q9834m96771M928o8298F21613
7829F85439K0102A30083c86342l35032b42021A07816M51946O4311b98586o10429
7819i09015P7464k70319k79253d28428H91013N21134l76425B49475a73500K7575
7809a45925K3114E49821M45815j03809l46532j14372a01218Q861I51468J3191
7799I64659C46111B0454b73321n46004p03268J47386D67M95545e13473p15408
7789a228881R2844L2629L66242m24904K96060a34250A06159L92478M0925B53358
7778I8442N98831M17029j85040l48674N39019L70748D88134B4839L92015j13483
7768C03371j20637A8239c84634m71297N6895P163K63646a89003A84083c41812
7757e40169a73672C20429J94021A69222o9524L63265j84180K1327A28146a33971
7746e99984o82323k76553M12175a52363E24290N3430A06081a68271C40908L88193
7736G29101B60738d69568j44305j29044J08593o30620o31112k12010O64149M95356
7726i48561n6234k71613K94631c7573I11734k51975N9236N436f0624m37301b1778
7714I43889P84011j80051m14249N81348m2092G97483e4204l94782D76758Q14635
7704A291393J7480E79474M916M31649k01435p4584J98733k2579J74345N5153k80525
7693H65147a60811p03890m31880K84659c29744n13746q5186c47679a03455m70741
7683e74196j035691n70867M90093g19025o1776l23611K54139Q6044k09959K66089
7673g08099b47847G33008l53737a076091j176444K21566R33129c98436B045M7097
7663D9142d25263j184c4470A43340d92917r02161j01278l65613r60319J20644
7653b701644J086699O93585J42114l50254k5921d66417K3902l06008K03106A67543
7642c0597j44442Q5875j57663p27663n75064M85316d87345K37741L4527j84538
7632c99615l36354L0275j197456q75404k2427J004437N40197K71521m39014j12146
7622a535986M59453K09608b87367N0470m25803Q4893g9285l3320C46784J50295
7612D97079N81518Q20052k02481p05492D63342A01397J97752K47946j11824k10154
7602B25117O64020K23413O047l23096N7002J64362j4330m08154e58895l50250
7592i09145b11844G95582K43665c79293k24450b50920c4581j98054n7764C92085
7581I23779k62627K1903M84510J29278j91190M56761m03356B17659M27291k59934
7571C85016j7777O66429K97821M27734K96240n65963E62298D3116a47928j2060
7561a59988I0091d90855l55012L15630h093B58928J55085j99468a200553j879963
7551c080516k88537P25300M04501i57140a22693k49749p76543K81504a26023l26378
7541d52401j32359J996A44965N49625L14058L50875k64989j64144N23884k3952
7531A430322C02910f15207j105257K60614O37902K35156A51405M21573A1058a173117
7520b012648k35161P47328O82074k0349l15095j10693M64714g1934k60168j473045
7510a805147o24335K68024O59848K39294o78797l51195P69380O84159m18566q6838
7500a344173L63476d54020k56056l68718K10931c72828f1542e142F11232L33376
7490I44608j46410k0472C5711b01357d5493j78617I46183R79678o95239b8261
7479b15695f681B84040L10749J38278j27354K64623D25699c07818B76584P31842
7469A008426r0239J3831J12761h0302j337732N0605N85045a47538p44937n53709
7459a446184N36137c15336D97189K20719l52245j36601n3283N34626m1806b29716
7448a495272M3304J85122j71005K77672K71762p31810l96388i70708C99326Q3119
7438D82445j99237K93050o949a80192l96595b35642a00970k42292m80403K4485
7428g99180m77856p24194k31836N26944c91200e7435a280E2324d43212l47425
7418g90637m6506n40092J52257b93624F51731P63104r7440k57176j2989D89178
7407d12514j17794D08371L80129C47712A31678F76a82971q0754j65536J91042
7397b38219B96473Q64197Q5443j7609K40590k23593L10690K06348o3915K77277
7387A975901l12459Q36830L47793q55930m94159p5026l53590n07352B23935M97389
7377G21324J69214M52088N28132l77228q259L12647p87375G6697b4822H92413
7366A452129o47711e2396l81935b13111f2858B31472J70073P143j57928j2396
7356B38364M6684b31226l62099K61913J19171A18935N89822h787j151282q62097
7346b022166k64772J0932J50490P2734o7423P48175N66431r11884r45728J71725
7336b491486a133661N61992n57143J91842c99507n00289p14038L56923f15236
7326f58672m57264n51017j043373j538444K11838J334014J038818L75578e78149
7316c42765J29620o7496k42291a64476B6065d57284a48029A90318g15153m87290
7306a202443l84932J19166J96705K23493L58779j36074J84791a66680C20249L57409
7296F77658j00356J93153o8706j01399j16552J67885N82804D55816d80831J92150
7286b88681h1704G56233M55984D71403A77885L14960N92834L91231n79460b44926
7275D14183P34412J83536R7549m2573l66981D61307j51916g68708m05231c62892
7264B8522c40746k71618A04640M33244k34729a49979l31721o73511K55052M17001
7254d83158J62608o83896q92665j81437J038902m1114l78070n17867m25358q7182
7244b489237R51825O93710n04761R1706d85950k34967q30408J72016m67103p6127
7234a922539R8202J07641L58756K3895d33913B27556a21006j40283j22765j0495
7224c94549R6913C62932j0548d66079D00828M52425m17169L04608M98373l67909
7214H71156N83643M82595l57170D32310e18494m682h6128B34814N62077M05794
7204A202685r5794l5994j47456D42121b77345r0785J08419l29078l72914k03480
7194a165183L1875d08181J93451I430J06174b81346C10204J01591L08943j27001
7184E93737k20345N10765K4185J18021N23200M19033j23784p62935e966j207958
7174a213924o27850M18569K56305L9809K25020P5430K0034L0597m95692p66982
7164b038684o51823R0349O02715Q64141L40274c81322a63920g844B94344A41761
7153a97491j23733l47365j29976c01284e4097r02885o84043O34960B59880N87767
7143H47647N25962n6897m48340k92323j04771O03451R58533p23726B8907e31490
7132e8515G56757L85877K45417K89347o47053d4018j282246j049986l65874J336672
7122a405452D62843J43213B11073J30334J51112j76726j42331O86068M73519j84477
7112A148572l64735J9176L64973q4877Q0304D27492d93854k8148h3437A04105
7101C32410J81440O54632k16916B86725e85641a540I57709L91100n55300q1622
7091G11887L87839j86721m12302c38557a09801F41332P89193j04672o55412N11837
7081A182278N85232n39124c6986p81850K15670b10217B76170K40123J46146K93229
7071I55668l14703e67624r88659k11713J65909M75573c95678B02727p881d118
7060A32958P32627J089291K57234o28626n74201k5731J38117k4435K59778l15431
7050A041581J26256P22110j17277p54084k22358k54952A98543F4432M78427R72191
7040A515050K7948F7734b06392j27615j00841A41059P11659J6556K8430k14112
7030F83592j25315J93644J445K83792M68187o8489n87349j30948O48505l0872
7020A336192j63511C60200a04417k35927j02700a19247B02562i4225H2925M62335
7010E45260B67967b8425m11991n20980q89406k75444Q97767a55829E99077j47941
7000D51136b23639o88480M24721f1226r3703H4097M56803q3448M3932G5798g10295
6988a516340K71114e09737D75467N95885q9827l23273a79284n21190J4895k80410
6978i65989M16937a61042j22123k6868J26158C72873R8115j06257M91534Q33694
6968A689959J83552p36986l10514J31406N3931l58804k70167j60618K79052R49219
6958A450030P41j49691n6386k21705C24248a69703F041c74477J26522C38352J55102
6947D93454b26461o61008n24067k28637R3820L33108M96580K66124a33780l06043
6937d39823C925K48710e08995o770q05556m51759M01594e90493n1195m71979o96914
6926a810581p45909M47598P09999f44058K14029q25440k90745J90842O49411a39546
6915e71680j129718q39356p1581l49189n82791o7911R82869O42272M44607N08965
6905a033513c37133C69048j317j18470b21103l02941M0695A88573J161422M71529
6895A821524m37217m78854C56510e21287m27156j03472m77142j86573O51575L88362
6885f75693j86118j057755o11495j1913r6275p34845j33389J107668R24466N16330
6875i59019L22459m0272N8030i1985E50893K98279l98238J8150a34754p58191
6865h92945o076g2265D55127B06284L74926B46360O3726M77165l8641A77254c9444
6853B19906m1312f02020o94322m19423J27877K14853L11336K04662a61343A25934
6842e21109O1908b2352I39450N81347k59992n30261h3431l96139m58666m99733
6832a437969P14462D47707J362058j64439J83974m70260m69605l58810d94174
6822i10881j2679L61438C91497J67921b02011l04148j33679r38333j82663K03900
6812a556934n5822q0498L40639l34286m71326l34880m89971Q77354i06961q0229
6802i87190j167731j68164R33784e97592M0782j15483k7123L24264l75443l86485
6792a137080L19522E51900J343782J41061p97841j07654p7700C16900c34907b4983
6781c04980m38113a54814H28253k38766k48162J45266L91622l94482j71508I9858
6770f92076m21215m39901j80295O18382d5622m50066m53645c82954H73887N52974
6760A426861N3825p35825c1223q05268c09110B72461F137c28091o23012P4951
6750h76152B73624P88263M37243P6340k16872E98121b13604k45105J03293E19624
6739E84476A67409E4372a546B33535N50598K35962A37339b18665B26275J56915
6729C83190j44473c72363q21916r30850K43498N49932J08285c60386N6997j66384
6719d69773a86394A68053N24259R9946a20143m96610A88858N0398M264K08767
6709D52287j24073J11134k46M51830O04935J1216Q2714N06271l15907p83616I3326
6697e76441a99462E27198j21793Q2267R47256J6074j87212k13265C35569A31185
6686I53322Q41535Q4455p04811D0138e36993K53758m9023n06538L89482B13796
6675b11437m7369j80838m93474j14281O9840j66422N31176j41556n75861j123145
6665b453367R2397N29918M92341j066L79110L60577a36693e9845o11209l51035
6655a022089L46723m76457r71813q1256k55516M37070d70013G72386j2295K25313
6645I85404r1714l79320J45490M8718l17794A42839c62080p6271j87183b91898
6634e93076k3501A15950N36387B13020G21a24068A8434M40005k02189c53163R4410
6623b58753A99641N56189J09688j81103M1538Q48532J252602L13714j064991r72551
6613A103259m9213L67853J1113N8889o40785j26713J09664m06438a20388F02751
6602C29211a202624l7798b39230I95638Q53216L17683M32097R27499L96178j350606
6592B571705j127885C09521e25424k21648K69227J03639N4383p8865r42473j25476
6582a466637e96451e8277m925j19533h3829B49019O08901j74887B32463e77969
6571a103387M96795k59936m25233J87638O3249a59435G22401D22a971066r76877
6561b947943J004978h94739c82791m3139o29312k386J96179K20918l94135l42329
6551a376995q5520g10805c2455E6355L88841K71740q6689a08872k81472C5324
6540E21823L70571N1345m30183a61482k18514a74800D30808M81125l17028G2059
6529f7500k27725b8419k40893p71444p81730J95612L67379D71970J269485j36755
6519A604700M1982K82886l46366j84960l74564k41888d65027j033691p9334L24986
6509a253066J58348m74396n31021k8630O64696O78254J61823K58037j90372k68853
6499h25180k68172j35694K57451J96863c14641B45625J32830A60952a050538o47901
6489a698439j25887J69737L94841N15711L69361J06907j05165m40069j67038m26293
6479a406334q9391N87092d40035o64048j006334K0363O19745P15316J80523D0494
6468I31116R04283Q5061l36395K20117j71340J1762G68100A91898b71303m18723
6458f90026G869J365479J130896j91914q55907p04792k41404J41065N39606Q76727
6448B067625N709k66589j78849D39497B02023N01860Q12862J012799J94481l76597
6438B347428H91881h9946m95993p63903j15530h1668A206307N15546l03928j03217
6428A314708k26153D46208b05775p09295L42330i0897o16177l03689K01708A16851
6417C7993i24372l91447K73173J24521b58517j30214o99145J22596J99057j35106
6407i01329m03570n7884L60209d99790C32928R93556j40232C80195d36249l05012
6397g41261M4428f1616I69690l98567b66001r98166Q5735A38934M97613N00679
6387A137226n68052f47451m94270K21623b3291E26229O2293K75009k91674A55513
6376a1273F07963Q03077L55662l40015n81175D17454O77144J081288j48243I72542
6365b93267j52917i3425l08713n30620K07161b77001k37600n4429E9188R86293
6355A045481L23435F14222p7399J98857k09311o9653f91507j128354J82975N52963
6345a083923c94033D02107O56873l15238d4222k43958l46953j54931l56729l76277
6335a523070J5717L34014M99400A88138P61615j5177B34481c28929j150046j106097
6325b585072j64405M87684Q34029P08416F14096B88352a08374B44172L14620J88364
6315G47156J20046O92324M34572l48967m04295E46707a87659j55187A88688J06358
6305B95046f35886k35088M26558Q5628b3289F0777c27975D793O49417J02457k21877
6294E34790A06443a29891o80705n61358K83742d7064A032106j88993C00609J48651
6284D49260J69141D0302h50761c15511E62793O43842K82351n1947J92877k04469
6274A425447C83655f97933j86814g1143E59167J30275j34106L62194J074343J30373
6264B122246m73379l99161C02002f90448k84863J00555b12601E48066A57094M864
6254A61958i8G260a57118m99293m57492j36646m41158j29536L85585M00490j00184
6243a135352J35090j64864n65124n5710L52106L59811L85878K87034k75668a64595
6232E29095O86121K25094L58551L08732K27182p7607j04793n29213n59976n08028
6222E55158L4199k80435d64015n36494q1120M24423o6177p20053j15308e71599
6211a76244l06789q21742K04056B27974L63937k81728C9895a57158g0211p9786
6201a49997A48932J18967O16826J24188J07256M010A47408b77448A31419J54423
6191B85842L62797L86176Q49955l92623F81871b99886o52698L63015O4319K49611
6181b75639F60846M80515C74064h99060J21832d8570A76196N41065j96036J55084
6171F76309A32198a159801j264014p31031j85020M63089Q62659N95375J11034
6162a307709e75236o7825J20515J95254j02128Q2478A33340K34895c13101n80134
6152h93235q61189o83939k82813L78278O54116k19981J2736J18241f38310b27634
6141E19508N59030Q15082n18886k53253J72453n55185l13039l2181b18716l80064
6131e98780o82559M48522A54370K81959Q1340A71985b87628A32010K85138K66330
6121F83478M5292j650K87917M58964J75367n70759l37404j53188J06879j23379
6111E71517K6557J003724R07320K51455k80208m11702H07553e05309P0102L5462
6101c99745o40919l91991O92138c48791N7499B46534O85636K84760m65250O6145
6091H17825j85363n5912R9949j45199A56780K25932K59400j68432J4037B7997
6080e4593C40394a54200m1479C87901a5459A41149e1073j77185G38373M76748
6070A215121m54312F841a013693j46808b74661G52468L88753M72776k25389F33943
6059C16678b11381q5315j24590m78174M04433D59270K28547h58534r94536L4532
6049a818538l48680k18091j72518o2390Q37030M51771J92176d61457N0249J61810
6039b49398H69574J156507O38354N3502q2972j62849j034760A61493B9139L47945
6029C77084K75661B90616I5751d11482q23486j74432M8941O05009a58311b7920
6018B15874j9351a23445D8712b6569m64964j23086K42119K2292r33350n16337
6008a799895j75010r1154J98956K57950J16241O86993g7052j60121o49580J37016
5998g49737c46961A09413J151761K519d49359l28074b40366Q8137c3142E40248
5987F39560P5438j2885m2312j65610K01781k09510a40975j147901l36162O87446
5977i37592a84875B57073a13573m89371n80063m28870K56968K12284M28111a26678
5966d60312q51504k80305p53329O62836h06829j39182o16827j80643O16202q961
5956a136240j2384k11699n61182n58217o43792L96442J122971L49063n24871n98521
5946b378430M04368M9643Q8613O69719J27489K52729M5538l17379o4595K55378
5936h66927L33830B02604N32480b3019k13211o36346q39975N2044n3159M88376
5926a225290J19808L57130B03446L30611E4785L65721Q62744N35904j35193G28732
5915a17763l67292m47877l82254J08191N24875K66341l3944a90775F42322J272323
5905A914645M15429l32139q61899l85426P82156P52392o14256n79285k51702b74703
5894i07736k54029l40946k32763j92730L89526M33885K00081E3220Q75094j8490
5884I09824C00409J63826b74435n78283b71276o93314o34635J8140j11880K914
5874a690051l30648j31720J72693l89940K02067k87441k67829Q04534P84597a53707
5863f68096n78552f12332K56273p5661j09108J10738C4686a56530k93960a75299
5852A4898b35037j371871P6065O34277a24154m7867j96411B7566P8017c23038
5841d08569b3355I24438r4843l0140k21756k47367e03984r38245K11596f14800
5830A70307K35095K56825M5277B35557N26196N01969m26323A80345b73893m92444
5820g66337N3624A85053M63034B80389b31867l31851j32524k15281M46839F96743
5809I64703C84939b74260M5362B69428n3948j0247c02022q08644l24507L38578
5799a096595k16874M78268b09817E81033N94476K15728l17503C74601b63609A15879
5788A228769J308835K30246l93809r13151o52257M0677M17011M67404m25403r2683
5778A215639K80384N73298J78941k21624o2711K92643Q9353q22947l77074D58602
5767G77364M01453m13044a74198p81338L96480J28205A52895M55741F1861f48937
5756g11652r3305Q129L48319h7174A87987H3019C7833b2415j073081p68892l4548
5745a898936j15422L83216d32625d3593j107163o09243N80210J26044j22124N31863
5735f44006F96534J455983m3704n98394G31332A085e42456j56677b91822J19104
5725a72718F71663J74329a57486j061393l51912K1095o94635m29596P88809g19005
5714I2474l7348b63441E3922b02791o46242n30525O04144m1465l06378e27564
5703I46220J040795L17493A050441h52266n79049J4907K17308E3888P10839J78188
5693I42915Q51823n39467d56629q56643r50636J05653Q95376f1671C18281e14124
5682a051001N11742q9671j1056B52714M47500j18247o28A71565g57579n65361
5672a322940J64059J14478L30845i7271I6860a67024m56078J55306a54725F29489
5661A241966k61711m15785f9630r8470J7447B92848K95004e9458l52504J05310
5651c06652m39804p60938K53470L24982L48083j42233o41625n63289O19994c20199
5640i7691A91304O87714B90799g61154j55358L11501D68853Q18591m52952d83486
5629a423342o38737J91462Q43479m5347j90433m67172p92138k44966J07566J95006
5619b464622N26675P77686e43862A71155c27642q46572K33760n38344n24518R00951
5609a102365B84601M77487k58588K52630j72534A03903D8247J32311J59179K1650
5599C61387A08069L23063j18225f06718n26257M45177A31454M92757R70368k2609
5589A571970k94747D71969C7667a42382m5070B10330f5182n94319J77396b16274
5578d34068J82214k90790Q6797J36189j45480k57391K88276A57674g13531r96036
5568a709567o66252l83828L49666Q35308M07921K36537M06154l94254j123609
5559b041924m48492M40164P01572r7005N62676B43289J121865K79796n10956l51117
5549G82877C29232c49770j56142q086A19821Q06080M68525k23221n07390L4463
5539F98278M02956K59497k35604C24908K9006M88242C31211b08564l766j52030
5529c64360J23867a4310F41175Q95292L10930m21516l70528C14393d90482a26453
5518C38723L13283L32313P7874J78329m5402L00066n08963j91991j84231K93948
5508I03949O17890L00212J01430P15699J266397j21063j245192A042598c10670
5498E25877K044809P75274n78108j266028B09943d06483n21773q22774K4752h48824
5487d9913A66095R6131d22158j49857A49687J017661Q40945Q8914k42206o12774
5477A242227F16822B04959b96024m35553p17353l28925L08328g08530H2094L33573
5467D15667L61178M39122k3791k43734L02631N528k01484j64157j56462K81160
5457A015658k30213c17285a57277D44200K8295A9768f95581j92297A71916M79504
5447F51420c15506q24133p4152M04909B09185P44275K112A1588c14816n27819
5437h42635p65411l97311m60773k07020J041513J83355p7922P7268r91211j63156
5427b603303R09575M39254d80947I38290L31862k39989F0767i88990n71708k66362
5417a827060J66858O33507M97663a94168l68359r26305m93146N17258J12966J12608
5407a239146L62905d08023A62261N33590K20653K55291B78428a399942n59918
5398a959860N26314J61863j68459J59818O33056a63659j27578J5769l5287D47499
5387G33553a41384A58940R61040l11298k10320N05835m35510A05596c51042a10385
5376a47084B46077P7152o1423e65885j374893J7095c67061G47536j10413q9644
5366E47479j32728B0065h31727p71668J79455a72966E14429J18650J97209p3596
5356G56692c5482B76213M77997n9264h48534r99734j16357N52672d03110J93119
5346b09991p17795p59679p17259j75345j75650K14684M61221j12764j18345J85119
5336b125804L22660q1982n79235o73169k336129l829234m888695p695842j6171515
5327c8058945l2182602j4122944L6180099b2310712a1082552e465270b218020
5319f40761D87980j5197a96869A50026j9797i5216n11175p68307k4568L00906
5309a098360J2960q33164k27298a064736K90267K1037J78425a56912C15333A55561
5298a77578D69315K46061j06204A52299d32942A27846B2736a27905G5892b16070
5287c67524g6457B91742q8044c7720j42866l71536j248128k30472Q90774Q6728
5277a053220N02287E10866J167980J236826M61292l5549q87445j204536D50655
5267d81497m87638K76816N530J04256e090j70158j28281k61339j576L2714k58621
5256g92351k45453O3584G0824d1819k39360C82867K36696d63524n70756j36304
5246a170584J19585J58440d05950a54611p57938Q8080o65o49527m76428j23392
5236b074481M67453f52388C12346J258603K95109a19756j577036j76776P86285
5227a087283M63387e6196H32820l77457c10465I1016O20180B05582b49635j71386
5217d21021C3683J217798R96596J62385j88341q20810c5158o19689m84093L48062
5207g90878b44806L4811k3171K4692F35228R89849L03390j10132p26962m48000
5197F43373I3511g12219q16611o82592m46701P61538d36867A192101P39149n14326
5187A416924j79576n45879K64421J058985k0093m25849G51124J27294n0654C40733
5176B01979d53948o89151J54899F814L21853f69646k16852D4975P18412l03089
5166D60298a12071k38182l88962m42849M75765G1302M35496K86142N03434C40660
5155a125812L05040b09712B11002L99517n0678b96358j062289N43444a79141H5908
5144C4982b66555C1133N27083k0366L12826N58180K68659l13037F33233B70913
5133B3867f34371k64527L28816a01158A25700J38343L36811k7228J36476K75997
5123I86099B31557a179974N65845D83435N40615L80163k6206o22213k65777J34889
5113F24906J86480P6363L82626O3180M67694R20217o82844G83248l11205p5305
5103C96738a79432k26128B42822J58892j70952I9395a59934j23308k28766l23614
5093h35622b28236F04363J179466M05034L20742k68018A050378D01989K7237I5410
5082f93021K3140J32903l97360n27710N63896a60345E73897P7520b70380q51229
5072a121609l54751j55428K62124N25313c95642m89382k42786N56982B31945k7250
5062B04695K9276J012882J015465k32385l87811m46810m13304J45183O68395Q05734
5052B401320p88472C96906a04427q30348p43378j23496m9859K86579d33873A049813
5041A398459L85593O7650m91170l45390R0969J89573E18925A12843J106872m1758
5031A177957m58012B44995a22292k17102j53237I0377J063180O46239m90635o24734
5021F84427k73269c9987n54301k22189b81087a20004j63686l41289j48738n43984
5011a317701j091533J50103K91238O38164M49343j61924L51059J10365l68373
5002i49259p94523N01627c43816C39021L99626J35237M6646o1997K33196m11001
4992F80728c26382l3973A78122J86030K734J56722j82075d37574k38854K61441
4982d14987A44408J21125J96742e1251q84758J18248M07548C74035O49919D38656
4971h37946m14802b55923E76948j95826h49462j114259k87911O26589O40861L83773
4961f00409E9408Q13871P08476o2641p21796l69413b59843m90904J25995j29326
4951g54078i3464D50810B24828L55212L83364m41842L52759L86808O6710P10959
4941B038798Q47115j14454j031957g824l70514B72334O99879L42866K15488q3598
4931A446969m02425C70189O81042Q76375n3064m65334L244F79379h70512b41569
4920D92382M21921M79533j97436D70610b71712l9633p64032q6779L86464K40347
4910e35345l74443J7969g1403E60154j19337M31190l4756j62184k83548K42363
4900F33882M97761P94037Q575q45501m17003P65761O04703q93987N80940N07819
4890B236987k1682N63119K28205k19827n44160n10141o77498D02301d9890l70170
4880d20060l08576O2323J68937E2820d5398q56524k249d05832E5293R58525j28671
4869H85147b76982o24902B0055J224898M62200J95368K94349m88213E03294B4904
4858H7529e95193o83958j48397J89065e03529D11463J4852L03465J012322k89807
4848A452295A62919e32535K04372D60927L88264j90829C01190k9647M99860J212
4838G72615k87809j20112J98188K18447k37828I8991i75621k80771d09480a3711
4827H9779f79896j000876Q7056f17489f4072o6487j073651j106303L84215h32665
4816a81562n77248r58643P56295a63527k27354l95369i4054C20430d6187C33021
4805F56711g25878j185175j26715f38754A159937O0094n96874L26228M88249J36174
4795A573808p29878d14708p76661j70499o41868n19742M63016j09155l11258K3200
4785b457675K53644R27070M38372K02006c17278G025f8633o51600n85150o83546
4775a988929n49550k16804L55952O73866P91206A1729J117327l78906A15088c23253
4764C57285M45202N19583N94716l47846p10483M94892M31361k61287q1657F08207
4753c00663A32491J440417O50436j07969q935l46190p8504H34982j96874K80032
4743I18140C37707g00882l66458L11469q9296o43297o55993n44188m12899j72758
4733c274302N77292J110661b01795J00115o9906G37847M63591m77745f84133p27276
4723a411409N03924c21962m25279j81323J01029a70235D60205L72213M02092l94519
4713H39991N6467J80464l04439o5744C24272a057442r52451N99616b06132l79018
4703e85150q51180l12077o7327J73052P04381A18318R12481P37055N75147O75694
4693C018695j08237n96987l8255N08418j39328p52686B43181f55472b71579O9210
4683b02369C5384J15495a77158j24278j00504o14651l2440K87748j89735k51375
4673a202393N88324J06992J24613B82010J54089h82210o70989j89255K89894j1817
4663a464377o22684m8861K68353O33271j42031J85931e16234G32342O47903F15775
4652E14019M04728M5374l59779Q12018R14199J54333n29420n13487k94689m59194
4642F88102p0880O52040P55322N11730K11087l1146J22307K84840n54954p53234
4632A815214k29590k53119k19297k0488l15832J16165L90472K14010n95528D16209
4621I08783L3659n5427P00074J9740p71681C04488b51345k27937J60289C68121
4610A045347l75209d58659j45715n14532M18247E7553M86651k33687a74475A48397
4599I61940L36760l85006k00217B33696I0245a0267B59321Q1285i9932A40807
4588i4661p32125l04535p2215J7189L61676k68191J55170K31272R7850f1739D12177
4576F40751L5142k66660c12595n59117K0013p1014M1995d07243l15650j114792
4566a837685l46190P37767e82642G3695j3449e50609a93577c0134l56914a68620
4555B74825O1616n2142c6203q23140j97850j91261l70723n21381o05403K76203
4545b469758J131825A2760b4211p35755K21534H95813P65502l9469J92139L02345
4535B116330q45158l75569n1695B82481a12721j99150k17298J5156k01300n13042
4525a228355R42M52152B69435J275338K88379o87582D85669G206d42754l69080
4515h11834m71677L42643b88560m47641o80412o4342J28989A57638J621413N66875
4505B345926o25888G21364B7145b15770C81294O87750J49580L84714m42031m21065
4495G40242B46018M14821J269377O35512m83194r10704A49215d07108J68691K9351
4485b09066j41785j36694J6550h4231l80219P9061B40886J060126N50708l46706
4475A505014m41465L1800l89979L24614o1850C44437f1334r9943l24143j1252
4465d96672b9802B19111b31465j29743O3859n32744l72560R6809P1836L70163
4455f63845j74397p61322M12631b40089B27457d47670p64815J24846O726k33465
4445a314378j02133m34366K81723k13695j40059L75955O65542m40374k72631N46406
4435a048010C9886K59405A31587P3917N41016N11071N80908O7268L84072J69223
4425B459062A216245B44170L04609j06526b12564E50952J181208L78126P79232
4416B889518P24196K4163o92673N6184m00749r96354E76779a84117A95728K38230
4406D33958k03929h9670r70719m24020M37769a56677E87929k05752J06360O13024
4396A101561M16397o3390n89805A60837h297F39020B21677d89495k96089J76665
4386f08919D4015O3392J10111J69907L81304O01056Q56668l5882m74047j80813
4376A535711l56225M75629J13549m67138m74276J42608J28779Q63154j67622D60742
4365a002745l98900O62962G4094M18769k42341J232P03827j38885j30292p4869
4355F11535B00283d09732l61092j48793a4964E60752H6522R61745N94032l25816
4345A316483j34381E12792P7725k00805A05773g45289m21493a57690G80189J01684
4335H81873J55649k3003A22060A0796M45440M16328j21099J40058a50924j420034
4325a570958j4192e75578b29908k05373k48505K92891a65435o63581n16895n9720
4315a405631m9034N01778K84535b56421E75304J60996C07077j3044c8185l67928
4305d06113F2452K66860K9327D951b91864K2634n21784k98831Q5174b30663G70897
4293B104947O55591J17135r70401q80479l63638A71988e78488m70693P557K82664
4283g58960p9569o41335j82280L83858K53838o7812K30947K87384C8242K91376
4273C29618a4940j99450B0623J09686a38047o75382r18360r60173K75047N30230
4263a886685P11534r8975k08077k1649j88940J64326M863L80827Q7607m8814k69914
4252a373897j48234J55404M06100k37371k20911O28223C19c69329j131276j71407
4242a672012L61120f24424B1458K0775R8884P51449Q63013q8504o26119k19798
4232H21158B71677J24619M50072M46228M11523K14389L1639M05097N41619k65536
4222B631327o18415q72846D35326c10450j59128A23222R72889K83289j8602m89703
4212H71095l68294A12101b04300k8259N1559K8136k79624j11229b60001H04375
4201A861275M53891j90455A061017D73332M71173M21648N66155r1815l70310L63423
4191A833606l82540n93061B09214K04519K2690A0043f27967K4348b44113c3270
4180F31252R5276K01206L49657L19448r8163k15336N2795N51580L08753q25645
4170A370823l72264l36621a24676o70706k20375l53721m6123K30828k79143J5656
4160a448260e10787J6431j91374M7258n32300o46053m80848O40000c82108E89407
4149H58779M7331L71099K0040l77653J74127K13880j96831Q5394J03799m7830
4139A252135L911E74931a90469p97044l64287k92308J91466K35660M92782l45989
4129a070189q03299m28205j6851J79261R47422a63163C202b25839n65764q15577
4119a607180l54430R58489C67673I7077b56334G51347J362519M07792p08223E67131
4108g91426m80097K43369d55264K17868B14957j1820F7324K43745a63953L468
4098a60485m24463m98229j47662j02679J52001L23060c67623a04355d9036j02783
4088a51819k56839H9526P34464P0059R6217J173860Q21623O29685j69897n80125
4078B865412k11962q08478F40935a89530B77661R39555R62280L40742j20184l28067
4068B071987m46467n01380E03890J88280O63565q5029E33676A80678l5463O97666
4058H42881L94507J30859k44389k20889l36898J7850L9443D3296e35365b8856
4047a06670o98639l36543q0772J26860c25613k71835j69218c20442H1802P790
4037H9592K65950a36050n27030n58758P0547k38392o3631J73158c94218D64008
4026E15372G2596J30832O43875N08062m30315m29029H5479e40267L5367G80622
4015A568833L7149L57405K46917J74849r7170q23498F38934d5138C93569Q98619
4005A292188L26251o83584H257b74567C1546K73633N23667j1389m02097J67027
3995E82387j64273c29295p95373l21244O14088a13109F43027l6896A81109b93046
3984c76259J63657F8508a64477r5221m1311n41587o92849R8053N72839a45379
3973A012403Q76803l45286l44110L18l851L5079l60320A26968c86548B23202J874884
3962B098086J168430o60914j178929O85398O20599p54193r45172b96461p46223
3953a042684j12123K71729J72299i8657A148498L13894m85312K71229J98628l90742
3943A056195L7993j7710B2069a000900d60855b18054C5821d2807D22377j28571
3933B93806d12736k25162N3431b36514l09004b04854F30529k52282J4096A86695
3922b68954H8674M16758B29633Q5434N75926O35196G16470c47975m99474J04014
3912g43435q8524c01786E64266L05072c23004j016038l71552j33101J76824K96855
3902a370016L34613k93105q2402N97071a35260C28887b81426o48089L23225q20215
3892a426505j111779l31159k92203O23638g65560B88417J63937A21709K40078
3883C61787Q25347Q01104L09247l05607k4487l96876B18950M7414P71251A05632
3872e10728j76152l59655L25024a01552F3141i3834l30165m44706N7874L02896
3862e07935j49153o12515m21607h12456b95915B28748c74219q72454p61219k99648
3852b307540L52311P06218N90958m01619j16645n09896m43848L17879K59467K75058
3842a277657j5058N85366J16490j6973A33120K89586L15129J46428C49044H2200
3831b25191J2732g0609n0706E64466R60907N48520n9089o55088A10890h09294
3820i11165a65816A002518N48530r7114J5308k40340n28375c4694n86858K31975
3810c89577B54052k2811A15101P835M1922c36947m27934a26567B22914K55793
3800D78707n2454A59859G3706K96726N8151a08650q87082k42990j34817K0289
3790a353250K21258J62109J1303d46409k10100k11396p47146l56453P37257d99503
3779A80661K35456a0261p81093j09762a8719j07930A63710J119295K48890G50944
3768e04379q23400J3459c52474H02772Q17850o4514o54338C88860D4363d00498
3757b28111C85581Q50896L93140J1136m4023E35924e48061N2366e4274G66382
3746A511901B43053e46092C78298Q00696L29612K51237l1254o8847P7339r044
3736A728037L6196l17465k85436k70270E2229a31793l90218j98807j78671b21791
3725F23688N11715J102132K97093m42996l44845K28059k38239q34718H1911J25845
3715B07756O64009l16429B44023G0223b306j12548j86416l75240j89623K67539
3705e98594A27070D1574N2338J80985J30641M031o3337j37719M02225M4304j9195
3694F35847o7545j43844Q37056N57315E26718a052095p12178p53585k0770Q10284
3684a728344h09805K66822p4758j90164K14148A4176K69933j26165A4525g2908
3673f63877n72291q92360q56019L53107J240539M43855k2562M4672K22639l35436
3663a037733J9559L74679f632A94783d469p77528q62208J89037N61489b36326
3652c92756m6243j91394j065880j67603k01648J38196o5079j96185j3784k66284
3642b468660L04904i09423A77640O27104Q56147Q13361p8417M11548J30444n37369
3632B400458p04521L24691P16470j74582Q1133K8473n23890j62291K27760k99265
3622A914436j82589J01489J224750J13798j336465A64919c58605D1358J023938
3613A065296Q43618J68320o7747p2632k45605m38693E04515k45802L06563M35873
3603A001149R2320L91340K764j68221k9070K48395m68942m49723A56424L4442
3593A90866Q7194b26087o60766n90864j051198j75814P05905P30204J4791J21685
3583a132144c12307B12875j5681J78694m268g8600m29063c2135B23141C2679h28646
3571a432099K49609N37769J83108J21726B49809K80882c2523j7851F28083M46494
3561A074577J16890k24873j94103C81811e8689A27442Q33304K5992e7363J3636
3551d3727D65976e87739q00048K5621M19908J46527m8967e9222k09157m37527
3541g05906J30189l75190j42161J28890g3100A157644J50176J40892J08381o47503
3531I09590k45031a21334d5984k35615l77344J70137l64455j22129M34165B25395
3520d19875k36888K31389R045k41227l18892k05280j80477j23400N56138a46870
3509b25520k41965p8713l6765r06075n57904O89584r547m80010K39916J61488
3499a445511l35402K72487P12874J9316J52069B98402J184937l61714n10266M89522
3489A100881P15618R9478o34700n72078l32697P3559K38463N9931B14366a57849
3478b61945C10502L03405J31121j40009K08204K34109K26A35970a02042B70858
3467F54146a3442k38183C67882N5971j97421L27864Q82992J39506k13780o55195
3457G07819j79670n7169q7187a5998E19704R47242M37331l67450B00879g46069
3446h43827J7497L54265a17950A18795b67270J29870k71824m12739o8997j89242
3436a080202J20959J47386c63626C687a08534B98546P26710l7727l06498L19761
3426A000792N22272j79766k64118L28140m01484A41792J79594K80058B06818f37742
3415a109605n65521L64670c02347A2860c65859J5102l06093m62635L51983i9580
3404E74922O01460j42950l38299B93289h23545j96112a20110n9361m2897o22655
3394h45023j651054p76244Q71419i19602c81375G56574R29763n17409B60004a8191
3383d97224q16060j96347J97562o2534m47612L5805L53581e74356o48905k51219
3373a474480e58173H8146l5213a21335l77347M915g263E269L1393a19264E17411
3361H44139L09869N29381K41902j86383o81547B79506a97166A10508J230372N74191
3351A915071J45064m61419F35536A89710M88783J43196r1442J23025p1315C46495
3340E13765L26898C27323c1297A44585H980b3157A10290J12098K35102e1596r5456
3329a47052r2404B71997J48062a61152l60332j72907K11024j9770f1631C48815
3318c19738j109074M2040M89154L7148L27897b58804m07659q94051o8369l8411
3308a667294m48816L65512P91841b01245A19007i5148r4964A82051b53523o24671
3298h78194J77455L16120m77702j538589m14851J088705g77390K58968m00725
3289i19147j12431l84739l86768k83025K01816L69395f69155b2785D57003A27485
3278b58290C84656O14584P59786k74358m05992j62074J87760p9821n01505B11755
3267a67484l32010J0334k55566j0014l19069o52438m96657N70509c72547F75995
3256H34661l13858R1637k25038M3321k1887d7589B03487P06390N31590L86139
3246A827606J56449l39415E91517a02254D21269L55204a16585p71834L64301B31869
3235D64845O5345M556c6250j236371L18010i4836j17085d2250B60408c593E58964
3223G52620k73554A26603e76401N8184a14629r792j13389I3403J070159J246330
3213B409892j10420r11001C79266E7455L21445O76808L69681m85751D7602c08630
3202a7606H39623C92207c96193a79757D44359M62599M48327l3285E13280C6738
3191c03539n83352m1635K21387j02085m89478n51314k48006J14770L65231O85884
3181i32137c27059i8993F78748R49232J090347p5573r89796G37759J66208N62493
3171A466460E26211i8387c1600f759D94648M00374J94842n00912e6475o37716
3161f94191n1335m91905K48677n64160m74042P36666b60281D69657a28905j04901
3151b33806A10684d70045k40616A41757J344596j79396A4499O230b14216q0453
3141b94669B07632a33988l40680J6630b21356p28229j189682l38753k42962K39808
3131b481174j14121Q72984c54598C42897K6809K50487N46324J02189n27083A48874
3120E82161M76375K91407j50811n90808B43797C4381c13701B07948a95067l66426
3110e61493a99528C15428N68426m5351P5135B88207f8862B1833P6758a06579A41989
3098E70963Q9779j69144a22195l50760o7094P1734J09508j61479o68496o76768
3088a865550m36852J1527L91726L25289L72534N88305i9700F06637K88567C68318
3077e24572M6770c2894C32674N65337J203229k58026D65875A96565b0135o41811
3067f61946c10938K9933L4640D11278g4244r76157o79724j356332j65811R63032
3057b289236i64785L31972j78685k56833r4820k77145Q6302j19316L43836L24158
3047h05316c45824a21634m59552k83593L66635F68315J41242N8447L16395j73099
3037A011300B19403d01377m9419F7802K96199J19669B34135R5490L91927R93823
3027A715375n22044A00028h14957q6804b25870D14937d1239q98879J94903A33616
3016A359264J07948l77124E41784f56212n82810j16570O53972G15562O37544L90138
3006A743244J32251m9644j92112a98799j512654o39138M35006O86292f05006J78809
2996d26197a99362A04694b06124p11499k52111K36077p8004K86751C8760e07905
2985a542546l2637P68398l7906K93894K48536q197l05398j18517j172257o77263
2975b583893M86738R17254d88039J48793l7982B75688J73497j64982j15773L381
2965A71811J86357K94675B14707i8027F83644M29914j41493k74210c5893p320
2955d3213A05572c96437l88263K26425A94856L80879j92679b74889j4136C92479
2944H29526l86992c15622l61177b74374i3977E60391Q13845L20106l69648E07777
2933E98816N64186L54499M9110o05764J911J47190j19676O22028j14925F85030
2922C74977O13739K41807D35522g16824p22485j34669j06945K49594c91929C32948
2911E03488A76075a52214G2746R21559k09644B41163f22950o93203N0700K44012
2901a021441A21310J359602N45656m88012p55462f9716p49100K80179E43780M68882
2891A012662l92852J4506f6468j204775j1295N43568l45246J95010c40171j55622
2881d95793k05618K25656J93784n03052m33739f01856e4120l88692g9604I56146
2870A307133L75023J89983k77495n69331a13492l06398C93311J383935J223961
2861C001207K77989o01637A338219o59500J27570P52926J40459j20890Q7212H23258
2850E13892q9495D4302b92960l82544p55921J91338e41564j70277J94837k07532
2840g24536J76483K06464k30884J8802D1201m319J05199J419325O14520j69801
2830B006125q33271l22684l01693A95177I0679L49134N70573K98223m13032N2442
2820I48019k28517k90784O96556k64273J1702M80208D92169a25212A2448L45827
2810C58275k3238g0428n55648k63877R5890J43576k77010J99825K02830i6136
2799C55641J45046J87884K68624C43217d57382j148489m4798O31646a28737B14881
2788h24453j087674K34922L88366L67670n5319J37191g0558C87234P85081N17334
2778A689649L56195R7875r62874b248r98720P1659a8983A204464k25488l80044
2768E98932Q4791O4160r3528M44643N72966B78099b38866I66317j06356B29744
2757b67904h007j1789n80069j94828k58087K41197K44960k86234m88756m44632
2747a786245J01088g96201a4142G78109M51459l57068P204N73320J99371l01024
2737A351371p5005n22657e7596m93741k48747L20050P7303m5136j55362M3759
2727e59470j3047K44551A87791J36390a3037m34159A44170L47105L90727J200647
2717B082649M70950A266104C49290G6862b50532j84091J11329A42356d88967o24068
2707a113035j3690c6695F85303j17183A23164a80653O5679B98988L52383K13374
2697H64745J40693J02575D74574h46699q85911L11973e61127I76709J495419M7466
2687B519594q61676D69185d07101q05356m54397f34524B466J94757a6155k44359
2677b60514o23905j062533k60046n35352j15192Q74094O97484e79480C63241L66015
2667G29256A34781b22504k93917j189572P4098b81247A47810L50413K8986H0734
2656A89749C6308f87043l48658K73110E79509R20993D64754a41022l28976m02268
2646h72266r85642k59230M95410N55447K45919b83323F39131M94828n1819o4520
2636A017620O25734L08523k97664H19148A9734b37878A96049l1728J93118M62698
2626H20137M32660K23310F84849c08760a29216B29493p7512J87014e0616n79191
2616f29807c13336D18817j52690M06598M01863J91425j79592M48894M46051n27168
2606A454198l05351B97614a011065m96833J46242J51758d91466c3127q52262j150072
2596b035461O93784d24479l17432m81063N93157b54641A45466P06941k1030M78560
2586A309937N11544J86849l83211n83054L1617O2152K58485j63483k82352O84231
2576A632715P50961J00198m46935k41269H68193l26445Q29045J51326N53301J0610
2566B086030k38529j19674k99571k51901E84821K03860K06589B02896d74137j74297
2556f48434p64749n04267M12375P05649J77332p8565K55325e3471q62213p03069
2546a618753L18736J72375k51109K49043e35804E58533p3472d21406n96921d17187
2535A00246c62395O2940l77038m65461m56400K40133c54308C64843b46668q4630
2525c31298d0809G2938g37792p79192J89547L49857n04155o28616L4716Q06749
2515a268886K89224d00523k22193m15577k31937M32876b90252D26969L01300a16369
2504b35811A170547K04334C75604e31585a08064G43162K97550A94318C6050P90455
2494H26505J150808j10809F71635k58141o7288J602J66041o543c88462j059267
2484a447729N0735d41662Q7293n25148k78181j90703d69167F35960J90147J09089
2474I35196L50323K65060n97301n4931P1122O3691K8192D94256F2892a85820m72828
2463f58648p80703r85619K66187c21235A310913l411D16170I3884b72924M4044
2453b28880k89099p21029L17009F6302O70366B96384d55268c3375E54295L71948
2443I26243J16537l62148B61392d17706p71058r3002L62744O5750Q8315K17218
2433e47739o1694b20069L7684j05134J06780A88774b89253p08152J55631i5557
2422F20646J110026L28190l41387J62559K5685N26294J94313l53094j33580N5620
2412B195272M23364q12634H27789i0623L8594F70803P94942N77494k99911D43437
2401f7365C35010A55097c97437O3156G4221q629J153536R26559q44818B17892
2390b62605f9894D4542L05992O0606K64822M9567A39164N0759L61070K35169Q54910
2379A641072R66583M95293k70100l24828l76474q54670D03607q2764c01900R2765
2369b09135H02707L29580N03590R377F84271e89299p34811j28342M60302a44952
2358d6344j58913C14352K13278k30960M47628J039957J062433P09337j009275
2349B546750A216777k62642L16758E33241G4195M42021R8601j23651J03192N31556
2339A125914j35876e75840q95901e00293B68493d5779A78867K10476E8339a71865
2328D60357O60049Q56097j59882q33332l46688N39788M42934j21354M28501M24505
2318B350975J993o12013p83273R23522J65763k31683k45995o15131C85927A29409
2307C52068M52444J25301K05643C96160b17529b8561B51376K39695j04264a46904
2296i03213M9831i5101D16263O85394K20731B31053g40334k36230b27433a9156
2285a35292H9042N59784O38308o9922J08007n9440k47755M38273L54245m7182
2275A763360l73811O25120O88420K76925R9578R7316n87035l51678l77166m76254
2265A384775J90096k90609n42013K87702K37138m09394A1066d38540o92249J2004
2255a118785e16541q3325B18707P51789K04990l94549C57741G711e71435K70378
2245c01057E19805Q80397N24267k44925o14418n25851J9604B26111K0389O61898
2235I08398N40162l11830O4964O02905m16481l18818K47856E13115d048j68452
2225a72500H2778J05491b32738j08327H43341M16389n20969c05761i4445C63658
2214A73943a025723j314487K33395j10597K20738L4695M81259O71333K39453j31760
2204g01694q9880k51131n10168k98901K73060K68035b93280a19544A37867L28023
2194D65890r0874e49592n47046J82005F76651J342486K83363p33831F30795A81816
2183e36929a64178F72017b5805r45588k82197d12866k53205n16236K67345H146
2172G59297Q35916J324235K75734r32614A076224D43253J65861A06018c69329
2162a225307o1202b53180G70698K3082k18633A25242i34670m03000f28714J00505
2152e28209A034N91662J6446A44534a234682n94629g97143E49262M58282Q41369
2142A848913P45437Q25074O16839n96272q22087k88538m46665K19042k64725p29642
2132A107376A99482f12359J5533c1546D63661F0002f10203R9521b40238a01300
2121g3932F3813a29696C36376I5801i49228Q5947b71429E49059O69326k24409
2111I93976l1380m72342A80802b67385A29095d59302n75488d83227J97089j27048
2101d13186n95605j37898M44709c3203H7849a48009l89569K5997B41567O26378
2091H67945j90104J51288P8334c5512q04987k09265K36754J66946q00586q92456
2081b339106L05689K47905J20405O74107d3991D84179J43846r7497d16381m60012
2071h76393L57705b2032A98185M21681N8929j44338j28784A06026R08O52298K59774
2060A019006l39600J58963k05851Q78257k04055D23778J55141M85878l62740a46421
2049a571359k40938Q77857I4009P57697k14594a38308j8704C42437R68687M18084
2039A729208G18956l8991J84390C03023K87611P93446O18663m88445p48365J83799
2029I49732L12688J85483J58679O117k33668l76166a10326n90344k67234P7797
2019h90107K05140K79758A88335J130336L71145o52320g0331p0481D06572J016476
2009A423048Q70609l79843l37062L15514K33727k70545l96070k93420O21463J18176
1999A905597I05948a98568O0681B54901K01436d35339o08496M11264J35768j90001
1989f86804d9245G27320k81468g84146j30775D5179O86118K86032k91955a47391
1978a208958K89067c753F10909J65648k19263a58515r58945n64516L53601M7234
1968a281141L88427E3924N72950R98873M90010A000735d38445o84223K02230N1432
1958h69006J14033l27717L9608L37592m80832k75315c98314A47127d77859l89918
1948h67777b17237C84504e76909j280505l58469N02292M55500e24910A69774L75733
1938E45507J70959L29067J74836l41143O85165M82678m23739n55507j29998l41304
1928E96521j019N15566N42048k65902a00463j134749L2553L44226K3666q4822
1918i19589c82823H71880M90306j72152q4983l10027B40846J72622J89725P9479
1908F82672n328e3001A22910A3691d41565j95234a48539G88001P69569J70413
1898A727983q62169l30643M8063k3035B71567a92653F90823Q72976J62937q36050
1888H90686G8774a66497b8439l52367C85187R00187E68708d46041m95543J73144
1878g68440b1346F52112Q97891L42498p65824h2402j261845k98825f16609B33226
1867A50748f09051n80507j8174e32855C99423L30890j00927j60814q2561K25768
1857F11779L70101j55234J62894O56638R99442L92212l58000j063970p00011C23896
1846B52938j24732M29843R02302J150418M9563j057206F22781k46499D5027f27993
1835a201016k18212e09791A29170K27062K06026k20138K76507k08825j07101K27249
1825E29950B02178J34128M3979o6934j41319a35906o39270l20400n1513J74498
1815i72591l95990J11892o0554l24482P4348N32726H49686J116721n58970F59827
1804F874b55326f6736B92681b65552k02683L0879J0313B07437O8827a38287n00462
1793f38749r52888n09706k21391M0406R41600e28593o83970q88456k73401Q74315
1783a500105K98688l49095K18278M70867G64941J155672n72351A6521f78062L01177
1773c76885A20346A9784c9967n45524J25935J08950j03032j36199j06584Q1172
1763f15249j0145k57255K34844J48996b41854C51625k8420b09699l87341n98746
1753a195786K85918L53047l6367a1322l22647j276066o23421r0158M25769l7192
1743a935037o61151j044628l68280j64800R41769J530521P43601d28065B25264
1733E72488j43344o3115B0778b75143c8109D8309N16687Q27872O6551j38316D03670
1721b20045A52828a4888m15784a21843A81568M65479Q30311o09088L21927k8163
1711A162034J76868M91810J050303O52594l92098n28915l00209P9112r0844j098967
1701A201688H51a216932n15660M71515N63448a85188h7868A428a59024I1873g7246
1689a0730m3588q46700o36417O05022b73287l32506L5566B33316O66416o5881
1679H33851n4545n6098N67440L11166L18522l77592m60757J47981l45530A83662
1668a49099k63783j59030a861A9508J95521b4684m30864J10928r7837o87652j39398
1657a269507L36042a36293L433l23731J57211J02531A14663E633h87549k55743
1647a143292l36304l28714m65404O66082b10578E66214M44165o9101K36893J068496
1637B246667l19362B56322a401803q17223J15603N86801N7537k8653m0091K70308
1627a257521d59959b23606k77090j91599n01004j08085k39311r1730n6943k57464
1617a946832O28410M13306j10522L11408b33644a07844C9262K57482M34193C59178
1606a90501m3972g9099k83326r03757f17587C96873N0160e2387q7954l55088m55348
1595i50777l1630b17091n92944m52632K23867R3896b74223I00057K082876M79596
1585C462529p93314r4255p95905H82008B12719a25386l7072A5080a59872m21031
1575e80903K82048G77308N95483j02594E65733b58920D4295i73572j580531l83882
1565b937985L28155J76341L39515K69380J87082K55083J48683n9391J22454M16382
1555g54301n82442k11267j60674N80885j43739k88916L53754d32398l7807k51880
1545g22085J9249k80817n85118j61987j64831J8789J55233M39698k22466n39716
1535b044051O27595f28158K42959b9213A34938K59584L07711Q98586K31622n86372
1525A246069j01176j75348J51934J87401J02534j7503k3900N30074J237003O64003
1515C801091m97559A336478g37875r64854k67506i51179a02673G2506b98931o10744
1505i09675J63807C35694P05952J35692L93327R886p55249h13109j174111K76724
1495a710496l62015j218300p31716O78291P21551N57065h13763B1353R9449Q5640
1485B06442M19318k93673K82679K95258k12092N23181M18198p27914G9079J83133
1475B62212P46543O81090Q89146M76714n761j159478m59446k26425k9902p466
1465A167227m95534B41108H2098d4558m38038m85925N9614L85933h4960C85525
1454H77964j74434B27571a88480p2534B00259a23476j009081l15648F460J510094
1444A516554R85021j12321r82698E64641b92279n00319o3874j48989d86763G34025
1433A419455M54542l54550m90377f3172q89028k62559l91128K54635f56115J98394
1423d57721R5154j66388j68204j52959j5981n79101L83039L58075J33897J72220
1413c97969a62464B37027e3831k05395l3113F4186j8789h99263r01725N15513
1403a285475O13594k99849R1123E45123J147020n04200B51608a87716p77602n96273
1393a561591p9932P25153a99497e3397o37282q9269J46578K08503j1672F87142
1382A351475k20387J21734n87401e43368R1022C61627J183326P09168O22859N35788
1372C412768m3420k10826l38538k46271j30823o05227l47761j13787m09491J32523
1362A099147L5823N06698J223063O73674l25303r41314k60952Q0019l19827p41739
1352A029289C14292a80065d7547n96659p33688o43144K42039c03943C39194A30558
1341D35951J113601N95486Q71014j68814m20738l90518r93467C50637M7183P00493
1331A098313K45631E09993H1663L17509M67274C79926H2138c73188p13265O9057
1321a017396R5984R723n28884j97116M25757L06198i6168D62993J87557Q4522
1311G35072A88735a474137n96965M4998M3587L79261e97540G11216J388948N97026
1301B697190l30413p92601n49874l08049K6805M96218K32644l66865p7704O77751
1291A705102M83930m56442D52635g06810c53237E16312M08316k19188k70602j38244
1281B96594j1670c74735j278744j93749d64700K16139k70151D17535M84673A94137
1270a040616p71169J69872K43069M72203J39508j97881Q3419k13518o99254K45908
1260a568459L09244r4235e96032J52048J11276r62366n15614N43770f27571k5010
1250f52581m83565n98990n01859J091209d37043I0149O95521M05828m71929g47730
1239h76404g8005D2508N3302P79123L89874D57562a75012N9947A99125L4743B227
1227f1285E28626M26810M764B36502C286M84303J30350c25448j015602L94183
1217i46867m37451j82539J2752j24954k06996n6343q70487J88640M05943R2070
1207b126232p4871O32595f93522l22826m39532M72784k05958l60360m46886O0462
1197a935838O10711N85904O3488l22559c86712H81176K22238E47911c19013k60314
1187e79327a85667B29521K88554A09535f64176l24135e4291B52961c39262m54300
1177g93562j56314k58391l22296j98829K38889g15500B6853a12366o08067K30362
1167d90071A13032J347045J02436l22209k98721J62565j94834C05251j24290O63037
1157H43998j71314K96001O31541j60558p3653m03239a67115r08444J73138n749
1147i08170M48387G13354j0710a20522o10522a8760A301827M97442p55099k22902
1137H21268k91477i5665B10494Q73147P83952r2120B45846d77041k52396j42802
1127h72239L95982J78137m2798j11437m77882l09233d29090D79991L96901q8146
1117G88746M40634O0280D76855b39946j9788A020356J101198J59595o33226p79978
1107H67945C55417M67589M06569k26723D20473b5425o8490C14345Q43676Q86527
1097B044548o94531B39864f89516j2890m57814o91412k6713m6656j69098j29819
1087b223918P11223Q0275m41941Q21693j89710q64309R040M67924P62876L9799
1077h27048m78461l61903J39244M71919M53864b71637A74289M26238M91264K33166
1067A324957j71278D91573a399742j807819p6156R05951M84089P17192C9551O80320
1057G19871M4813J9945K8831A76760a92072A56277K48484L87623n2783j82307
1047E57294c62476p85919k01738K24143N621N51344K03153k94189J29483E29466
1036A388693K32616o6030o74874B37104d09955l21383J62593P8639l58283l00826
1026a149215e30137I1490f47548j49368C58319O49395L69247l306E68356f24891
1015i43879J60119c42775c1249q00554j055732j38901P56344c60781E81778M67242
1005A049020C30400h44231j73490j14103k4036J58250d19565E62782K55192l16165
995E01809J55760K4798j04953M25388K89292j70365B27418B292f2571j090501
985a153072o34404L93565n5439k43477L64870J74846M14364j82331n87533m37856
975a946467N20420c93651G61728J003865M73715N6017q89027D59394J4199A53816
964h15461J64504C5833J102740O69591l50361k59510J51815M06160G55414d44396
953e69103k09732c19066e1979o56828m47097k32512i7995I59059j33381l91685
943D33993g772q61606m47572q87663P53665O14777k5994L69781i7654A123332
932A042324m42203c26508j140185j9341K0694M26391b03342D69123N57729l38534
922F88318H6458b37765A40984P7107a2005E08432K59159O9539B17156h24050n88725
911a412775J17543j56861N02176d4781k96379j16602K10526k11901j072354n26336
901b057827j17171k98494j65192j8098J54502R73987K00285k30089O87258A54978
890b80985m22128l29397j17311K19996L79679l9750A11354L10806K16084K57778
880H96022l23162j63577O69777j97240C12184e4595B11786P01241J55530j02433
870I66124k4580Q2008m47881A42386i73756m69031O03561L39336g2786D71776
859C86424a69751j57553D90145M83768k76312J6839Q614j42233O22440O91149
849A894410l9727l41340j82569K53195j92270l94392J67370P30822R3091J72276
839B160866k9279L1739k73427k79702K9688K5206K82134k11036o91620B35583
828e64215l15552c72274j68582l18060O1562n15169n05091N52593c87567C10917
817H22833K85825k35218C16972d94146k44948m98844L489k61530l21048J73434
807a643593K53723L64871j69646l87795g02863F57367L22811D44263b02680l05419
797e08099b17516j16212l0620p90880j214107l55152O2172Q7839a229476c58424
786e89690j266758k20722L72959k55607k52649M31174n89297m98467N85271Q37490
776a446296n8165K16052e58599D45801M36568P5833j29662j53336P663R739R4455
765G87061L39048J036363J07217j017272D93142H2410c74959n01674n15137M27381
755i64389G33729M63495k91505M97014L66773q61698a6797G9839M76085R7503
745F53427K07225K36587D12885O3844L63390r2273c09900p65848J67080d06274
734A76986J49748M80803K5571k53699j50845k07876J69869j63741a89185e4941
723E3572k0002M5320c27690p63073K12921b78185J33723p43594j198555o76390
713b763001K38116M20164M57908P29168c05660H9413a50021n10296p92983l46937
703a800237l6895O359k9496P0822n00023m71453M79992M23556j82432l19296N97705
692a761398N63136K80583b59239D50016j697J66199L05467l23409r6717B14615
681b68947o40207m12267P3581K36785Q5067l10032J16867N25119l93944l16769
671a304747p6698K1026L69512b82357a14271n49415m19997j55818p54680J2148
661a982033O29074a32923F74308M45493j12964k19634p9294J11508j82941O0237
651F96713k10632b3670p90771j082794J32649c48538H49182K75162m47224l18466
641C58654J49090K45519j19380k68292D4057c09978m64067j4931K45321J36512
631d07143D3779P41568l40705b04739B6205O21672K56215n1741k3289K54625C97036
619c08209o67817l10245j38886J05658a71996D17966h8414p53961m12190N917
609a248648J38908j76729j97723K48261K18313o51860p79816K94286i64961a40733
598c28013n83750n18453O28512J03851o4339a25266l05841o27592j06582J21646
588a043635K823o09844o27152M43648d46380E49775p0205g38061p24851M85710
578i77202d35736L4362l40578K31710M0946a14936A029409J064656m63092G22682
567D93455L02770N85450K33805m6741k31444j68470K15497E66003H953b0074m92938
556e13012j100579j202130K24501R73047e83700K42897k75531j3117r1562p51514
546a472527q02925J51620M30177j43807O64318D80378k7115d23981o73571O7493
536a030059c84194k52193k65618K62728J94028q2794a43208A79317b35318r0673
526c25991D85007K35250a64607j90508j11139o37771k08193J2313M29146p27650
516a598409m89650R32474a80335A39481f9268l53675l22350l09819j99719l27668
506a582499K44182f66678i9426E50613L10645l01045D7198h11040p5697J42552
496g44185p3020K87479g2596B20385D7884e62085m17037q9601C84374J620465
486B004839O71567k73192m58645n38026g7637j284774J8823f1588H06336a47905
475i85484k93684J54106b04816j29845k85295n75297q14659l69774K05542O93182
465a480962M65567M81711n9534K34558F97145O40486N52427K91947n48245G78388
454C80781n9758J06568M59521j73318j14463R2881j29337d682m65310j76200J7990
443f28202J27624J49356o80600j29566e50517I9887N6935g42673j129437l54982
433b227092P29650a75183C12667e07454l26237L29749a49871L1869n1499n59948
423g29449k92138J00617k26343L77825K56525A13653a83018r38668q311M96089
413f33908j07690k27851M54084P8743j1966r8816j062140q62845J82987R51052
403a338350M16176k07885k17001o9584k34816M19245d28316A23967M08710Q14407
393A347084l3800B71110i60354j168687j93482R93458f48023m3803L44274g2715
382d5586H73012J023775O59026J31539p19811o63705j07119k16262k03880k81589
372D94986A52247b65829l43154k6991K6801k86452O9650K11241a94181E05258
361F68799j80275j4386A64669c6111C0489b09579j061097J22203O1702L2094n24241
350a578918j320438p85345N48061J357116q1271p41984J79744R06413f86064e3742
339F45241L40361R7609M65945L73776j46515K03701l24100o40033C76135b0372
328B66222K39765A68567m8784a42566j87474J50125k1612n92715l52593K48543
318h98292L18414j21787L04017g5659l70227l88643L44240j95738K01502D13254
307B54637e69570o33622o77599N49115f61785N1572l53251J26458K51443K06626
297c78937d6411A89072c24035k22247j7972h4650o76835j84782Q0747J95103J80557
286d89860i2571c1387j028500m77457n08375J65396h67333A71819c10453m17843
276g28296l5533L2072l64665n32334J00764K86214e71269C76490J39295B13207
265A86911K25215K22721A80002d99258M2937A6391a1186D89473M71474N06510
255A467457J00474j70249j74548J21632K47369K7556m31542k66492G7112a011749
244h68715a58797C5310f74055p30060o57737O02487f79947f7664D19681b6847
233a18667H44852P57206k18047o01028l79493J51512l5091A71682N98119O15901
223A385702F59697B41254b58724m77055q0058P4133k2754k45022j42087m85757
213a637324m52719n08390J30018R72976e73020D2821j040b33217e7255K2262m50887
202d85880l44007b39931C64470D5478g37485k58821m59423r07194j02148J57068
192b308003K07258R4606i47647c31020e376r6520k02743j92361f2938B80969d1157
180g09625m33042j64919j28892k42882K75237f93127E02280N63597k18306i5970
169d79641J36360n1936p3146a58586C60588K91525A481b89393b4894F92600K79556
158I72156m79748K42725L590B77989b13659m4710m8484l13819k41087L38392L5529
147d87838m54473j85028L63052I5618N95007L01920j91136l89793p9943O860j25488
136B13045L93442O63527k23261O8779K57493l49755m67304B02843a20180C99730
125A235964l84639B85048a28859m81052J30138e6566B21257d7410E6213L41386
115C97599K24440q1958A72287a94267j20038J12648k70748a90161O3204o36991
105g63948L78552I6755h9888n35002q9743m1990j8669L67705r0486n33662m02343
94a434078r3309L93493d66662i2128k34501n05254m43007L78093L97048k91622
84g91371o4911M0897K7265k12827j50120K03581b84233C32929G6069b09357j17811
73c27168R307k17195l54918L05086E4185J62134b68099n78425l12162J8641b45726
61C37518g6798p71521j130369n42095N43523O57639P0793q7686P7810k32649M87760
50a003593L60527Q3126N0412r3627j86768O5184J89458k37236J20444a61000E59995
38H23178J00571l20511G8293b97199m40388j15673M20209C20569M04902K15436
28I40907J28869J2814k50659k46416L76840k14373B84954j04083a85721o05447
18g91168J28256A45987K54597a8618q143j89355B31389Q0861j28347Q2936N45740
7H12579j61709B37083b4100m57541n21777M9738K13671
0g40009
##END=
