##TITLE=13C-DEPT135: A_Laurent_190525 13/1 Sample 2 in d2o, 298 K
.
CH, CH3 up; CH2 down; C(q) zero
##JCAMPDX= 6.0         $$ Bruker NMR JCAMP-DX V2.0
##DATA TYPE= NMR SPECTRUM
##DATA CLASS= XYDATA
##ORIGIN= Bruker BioSpin GmbH
##OWNER= aci
##LONG DATE= 2025/05/19 11:52:03+0000
$$ TopSpin 5.0.0
$$ 2026-09-17 13:15:11.741 +0200  matthias@Matthiass-MacBook-Pro.local
$$ Compression mode = diff/dup
##.OBSERVE FREQUENCY= 125.8019787
##.OBSERVE NUCLEUS= ^13C
##.ACQUISITION MODE= SIMULTANEOUS (DQD)
##.ACQUISITION SCHEME= undefined
##.AVERAGES= 12
##.DIGITISER RES= 21
##SPECTROMETER/DATA SYSTEM= spect
##.PULSE SEQUENCE= deptsp135
##.SOLVENT NAME= D2O
##.SHIFT REFERENCE= INTERNAL, D2O, 1, 235.6402
##AUDIT TRAIL= $$ (NUMBER, WHEN, WHO, WHERE, PROCESS, VERSION, WHAT)
$$ ##TITLE= Audit trail, TopSpin 3.5 pl 7
$$ ##JCAMPDX= 5.01
$$ ##ORIGIN= Bruker BioSpin GmbH
$$ ##OWNER= aci
$$ $$ /opt/topspin3.2/data/aci/nmr/A_Laurent_190525/13/pdata/1/auditp.txt
$$ ##AUDIT TRAIL=  $$ (NUMBER, WHEN, WHO, WHERE, PROCESS, VERSION, WHAT)
(   1,<2025-05-19 13:51:03.458 +0200>,<aci>,<chem-nmr500>,<go4>,<TopSpin 3.5.7>,
      <acquisition in progress>)
(   2,<2025-05-19 13:52:06.625 +0200>,<aci>,<chem-nmr500>,<proc1d>,<TopSpin 3.5.7>,
      <Start of raw data processing
       efp LB = 1 FT_mod = 6 PKNL = 1 PHC0 = -260.7729 PHC1 = -160.55 SI = 64K 
       data hash MD5: 64K
       14 9A FE 84 1B 00 70 4F 19 97 35 62 EA 4C EE 29>)
(   3,<2025-05-21 12:01:31.614 +0200>,<aci>,<chem-nmr500>,<disknew>,<TopSpin 3.5.7>,
      <processed data deleted>)
$$ $$ /Users/matthias/Documents/NMR/NMR Spectra/Data Stuff/Guvacine/13/pdata/1/auditp.txt
(   4,<2026-09-15T13:50:41.545+0200>,<matthias>,<Matthiass-MacBook-Pro.local>,<proc1d>,<TopSpin 5.0.0>,
      <Start of raw data processing
       em LB = 1 SI = 64K
       fid data hash MD5: 87496
       E4 2D F2 15 57 F5 CC D1 23 70 9A FB CB 51 0C EB
       data hash MD5: 64K
       14 FA 1E 45 5A D3 86 5B 1B 6B 04 C7 8C 14 AA 7E>)
(   5,<2026-09-15T13:50:41.634+0200>,<matthias>,<Matthiass-MacBook-Pro.local>,<proc1d>,<TopSpin 5.0.0>,
      <ft FT_mod = 6 PKNL = 1 SI = 64K
       data hash MD5: 64K
       76 E1 70 E6 51 28 10 43 55 38 23 C1 8B 6C E3 CA>)
(   6,<2026-09-15T13:50:41.771+0200>,<matthias>,<Matthiass-MacBook-Pro.local>,<proc1d>,<TopSpin 5.0.0>,
      <apk
       data hash MD5: 64K
       AD 81 96 A7 C1 9B D8 3A 50 C9 3A 17 C1 38 98 67>)
(   7,<2026-09-15T13:50:41.856+0200>,<matthias>,<Matthiass-MacBook-Pro.local>,<proc1d>,<TopSpin 5.0.0>,
      <abs n ABSG = 5
       data hash MD5: 64K
       EB 24 28 6E FB 6D 92 50 24 B6 61 B2 41 1C F4 42>)
$$ ##END=
$$ 
$$ $$ hash MD5
$$ $$ 4A 19 4B F8 AC 40 02 16 53 EB EC 3D 85 2A 14 30
##$RELAX= 
##$BRUKER FILE EXP=cpdprg2
$$ 1 pcpd*3:180
$$   pcpd*4:0
$$   pcpd*2:180
$$   pcpd*3:0
$$   pcpd  :180
$$   pcpd*2:0
$$   pcpd*4:180
$$   pcpd*2:0
$$   pcpd*3:180
$$ 2 pcpd*3:0
$$   pcpd*4:180
$$   pcpd*2:0
$$   pcpd*3:180
$$   pcpd  :0
$$   pcpd*2:180
$$   pcpd*4:0
$$   pcpd*2:180
$$   pcpd*3:0
$$   lo to 2 times 2
$$ 3 pcpd*3:180
$$   pcpd*4:0
$$   pcpd*2:180
$$   pcpd*3:0
$$   pcpd  :180
$$   pcpd*2:0
$$   pcpd*4:180
$$   pcpd*2:0
$$   pcpd*3:180
$$   jump to 1
##$RELAX= 
##$BRUKER FILE EXP=format.temp
$$ EDIT_PAR COMMAND FILE
$$ 
$$ DI_MODE         LONG
$$ ED_ENTRY        ACQU
$$ ORDER           FILE
$$ 
$$ 
$$ HEADER		"F2 - Acquisition Parameters"
$$ T_NAME		Date_
$$ 		TYPE	R64
$$ 		CLASS	ACQU
$$ 		SUBRANGE 0.0 50000000
$$ 		REL	"Date_=itodate(DATE)"
$$ 		INV_REL	"DATE=datetoi(Date_,DATE)"
$$ 		FORMAT	"%14.0f"
$$ 		TEXT	" "
$$ END
$$ T_NAME		Time
$$ 		TYPE	R32
$$ 		CLASS	ACQU
$$ 		SUBRANGE 0.0 1000000
$$ 		REL	"Time=itotime(DATE)"
$$ 		INV_REL	"DATE=timetoi(Time,DATE)"
$$ 		FORMAT	"%14.2f h"
$$ 		TEXT	" "
$$ END
$$ NAME		INSTRUM
$$ 		TEXT	" "
$$ END
$$ NAME		PROBHD
$$ 		FORMAT	"%14.14s"
$$ 		TEXT	" "
$$ END
$$ NAME		PULPROG
$$ 		TEXT	" "
$$ END
$$ NAME		TD
$$ 		TEXT	" "
$$ END
$$ NAME		SOLVENT
$$ 		TEXT	" "
$$ END
$$ NAME		NS
$$ 		TEXT	" "
$$ END
$$ NAME		DS
$$ 		TEXT	" "
$$ END
$$ T_NAME		SWH
$$ 		TYPE	R32
$$ 		CLASS	ACQU
$$ 		SUBRANGE 0.0 1e8
$$ 		REL	"SWH=SW*SFO1"
$$ 		INV_REL "SW=SWH/SFO1"
$$ 		UNIT	"Hz"
$$ 		FORMAT	"%14.3f Hz"
$$ 		TEXT	" "
$$ END
$$ T_NAME          FIDRES
$$                 TYPE    R32
$$                 CLASS   ACQU
$$                 SUBRANGE 0.0 100000
$$                 REL     "FIDRES=2*SW*SFO1/TD"
$$                 INV_REL "TD = nextpow(2*SW*SFO1/FIDRES)"
$$ 		UNIT	"Hz"
$$ 		FORMAT	"%14.6f Hz"
$$ 		TEXT	" "
$$ END
$$ T_NAME          AQ
$$ 		TYPE	R32
$$ 		CLASS	ACQU
$$ 		SUBRANGE 0.0 1000
$$ 		REL	"AQ=aqcalc(SW,SFO1,TD,DIGTYP)"
$$ 		INV_REL	"TD=tdcalc(SW,SFO1,1.0e6*AQ,DIGTYP)"
$$ 		UNIT	"sec"
$$ 		FORMAT	"%14.7f sec"
$$ 		TEXT	" "
$$ END
$$ NAME		RG
$$ 		TEXT	" "
$$ END
$$ T_NAME          DW
$$ 		TYPE	R32
$$ 		CLASS	ACQU
$$ 		SUBRANGE 0.0 1000000
$$ 		REL	"DW=1/(2*SW*SFO1)"
$$ 		INV_REL	"SW=1000000/(2*(0.005+DW)*SFO1)"
$$ 		UNIT	"usec"
$$ 		FORMAT	"%14.3lf usec"
$$ 		TEXT	" "
$$ END
$$ NAME		DE
$$ 		FORMAT	"%14.2f usec"
$$ 		TEXT	" "
$$ END
$$ NAME		TE
$$ 		FORMAT	"%14.1f K"
$$ 		TEXT	" "
$$ END
$$ T_NAME		CNST2
$$ 		TYPE	R32
$$ 		CLASS	ACQU
$$ 		SUBRANGE -1e38 1e38
$$ 		REL	"CNST2=CNST[2]"
$$ 		INV_REL	"CNST[2]=CNST2"
$$ 		FORMAT	"%14.7f"
$$ 		TEXT	" "
$$ END
$$ T_NAME		D1
$$ 		TYPE	R32
$$ 		CLASS	ACQU
$$ 		SUBRANGE 0.0 1e38
$$ 		REL	"D1=D[1]"
$$ 		INV_REL	"D[1]=D1"
$$ 		UNIT	"sec"
$$ 		FORMAT	"%14.8f sec"
$$ 		TEXT	" "
$$ END
$$ T_NAME		D2
$$ 		TYPE	R32
$$ 		CLASS	ACQU
$$ 		SUBRANGE 0.0 1e38
$$ 		REL	"D2=D[2]"
$$ 		INV_REL	"D[2]=D2"
$$ 		UNIT	"sec"
$$ 		FORMAT	"%14.8f sec"
$$ 		TEXT	" "
$$ END
$$ T_NAME		D12
$$ 		TYPE	R32
$$ 		CLASS	ACQU
$$ 		SUBRANGE 0.0 1e38
$$ 		REL	"D12=D[12]"
$$ 		INV_REL	"D[12]=D12"
$$ 		UNIT	"sec"
$$ 		FORMAT	"%14.8f sec"
$$ 		TEXT	" "
$$ END
$$ NAME		TD0
$$ 		TEXT	" "
$$ END
$$ NAME		SFO1
$$ 		FORMAT	"%14.7f MHz"
$$ 		TEXT	" "
$$ END
$$ NAME		NUC1
$$ 		NONEDIT
$$ 		TEXT	" "
$$ END
$$ T_NAME		P1
$$ 		TYPE	R32
$$ 		CLASS	ACQU
$$ 		SUBRANGE 0.0 1.0e10
$$ 		REL	"P1=P[1]"
$$ 		INV_REL	"P[1]=P1"
$$ 		UNIT	"usec"
$$ 		FORMAT	"%14.2f usec"
$$ 		TEXT	" "
$$ END
$$ T_NAME		P13
$$ 		TYPE	R32
$$ 		CLASS	ACQU
$$ 		SUBRANGE 0.0 1.0e10
$$ 		REL	"P13=P[13]"
$$ 		INV_REL	"P[13]=P13"
$$ 		UNIT	"usec"
$$ 		FORMAT	"%14.2f usec"
$$ 		TEXT	" "
$$ END
$$ T_NAME		PLW0
$$ 		TYPE	R32
$$ 		CLASS	ACQU
$$ 		REL	"PLW0=PLW[0]"
$$ 		INV_REL	"PLW[0]=PLW0"
$$ 		UNIT	"W"
$$ 		FORMAT	"%14.8f W"
$$ 		TEXT	"power PLW0 "
$$ END
$$ T_NAME		PLW1
$$ 		TYPE	R32
$$ 		CLASS	ACQU
$$ 		REL	"PLW1=PLW[1]"
$$ 		INV_REL	"PLW[1]=PLW1"
$$ 		UNIT	"W"
$$ 		FORMAT	"%14.8f W"
$$ 		TEXT	"power PLW1 "
$$ END
$$ NAME		SPNAM[5]
$$ 		TEXT	" "
$$ END
$$ T_NAME		SPOAL5
$$ 		TYPE	R32
$$ 		CLASS	ACQU
$$ 		SUBRANGE -1.0 1.0
$$ 		REL	"SPOAL5=SPOAL[5]"
$$ 		INV_REL	"SPOAL[5]=SPOAL5"
$$ 		FORMAT	"%14.3f"
$$ 		TEXT	" "
$$ END
$$ T_NAME		SPOFFS5
$$ 		TYPE	R32
$$ 		CLASS	ACQU
$$ 		SUBRANGE -1e38 1e38
$$ 		REL	"SPOFFS5=SPOFFS[5]"
$$ 		INV_REL	"SPOFFS[0]=SPOFFS0"
$$ 		UNIT	"Hz"
$$ 		FORMAT	"%14.2f Hz"
$$ 		TEXT	" "
$$ END
$$ T_NAME		SPW5
$$ 		TYPE	R32
$$ 		CLASS	ACQU
$$ 		REL	"SPW5=SPW[5]"
$$ 		INV_REL	"SPW[5]=SPW5"
$$ 		UNIT	"W"
$$ 		FORMAT	"%14.8f W"
$$ 		TEXT	"shaped pulse power SPW5"
$$ END
$$ NAME		SFO2
$$ 		FORMAT	"%14.7f MHz"
$$ 		TEXT	" "
$$ END
$$ NAME		NUC2
$$ 		NONEDIT
$$ 		TEXT	" "
$$ END
$$ NAME		CPDPRG[2]
$$ 		TEXT	" "
$$ END
$$ T_NAME		P3
$$ 		TYPE	R32
$$ 		CLASS	ACQU
$$ 		SUBRANGE 0.0 1.0e10
$$ 		REL	"P3=P[3]"
$$ 		INV_REL	"P[3]=P3"
$$ 		UNIT	"usec"
$$ 		FORMAT	"%14.2f usec"
$$ 		TEXT	" "
$$ END
$$ T_NAME		P4
$$ 		TYPE	R32
$$ 		CLASS	ACQU
$$ 		SUBRANGE 0.0 1.0e10
$$ 		REL	"P4=P[4]"
$$ 		INV_REL	"P[4]=P4"
$$ 		UNIT	"usec"
$$ 		FORMAT	"%14.2f usec"
$$ 		TEXT	" "
$$ END
$$ T_NAME		PCPD2
$$ 		TYPE	R32
$$ 		CLASS	ACQU
$$ 		SUBRANGE 0 1e38
$$ 		REL	"PCPD2=PCPD[2]"
$$ 		INV_REL	"PCPD[2]=PCPD2"
$$ 		UNIT	"usec"
$$ 		FORMAT	"%14.2f usec"
$$ 		TEXT	" "
$$ END
$$ T_NAME		PLW2
$$ 		TYPE	R32
$$ 		CLASS	ACQU
$$ 		REL	"PLW2=PLW[2]"
$$ 		INV_REL	"PLW[2]=PLW2"
$$ 		UNIT	"W"
$$ 		FORMAT	"%14.8f W"
$$ 		TEXT	"power PLW2 "
$$ END
$$ T_NAME		PLW12
$$ 		TYPE	R32
$$ 		CLASS	ACQU
$$ 		REL	"PLW12=PLW[12]"
$$ 		INV_REL	"PLW[12]=PLW12"
$$ 		UNIT	"W"
$$ 		FORMAT	"%14.8f W"
$$ 		TEXT	"power PLW12 "
$$ END
##$RELAX= 
##$BRUKER FILE EXP=scon2
$$ ##TITLE= Parameter file, TopSpin 3.5 pl 7
$$ ##JCAMPDX= 5.0
$$ ##DATATYPE= Parameter Values
$$ ##NPOINTS= 1	$$ modification sequence number
$$ ##ORIGIN= Bruker BioSpin GmbH
$$ ##OWNER= aci
$$ $$ 2025-05-19 13:51:03.315 +0200  aci@chem-nmr500
$$ $$ /opt/topspin3.2/data/aci/nmr/A_Laurent_190525/13/scon2
$$ $$ process /opt/topspin3.5pl7/prog/mod/go4
$$ ##$BLKTR= (0..19)
$$ 3 3 3 3 3 3 3 3 3 3 3 3 3 3 3 3 3 3 3 3
$$ ##$DE1= 4.5
$$ ##$DEADC= 0.5
$$ ##$DEPA= 4.5
$$ ##$DERX= 1.5
$$ ##$FILCOR= 0
$$ ##$GRADCHAN= 0
$$ ##$GRADPRE= (0..1)
$$ 10 10
$$ ##$HD_BLKTR= (0..19)
$$ 1 1 1 1 1 1 1 1 1 1 1 1 1 1 1 1 1 1 1 1
$$ ##$HD_DE1= 5
$$ ##$HD_DEADC= 0
$$ ##$HD_DEPA= 2.5
$$ ##$HD_DERX= 0
$$ ##END=
##$RELAX= 
##$BRUKER FILE EXP=acqum
$$ ##TITLE= Parameter file, TopSpin 3.5 pl 7
$$ ##JCAMPDX= 5.0
$$ ##DATATYPE= Parameter Values
$$ ##NPOINTS= 1	$$ modification sequence number
$$ ##ORIGIN= Bruker BioSpin GmbH
$$ ##OWNER= aci
$$ $$ 2025-05-19 13:21:01.716 +0200  aci@chem-nmr500
$$ $$ /opt/topspin3.2/data/aci/nmr/A_Laurent_190525/13/acqum
$$ $$ process /opt/topspin3.5pl7/prog/mod/edparproc
$$ ##$COMMENT= <>
$$ ##$ECF= 1
$$ ##$ECHOLST= (0..15)
$$ 1 1 1 1 1 1 1 1 1 1 1 1 1 1 1 1
$$ ##$ECOLLST= (0..15)
$$ 1 1 1 1 1 1 1 1 1 1 1 1 1 1 1 1
$$ ##$FLIPA= 0
$$ ##$FOV1= 0
$$ ##$FOV2= 0
$$ ##$FOV3= 0
$$ ##$FRARE= 1
$$ ##$HEADER= <>
$$ ##$INSTIT= <>
$$ ##$METHOD= <>
$$ ##$NECHOES= 1
$$ ##$NPROJEC= 1
$$ ##$NSLICES= 1
$$ ##$PATPOS= 0
$$ ##$RUNEXAM= -1
$$ ##$SDIST= 1
$$ ##$SOANGLE= 0
$$ ##$SORIENT= 0
$$ ##$SOT= <>
$$ ##$SPOS= 0
$$ ##$SPOSDIR= <>
$$ ##$STHICK= 3
$$ ##$T2DIST= 30
$$ ##$TINV= 50
$$ ##$TREC= 2700
$$ ##$TREP= 3000
$$ ##$TSCAN= 50000
$$ ##END=
##$RELAX= 
##$BRUKER FILE EXP=spnam5
$$ ##TITLE= sm. comp. Chirp: 60kHz, 2ms
$$ ##JCAMP-DX= 5.00 Bruker JCAMP library
$$ ##DATA TYPE= Shape Data
$$ ##ORIGIN= Bruker BioSpin GmbH
$$ ##OWNER= <demo>
$$ ##DATE= 2005/09/22
$$ ##TIME= 18:40:13
$$ ##$SHAPE_PARAMETERS= Type: CompositeSmoothedChirp Add Const. Phase -84.0
$$ ##MINX= 0.000000E00
$$ ##MAXX= 1.000000E02
$$ ##MINY= 1.110750E-01
$$ ##MAXY= 3.599617E02
$$ ##$SHAPE_EXMODE= CompositeAdiabatic
$$ ##$SHAPE_TOTROT= 1.800000E02
$$ ##$SHAPE_TYPE= Refocussing
$$ ##$SHAPE_USER_DEF= 
$$ ##$SHAPE_REPHFAC= 
$$ ##$SHAPE_BWFAC= 8.099400E01
$$ ##$SHAPE_BWFAC50= 
$$ ##$SHAPE_INTEGFAC= 2.558317E-02
$$ ##$SHAPE_MODE= 0
$$ ##NPOINTS= 4000
$$ ##XYPOINTS= (XY..XY)
$$ 0.000000E00, 1.833013E02
$$ 7.893367E-01, 1.779122E02
$$ 1.578624E00, 1.725338E02
$$ 2.367813E00, 1.671662E02
$$ 3.156855E00, 1.618093E02
$$ 3.945700E00, 1.564633E02
$$ 4.734299E00, 1.511282E02
$$ 5.522603E00, 1.458037E02
$$ 6.310563E00, 1.404901E02
$$ 7.098130E00, 1.351873E02
$$ 7.885255E00, 1.298954E02
$$ 8.671888E00, 1.246142E02
$$ 9.457981E00, 1.193437E02
$$ 1.024348E01, 1.140841E02
$$ 1.102835E01, 1.088353E02
$$ 1.181253E01, 1.035973E02
$$ 1.259597E01, 9.837015E01
$$ 1.337863E01, 9.315375E01
$$ 1.416045E01, 8.794815E01
$$ 1.494139E01, 8.275335E01
$$ 1.572140E01, 7.756935E01
$$ 1.650044E01, 7.239615E01
$$ 1.727844E01, 6.723375E01
$$ 1.805537E01, 6.208215E01
$$ 1.883117E01, 5.694135E01
$$ 1.960579E01, 5.181135E01
$$ 2.037920E01, 4.669215E01
$$ 2.115134E01, 4.158375E01
$$ 2.192216E01, 3.648615E01
$$ 2.269161E01, 3.139935E01
$$ 2.345965E01, 2.632335E01
$$ 2.422623E01, 2.125815E01
$$ 2.499130E01, 1.620375E01
$$ 2.575481E01, 1.116015E01
$$ 2.651671E01, 6.127350E00
$$ 2.727697E01, 1.105350E00
$$ 2.803552E01, 3.560941E02
$$ 2.879233E01, 3.510937E02
$$ 2.954734E01, 3.461042E02
$$ 3.030052E01, 3.411253E02
$$ 3.105180E01, 3.361573E02
$$ 3.180115E01, 3.312001E02
$$ 3.254852E01, 3.262537E02
$$ 3.329386E01, 3.213182E02
$$ 3.403713E01, 3.163933E02
$$ 3.477828E01, 3.114793E02
$$ 3.551726E01, 3.065761E02
$$ 3.625402E01, 3.016837E02
$$ 3.698853E01, 2.968021E02
$$ 3.772073E01, 2.919314E02
$$ 3.845058E01, 2.870713E02
$$ 3.917804E01, 2.822221E02
$$ 3.990306E01, 2.773837E02
$$ 4.062559E01, 2.725561E02
$$ 4.134558E01, 2.677394E02
$$ 4.206301E01, 2.629333E02
$$ 4.277781E01, 2.581382E02
$$ 4.348994E01, 2.533537E02
$$ 4.419937E01, 2.485802E02
$$ 4.490604E01, 2.438174E02
$$ 4.560992E01, 2.390654E02
$$ 4.631095E01, 2.343241E02
$$ 4.700910E01, 2.295937E02
$$ 4.770431E01, 2.248741E02
$$ 4.839656E01, 2.201653E02
$$ 4.908579E01, 2.154674E02
$$ 4.977196E01, 2.107801E02
$$ 5.045503E01, 2.061038E02
$$ 5.113496E01, 2.014381E02
$$ 5.181170E01, 1.967834E02
$$ 5.248522E01, 1.921393E02
$$ 5.315546E01, 1.875062E02
$$ 5.382239E01, 1.828837E02
$$ 5.448597E01, 1.782721E02
$$ 5.514615E01, 1.736713E02
$$ 5.580290E01, 1.690813E02
$$ 5.645617E01, 1.645021E02
$$ 5.710592E01, 1.599337E02
$$ 5.775212E01, 1.553761E02
$$ 5.839471E01, 1.508293E02
$$ 5.903367E01, 1.462934E02
$$ 5.966895E01, 1.417682E02
$$ 6.030051E01, 1.372537E02
$$ 6.092832E01, 1.327501E02
$$ 6.155232E01, 1.282573E02
$$ 6.217250E01, 1.237754E02
$$ 6.278880E01, 1.193041E02
$$ 6.340118E01, 1.148438E02
$$ 6.400962E01, 1.103941E02
$$ 6.461407E01, 1.059553E02
$$ 6.521449E01, 1.015274E02
$$ 6.581085E01, 9.711015E01
$$ 6.640311E01, 9.270375E01
$$ 6.699124E01, 8.830815E01
$$ 6.757518E01, 8.392335E01
$$ 6.815492E01, 7.954935E01
$$ 6.873041E01, 7.518615E01
$$ 6.930162E01, 7.083375E01
$$ 6.986851E01, 6.649215E01
$$ 7.043105E01, 6.216135E01
$$ 7.098920E01, 5.784135E01
$$ 7.154293E01, 5.353215E01
$$ 7.209220E01, 4.923375E01
$$ 7.263698E01, 4.494615E01
$$ 7.317723E01, 4.066935E01
$$ 7.371292E01, 3.640335E01
$$ 7.424402E01, 3.214815E01
$$ 7.477049E01, 2.790375E01
$$ 7.529231E01, 2.367015E01
$$ 7.580943E01, 1.944735E01
$$ 7.632183E01, 1.523535E01
$$ 7.682948E01, 1.103415E01
$$ 7.733233E01, 6.843750E00
$$ 7.783037E01, 2.664150E00
$$ 7.832356E01, 3.584954E02
$$ 7.881187E01, 3.543373E02
$$ 7.929527E01, 3.501902E02
$$ 7.977373E01, 3.460537E02
$$ 8.024722E01, 3.419282E02
$$ 8.071571E01, 3.378133E02
$$ 8.117917E01, 3.337094E02
$$ 8.163757E01, 3.296161E02
$$ 8.209089E01, 3.255337E02
$$ 8.253909E01, 3.214621E02
$$ 8.298215E01, 3.174013E02
$$ 8.342003E01, 3.133514E02
$$ 8.385272E01, 3.093122E02
$$ 8.428019E01, 3.052837E02
$$ 8.470240E01, 3.012662E02
$$ 8.511934E01, 2.972593E02
$$ 8.553097E01, 2.932634E02
$$ 8.593728E01, 2.892781E02
$$ 8.633823E01, 2.853038E02
$$ 8.673380E01, 2.813401E02
$$ 8.712396E01, 2.773873E02
$$ 8.750870E01, 2.734453E02
$$ 8.788799E01, 2.695142E02
$$ 8.826180E01, 2.655938E02
$$ 8.863011E01, 2.616842E02
$$ 8.899290E01, 2.577854E02
$$ 8.935014E01, 2.538973E02
$$ 8.970182E01, 2.500202E02
$$ 9.004790E01, 2.461537E02
$$ 9.038838E01, 2.422981E02
$$ 9.072323E01, 2.384533E02
$$ 9.105242E01, 2.346193E02
$$ 9.137594E01, 2.307962E02
$$ 9.169376E01, 2.269838E02
$$ 9.200588E01, 2.231821E02
$$ 9.231226E01, 2.193914E02
$$ 9.261288E01, 2.156114E02
$$ 9.290774E01, 2.118421E02
$$ 9.319681E01, 2.080838E02
$$ 9.348008E01, 2.043361E02
$$ 9.375751E01, 2.005993E02
$$ 9.402911E01, 1.968733E02
$$ 9.429485E01, 1.931581E02
$$ 9.455471E01, 1.894537E02
$$ 9.480868E01, 1.857602E02
$$ 9.505675E01, 1.820774E02
$$ 9.529889E01, 1.784053E02
$$ 9.553510E01, 1.747442E02
$$ 9.576535E01, 1.710937E02
$$ 9.598963E01, 1.674542E02
$$ 9.620794E01, 1.638253E02
$$ 9.642025E01, 1.602074E02
$$ 9.662655E01, 1.566001E02
$$ 9.682683E01, 1.530037E02
$$ 9.702108E01, 1.494181E02
$$ 9.720928E01, 1.458434E02
$$ 9.739143E01, 1.422794E02
$$ 9.756751E01, 1.387261E02
$$ 9.773751E01, 1.351837E02
$$ 9.790142E01, 1.316521E02
$$ 9.805923E01, 1.281314E02
$$ 9.821093E01, 1.246213E02
$$ 9.835651E01, 1.211222E02
$$ 9.849597E01, 1.176337E02
$$ 9.862928E01, 1.141562E02
$$ 9.875646E01, 1.106893E02
$$ 9.887747E01, 1.072333E02
$$ 9.899233E01, 1.037881E02
$$ 9.910102E01, 1.003537E02
$$ 9.920354E01, 9.693015E01
$$ 9.929987E01, 9.351735E01
$$ 9.939002E01, 9.011535E01
$$ 9.947397E01, 8.672415E01
$$ 9.955173E01, 8.334375E01
$$ 9.962328E01, 7.997415E01
$$ 9.968863E01, 7.661535E01
$$ 9.974776E01, 7.326735E01
$$ 9.980069E01, 6.993015E01
$$ 9.984739E01, 6.660375E01
$$ 9.988787E01, 6.328815E01
$$ 9.992213E01, 5.998335E01
$$ 9.995016E01, 5.668935E01
$$ 9.997196E01, 5.340615E01
$$ 9.998754E01, 5.013375E01
$$ 9.999688E01, 4.687215E01
$$ 1.000000E02, 4.362135E01
$$ 1.000000E02, 4.038135E01
$$ 1.000000E02, 3.715215E01
$$ 1.000000E02, 3.393375E01
$$ 1.000000E02, 3.072615E01
$$ 1.000000E02, 2.752935E01
$$ 1.000000E02, 2.434335E01
$$ 1.000000E02, 2.116815E01
$$ 1.000000E02, 1.800375E01
$$ 1.000000E02, 1.485015E01
$$ 1.000000E02, 1.170735E01
$$ 1.000000E02, 8.575350E00
$$ 1.000000E02, 5.454150E00
$$ 1.000000E02, 2.343750E00
$$ 1.000000E02, 3.592442E02
$$ 1.000000E02, 3.561554E02
$$ 1.000000E02, 3.530773E02
$$ 1.000000E02, 3.500102E02
$$ 1.000000E02, 3.469537E02
$$ 1.000000E02, 3.439082E02
$$ 1.000000E02, 3.408734E02
$$ 1.000000E02, 3.378493E02
$$ 1.000000E02, 3.348362E02
$$ 1.000000E02, 3.318337E02
$$ 1.000000E02, 3.288422E02
$$ 1.000000E02, 3.258613E02
$$ 1.000000E02, 3.228914E02
$$ 1.000000E02, 3.199322E02
$$ 1.000000E02, 3.169838E02
$$ 1.000000E02, 3.140461E02
$$ 1.000000E02, 3.111193E02
$$ 1.000000E02, 3.082033E02
$$ 1.000000E02, 3.052981E02
$$ 1.000000E02, 3.024038E02
$$ 1.000000E02, 2.995201E02
$$ 1.000000E02, 2.966474E02
$$ 1.000000E02, 2.937853E02
$$ 1.000000E02, 2.909342E02
$$ 1.000000E02, 2.880937E02
$$ 1.000000E02, 2.852642E02
$$ 1.000000E02, 2.824453E02
$$ 1.000000E02, 2.796373E02
$$ 1.000000E02, 2.768402E02
$$ 1.000000E02, 2.740537E02
$$ 1.000000E02, 2.712782E02
$$ 1.000000E02, 2.685133E02
$$ 1.000000E02, 2.657594E02
$$ 1.000000E02, 2.630161E02
$$ 1.000000E02, 2.602838E02
$$ 1.000000E02, 2.575622E02
$$ 1.000000E02, 2.548513E02
$$ 1.000000E02, 2.521513E02
$$ 1.000000E02, 2.494621E02
$$ 1.000000E02, 2.467838E02
$$ 1.000000E02, 2.441161E02
$$ 1.000000E02, 2.414593E02
$$ 1.000000E02, 2.388133E02
$$ 1.000000E02, 2.361781E02
$$ 1.000000E02, 2.335537E02
$$ 1.000000E02, 2.309401E02
$$ 1.000000E02, 2.283374E02
$$ 1.000000E02, 2.257454E02
$$ 1.000000E02, 2.231642E02
$$ 1.000000E02, 2.205938E02
$$ 1.000000E02, 2.180342E02
$$ 1.000000E02, 2.154853E02
$$ 1.000000E02, 2.129473E02
$$ 1.000000E02, 2.104201E02
$$ 1.000000E02, 2.079038E02
$$ 1.000000E02, 2.053982E02
$$ 1.000000E02, 2.029034E02
$$ 1.000000E02, 2.004194E02
$$ 1.000000E02, 1.979462E02
$$ 1.000000E02, 1.954838E02
$$ 1.000000E02, 1.930322E02
$$ 1.000000E02, 1.905913E02
$$ 1.000000E02, 1.881613E02
$$ 1.000000E02, 1.857421E02
$$ 1.000000E02, 1.833337E02
$$ 1.000000E02, 1.809362E02
$$ 1.000000E02, 1.785494E02
$$ 1.000000E02, 1.761733E02
$$ 1.000000E02, 1.738082E02
$$ 1.000000E02, 1.714538E02
$$ 1.000000E02, 1.691101E02
$$ 1.000000E02, 1.667773E02
$$ 1.000000E02, 1.644553E02
$$ 1.000000E02, 1.621441E02
$$ 1.000000E02, 1.598437E02
$$ 1.000000E02, 1.575542E02
$$ 1.000000E02, 1.552753E02
$$ 1.000000E02, 1.530073E02
$$ 1.000000E02, 1.507502E02
$$ 1.000000E02, 1.485038E02
$$ 1.000000E02, 1.462681E02
$$ 1.000000E02, 1.440433E02
$$ 1.000000E02, 1.418293E02
$$ 1.000000E02, 1.396261E02
$$ 1.000000E02, 1.374338E02
$$ 1.000000E02, 1.352521E02
$$ 1.000000E02, 1.330814E02
$$ 1.000000E02, 1.309214E02
$$ 1.000000E02, 1.287722E02
$$ 1.000000E02, 1.266337E02
$$ 1.000000E02, 1.245061E02
$$ 1.000000E02, 1.223893E02
$$ 1.000000E02, 1.202833E02
$$ 1.000000E02, 1.181881E02
$$ 1.000000E02, 1.161037E02
$$ 1.000000E02, 1.140301E02
$$ 1.000000E02, 1.119673E02
$$ 1.000000E02, 1.099154E02
$$ 1.000000E02, 1.078741E02
$$ 1.000000E02, 1.058438E02
$$ 1.000000E02, 1.038241E02
$$ 1.000000E02, 1.018153E02
$$ 1.000000E02, 9.981735E01
$$ 1.000000E02, 9.783015E01
$$ 1.000000E02, 9.585375E01
$$ 1.000000E02, 9.388815E01
$$ 1.000000E02, 9.193335E01
$$ 1.000000E02, 8.998935E01
$$ 1.000000E02, 8.805615E01
$$ 1.000000E02, 8.613375E01
$$ 1.000000E02, 8.422215E01
$$ 1.000000E02, 8.232135E01
$$ 1.000000E02, 8.043135E01
$$ 1.000000E02, 7.855215E01
$$ 1.000000E02, 7.668375E01
$$ 1.000000E02, 7.482615E01
$$ 1.000000E02, 7.297935E01
$$ 1.000000E02, 7.114335E01
$$ 1.000000E02, 6.931815E01
$$ 1.000000E02, 6.750375E01
$$ 1.000000E02, 6.570015E01
$$ 1.000000E02, 6.390735E01
$$ 1.000000E02, 6.212535E01
$$ 1.000000E02, 6.035415E01
$$ 1.000000E02, 5.859375E01
$$ 1.000000E02, 5.684415E01
$$ 1.000000E02, 5.510535E01
$$ 1.000000E02, 5.337735E01
$$ 1.000000E02, 5.166015E01
$$ 1.000000E02, 4.995375E01
$$ 1.000000E02, 4.825815E01
$$ 1.000000E02, 4.657335E01
$$ 1.000000E02, 4.489935E01
$$ 1.000000E02, 4.323615E01
$$ 1.000000E02, 4.158375E01
$$ 1.000000E02, 3.994215E01
$$ 1.000000E02, 3.831135E01
$$ 1.000000E02, 3.669135E01
$$ 1.000000E02, 3.508215E01
$$ 1.000000E02, 3.348375E01
$$ 1.000000E02, 3.189615E01
$$ 1.000000E02, 3.031935E01
$$ 1.000000E02, 2.875335E01
$$ 1.000000E02, 2.719815E01
$$ 1.000000E02, 2.565375E01
$$ 1.000000E02, 2.412015E01
$$ 1.000000E02, 2.259735E01
$$ 1.000000E02, 2.108535E01
$$ 1.000000E02, 1.958415E01
$$ 1.000000E02, 1.809375E01
$$ 1.000000E02, 1.661415E01
$$ 1.000000E02, 1.514535E01
$$ 1.000000E02, 1.368735E01
$$ 1.000000E02, 1.224015E01
$$ 1.000000E02, 1.080375E01
$$ 1.000000E02, 9.378150E00
$$ 1.000000E02, 7.963350E00
$$ 1.000000E02, 6.559350E00
$$ 1.000000E02, 5.166150E00
$$ 1.000000E02, 3.783750E00
$$ 1.000000E02, 2.412150E00
$$ 1.000000E02, 1.051350E00
$$ 1.000000E02, 3.597014E02
$$ 1.000000E02, 3.583622E02
$$ 1.000000E02, 3.570338E02
$$ 1.000000E02, 3.557161E02
$$ 1.000000E02, 3.544094E02
$$ 1.000000E02, 3.531133E02
$$ 1.000000E02, 3.518282E02
$$ 1.000000E02, 3.505538E02
$$ 1.000000E02, 3.492902E02
$$ 1.000000E02, 3.480373E02
$$ 1.000000E02, 3.467954E02
$$ 1.000000E02, 3.455642E02
$$ 1.000000E02, 3.443438E02
$$ 1.000000E02, 3.431342E02
$$ 1.000000E02, 3.419353E02
$$ 1.000000E02, 3.407474E02
$$ 1.000000E02, 3.395702E02
$$ 1.000000E02, 3.384038E02
$$ 1.000000E02, 3.372482E02
$$ 1.000000E02, 3.361034E02
$$ 1.000000E02, 3.349693E02
$$ 1.000000E02, 3.338461E02
$$ 1.000000E02, 3.327338E02
$$ 1.000000E02, 3.316322E02
$$ 1.000000E02, 3.305413E02
$$ 1.000000E02, 3.294614E02
$$ 1.000000E02, 3.283922E02
$$ 1.000000E02, 3.273338E02
$$ 1.000000E02, 3.262862E02
$$ 1.000000E02, 3.252494E02
$$ 1.000000E02, 3.242234E02
$$ 1.000000E02, 3.232082E02
$$ 1.000000E02, 3.222038E02
$$ 1.000000E02, 3.212102E02
$$ 1.000000E02, 3.202274E02
$$ 1.000000E02, 3.192554E02
$$ 1.000000E02, 3.182942E02
$$ 1.000000E02, 3.173438E02
$$ 1.000000E02, 3.164042E02
$$ 1.000000E02, 3.154754E02
$$ 1.000000E02, 3.145574E02
$$ 1.000000E02, 3.136502E02
$$ 1.000000E02, 3.127537E02
$$ 1.000000E02, 3.118682E02
$$ 1.000000E02, 3.109933E02
$$ 1.000000E02, 3.101294E02
$$ 1.000000E02, 3.092762E02
$$ 1.000000E02, 3.084338E02
$$ 1.000000E02, 3.076022E02
$$ 1.000000E02, 3.067814E02
$$ 1.000000E02, 3.059714E02
$$ 1.000000E02, 3.051722E02
$$ 1.000000E02, 3.043838E02
$$ 1.000000E02, 3.036062E02
$$ 1.000000E02, 3.028393E02
$$ 1.000000E02, 3.020834E02
$$ 1.000000E02, 3.013382E02
$$ 1.000000E02, 3.006038E02
$$ 1.000000E02, 2.998802E02
$$ 1.000000E02, 2.991674E02
$$ 1.000000E02, 2.984654E02
$$ 1.000000E02, 2.977742E02
$$ 1.000000E02, 2.970938E02
$$ 1.000000E02, 2.964242E02
$$ 1.000000E02, 2.957654E02
$$ 1.000000E02, 2.951174E02
$$ 1.000000E02, 2.944802E02
$$ 1.000000E02, 2.938538E02
$$ 1.000000E02, 2.932382E02
$$ 1.000000E02, 2.926334E02
$$ 1.000000E02, 2.920394E02
$$ 1.000000E02, 2.914562E02
$$ 1.000000E02, 2.908837E02
$$ 1.000000E02, 2.903221E02
$$ 1.000000E02, 2.897714E02
$$ 1.000000E02, 2.892314E02
$$ 1.000000E02, 2.887022E02
$$ 1.000000E02, 2.881838E02
$$ 1.000000E02, 2.876762E02
$$ 1.000000E02, 2.871794E02
$$ 1.000000E02, 2.866934E02
$$ 1.000000E02, 2.862182E02
$$ 1.000000E02, 2.857537E02
$$ 1.000000E02, 2.853002E02
$$ 1.000000E02, 2.848574E02
$$ 1.000000E02, 2.844254E02
$$ 1.000000E02, 2.840042E02
$$ 1.000000E02, 2.835938E02
$$ 1.000000E02, 2.831942E02
$$ 1.000000E02, 2.828054E02
$$ 1.000000E02, 2.824274E02
$$ 1.000000E02, 2.820602E02
$$ 1.000000E02, 2.817038E02
$$ 1.000000E02, 2.813582E02
$$ 1.000000E02, 2.810234E02
$$ 1.000000E02, 2.806994E02
$$ 1.000000E02, 2.803862E02
$$ 1.000000E02, 2.800838E02
$$ 1.000000E02, 2.797922E02
$$ 1.000000E02, 2.795114E02
$$ 1.000000E02, 2.792414E02
$$ 1.000000E02, 2.789822E02
$$ 1.000000E02, 2.787338E02
$$ 1.000000E02, 2.784962E02
$$ 1.000000E02, 2.782694E02
$$ 1.000000E02, 2.780534E02
$$ 1.000000E02, 2.778482E02
$$ 1.000000E02, 2.776538E02
$$ 1.000000E02, 2.774702E02
$$ 1.000000E02, 2.772974E02
$$ 1.000000E02, 2.771354E02
$$ 1.000000E02, 2.769842E02
$$ 1.000000E02, 2.768438E02
$$ 1.000000E02, 2.767142E02
$$ 1.000000E02, 2.765954E02
$$ 1.000000E02, 2.764874E02
$$ 1.000000E02, 2.763902E02
$$ 1.000000E02, 2.763038E02
$$ 1.000000E02, 2.762282E02
$$ 1.000000E02, 2.761634E02
$$ 1.000000E02, 2.761094E02
$$ 1.000000E02, 2.760662E02
$$ 1.000000E02, 2.760338E02
$$ 1.000000E02, 2.760122E02
$$ 1.000000E02, 2.760014E02
$$ 1.000000E02, 2.760014E02
$$ 1.000000E02, 2.760122E02
$$ 1.000000E02, 2.760338E02
$$ 1.000000E02, 2.760662E02
$$ 1.000000E02, 2.761094E02
$$ 1.000000E02, 2.761634E02
$$ 1.000000E02, 2.762282E02
$$ 1.000000E02, 2.763038E02
$$ 1.000000E02, 2.763902E02
$$ 1.000000E02, 2.764874E02
$$ 1.000000E02, 2.765954E02
$$ 1.000000E02, 2.767142E02
$$ 1.000000E02, 2.768438E02
$$ 1.000000E02, 2.769842E02
$$ 1.000000E02, 2.771354E02
$$ 1.000000E02, 2.772974E02
$$ 1.000000E02, 2.774702E02
$$ 1.000000E02, 2.776538E02
$$ 1.000000E02, 2.778482E02
$$ 1.000000E02, 2.780534E02
$$ 1.000000E02, 2.782694E02
$$ 1.000000E02, 2.784962E02
$$ 1.000000E02, 2.787338E02
$$ 1.000000E02, 2.789822E02
$$ 1.000000E02, 2.792414E02
$$ 1.000000E02, 2.795114E02
$$ 1.000000E02, 2.797922E02
$$ 1.000000E02, 2.800838E02
$$ 1.000000E02, 2.803862E02
$$ 1.000000E02, 2.806994E02
$$ 1.000000E02, 2.810234E02
$$ 1.000000E02, 2.813582E02
$$ 1.000000E02, 2.817038E02
$$ 1.000000E02, 2.820602E02
$$ 1.000000E02, 2.824274E02
$$ 1.000000E02, 2.828054E02
$$ 1.000000E02, 2.831942E02
$$ 1.000000E02, 2.835938E02
$$ 1.000000E02, 2.840042E02
$$ 1.000000E02, 2.844254E02
$$ 1.000000E02, 2.848574E02
$$ 1.000000E02, 2.853002E02
$$ 1.000000E02, 2.857537E02
$$ 1.000000E02, 2.862182E02
$$ 1.000000E02, 2.866934E02
$$ 1.000000E02, 2.871794E02
$$ 1.000000E02, 2.876762E02
$$ 1.000000E02, 2.881838E02
$$ 1.000000E02, 2.887022E02
$$ 1.000000E02, 2.892314E02
$$ 1.000000E02, 2.897714E02
$$ 1.000000E02, 2.903221E02
$$ 1.000000E02, 2.908837E02
$$ 1.000000E02, 2.914562E02
$$ 1.000000E02, 2.920394E02
$$ 1.000000E02, 2.926334E02
$$ 1.000000E02, 2.932382E02
$$ 1.000000E02, 2.938538E02
$$ 1.000000E02, 2.944802E02
$$ 1.000000E02, 2.951174E02
$$ 1.000000E02, 2.957654E02
$$ 1.000000E02, 2.964242E02
$$ 1.000000E02, 2.970938E02
$$ 1.000000E02, 2.977742E02
$$ 1.000000E02, 2.984654E02
$$ 1.000000E02, 2.991674E02
$$ 1.000000E02, 2.998802E02
$$ 1.000000E02, 3.006038E02
$$ 1.000000E02, 3.013382E02
$$ 1.000000E02, 3.020834E02
$$ 1.000000E02, 3.028393E02
$$ 1.000000E02, 3.036062E02
$$ 1.000000E02, 3.043838E02
$$ 1.000000E02, 3.051722E02
$$ 1.000000E02, 3.059714E02
$$ 1.000000E02, 3.067814E02
$$ 1.000000E02, 3.076022E02
$$ 1.000000E02, 3.084338E02
$$ 1.000000E02, 3.092762E02
$$ 1.000000E02, 3.101294E02
$$ 1.000000E02, 3.109933E02
$$ 1.000000E02, 3.118682E02
$$ 1.000000E02, 3.127537E02
$$ 1.000000E02, 3.136502E02
$$ 1.000000E02, 3.145574E02
$$ 1.000000E02, 3.154754E02
$$ 1.000000E02, 3.164042E02
$$ 1.000000E02, 3.173438E02
$$ 1.000000E02, 3.182942E02
$$ 1.000000E02, 3.192554E02
$$ 1.000000E02, 3.202274E02
$$ 1.000000E02, 3.212102E02
$$ 1.000000E02, 3.222038E02
$$ 1.000000E02, 3.232082E02
$$ 1.000000E02, 3.242234E02
$$ 1.000000E02, 3.252494E02
$$ 1.000000E02, 3.262862E02
$$ 1.000000E02, 3.273338E02
$$ 1.000000E02, 3.283922E02
$$ 1.000000E02, 3.294614E02
$$ 1.000000E02, 3.305413E02
$$ 1.000000E02, 3.316322E02
$$ 1.000000E02, 3.327338E02
$$ 1.000000E02, 3.338461E02
$$ 1.000000E02, 3.349693E02
$$ 1.000000E02, 3.361034E02
$$ 1.000000E02, 3.372482E02
$$ 1.000000E02, 3.384038E02
$$ 1.000000E02, 3.395702E02
$$ 1.000000E02, 3.407474E02
$$ 1.000000E02, 3.419353E02
$$ 1.000000E02, 3.431342E02
$$ 1.000000E02, 3.443438E02
$$ 1.000000E02, 3.455642E02
$$ 1.000000E02, 3.467954E02
$$ 1.000000E02, 3.480373E02
$$ 1.000000E02, 3.492902E02
$$ 1.000000E02, 3.505538E02
$$ 1.000000E02, 3.518282E02
$$ 1.000000E02, 3.531133E02
$$ 1.000000E02, 3.544094E02
$$ 1.000000E02, 3.557161E02
$$ 1.000000E02, 3.570338E02
$$ 1.000000E02, 3.583622E02
$$ 1.000000E02, 3.597014E02
$$ 1.000000E02, 1.051350E00
$$ 1.000000E02, 2.412150E00
$$ 1.000000E02, 3.783750E00
$$ 1.000000E02, 5.166150E00
$$ 1.000000E02, 6.559350E00
$$ 1.000000E02, 7.963350E00
$$ 1.000000E02, 9.378150E00
$$ 1.000000E02, 1.080375E01
$$ 1.000000E02, 1.224015E01
$$ 1.000000E02, 1.368735E01
$$ 1.000000E02, 1.514535E01
$$ 1.000000E02, 1.661415E01
$$ 1.000000E02, 1.809375E01
$$ 1.000000E02, 1.958415E01
$$ 1.000000E02, 2.108535E01
$$ 1.000000E02, 2.259735E01
$$ 1.000000E02, 2.412015E01
$$ 1.000000E02, 2.565375E01
$$ 1.000000E02, 2.719815E01
$$ 1.000000E02, 2.875335E01
$$ 1.000000E02, 3.031935E01
$$ 1.000000E02, 3.189615E01
$$ 1.000000E02, 3.348375E01
$$ 1.000000E02, 3.508215E01
$$ 1.000000E02, 3.669135E01
$$ 1.000000E02, 3.831135E01
$$ 1.000000E02, 3.994215E01
$$ 1.000000E02, 4.158375E01
$$ 1.000000E02, 4.323615E01
$$ 1.000000E02, 4.489935E01
$$ 1.000000E02, 4.657335E01
$$ 1.000000E02, 4.825815E01
$$ 1.000000E02, 4.995375E01
$$ 1.000000E02, 5.166015E01
$$ 1.000000E02, 5.337735E01
$$ 1.000000E02, 5.510535E01
$$ 1.000000E02, 5.684415E01
$$ 1.000000E02, 5.859375E01
$$ 1.000000E02, 6.035415E01
$$ 1.000000E02, 6.212535E01
$$ 1.000000E02, 6.390735E01
$$ 1.000000E02, 6.570015E01
$$ 1.000000E02, 6.750375E01
$$ 1.000000E02, 6.931815E01
$$ 1.000000E02, 7.114335E01
$$ 1.000000E02, 7.297935E01
$$ 1.000000E02, 7.482615E01
$$ 1.000000E02, 7.668375E01
$$ 1.000000E02, 7.855215E01
$$ 1.000000E02, 8.043135E01
$$ 1.000000E02, 8.232135E01
$$ 1.000000E02, 8.422215E01
$$ 1.000000E02, 8.613375E01
$$ 1.000000E02, 8.805615E01
$$ 1.000000E02, 8.998935E01
$$ 1.000000E02, 9.193335E01
$$ 1.000000E02, 9.388815E01
$$ 1.000000E02, 9.585375E01
$$ 1.000000E02, 9.783015E01
$$ 1.000000E02, 9.981735E01
$$ 1.000000E02, 1.018153E02
$$ 1.000000E02, 1.038241E02
$$ 1.000000E02, 1.058438E02
$$ 1.000000E02, 1.078741E02
$$ 1.000000E02, 1.099154E02
$$ 1.000000E02, 1.119673E02
$$ 1.000000E02, 1.140301E02
$$ 1.000000E02, 1.161037E02
$$ 1.000000E02, 1.181881E02
$$ 1.000000E02, 1.202833E02
$$ 1.000000E02, 1.223893E02
$$ 1.000000E02, 1.245061E02
$$ 1.000000E02, 1.266337E02
$$ 1.000000E02, 1.287722E02
$$ 1.000000E02, 1.309214E02
$$ 1.000000E02, 1.330814E02
$$ 1.000000E02, 1.352521E02
$$ 1.000000E02, 1.374338E02
$$ 1.000000E02, 1.396261E02
$$ 1.000000E02, 1.418293E02
$$ 1.000000E02, 1.440433E02
$$ 1.000000E02, 1.462681E02
$$ 1.000000E02, 1.485038E02
$$ 1.000000E02, 1.507502E02
$$ 1.000000E02, 1.530073E02
$$ 1.000000E02, 1.552753E02
$$ 1.000000E02, 1.575542E02
$$ 1.000000E02, 1.598437E02
$$ 1.000000E02, 1.621441E02
$$ 1.000000E02, 1.644553E02
$$ 1.000000E02, 1.667773E02
$$ 1.000000E02, 1.691101E02
$$ 1.000000E02, 1.714538E02
$$ 1.000000E02, 1.738082E02
$$ 1.000000E02, 1.761733E02
$$ 1.000000E02, 1.785494E02
$$ 1.000000E02, 1.809362E02
$$ 1.000000E02, 1.833337E02
$$ 1.000000E02, 1.857421E02
$$ 1.000000E02, 1.881613E02
$$ 1.000000E02, 1.905913E02
$$ 1.000000E02, 1.930322E02
$$ 1.000000E02, 1.954838E02
$$ 1.000000E02, 1.979462E02
$$ 1.000000E02, 2.004194E02
$$ 1.000000E02, 2.029034E02
$$ 1.000000E02, 2.053982E02
$$ 1.000000E02, 2.079038E02
$$ 1.000000E02, 2.104201E02
$$ 1.000000E02, 2.129473E02
$$ 1.000000E02, 2.154853E02
$$ 1.000000E02, 2.180342E02
$$ 1.000000E02, 2.205938E02
$$ 1.000000E02, 2.231642E02
$$ 1.000000E02, 2.257454E02
$$ 1.000000E02, 2.283374E02
$$ 1.000000E02, 2.309401E02
$$ 1.000000E02, 2.335537E02
$$ 1.000000E02, 2.361781E02
$$ 1.000000E02, 2.388133E02
$$ 1.000000E02, 2.414593E02
$$ 1.000000E02, 2.441161E02
$$ 1.000000E02, 2.467838E02
$$ 1.000000E02, 2.494621E02
$$ 1.000000E02, 2.521513E02
$$ 1.000000E02, 2.548513E02
$$ 1.000000E02, 2.575622E02
$$ 1.000000E02, 2.602838E02
$$ 1.000000E02, 2.630161E02
$$ 1.000000E02, 2.657594E02
$$ 1.000000E02, 2.685133E02
$$ 1.000000E02, 2.712782E02
$$ 1.000000E02, 2.740537E02
$$ 1.000000E02, 2.768402E02
$$ 1.000000E02, 2.796373E02
$$ 1.000000E02, 2.824453E02
$$ 1.000000E02, 2.852642E02
$$ 1.000000E02, 2.880937E02
$$ 1.000000E02, 2.909342E02
$$ 1.000000E02, 2.937853E02
$$ 1.000000E02, 2.966474E02
$$ 1.000000E02, 2.995201E02
$$ 1.000000E02, 3.024038E02
$$ 1.000000E02, 3.052981E02
$$ 1.000000E02, 3.082033E02
$$ 1.000000E02, 3.111193E02
$$ 1.000000E02, 3.140461E02
$$ 1.000000E02, 3.169838E02
$$ 1.000000E02, 3.199322E02
$$ 1.000000E02, 3.228914E02
$$ 1.000000E02, 3.258613E02
$$ 1.000000E02, 3.288422E02
$$ 1.000000E02, 3.318337E02
$$ 1.000000E02, 3.348362E02
$$ 1.000000E02, 3.378493E02
$$ 1.000000E02, 3.408734E02
$$ 1.000000E02, 3.439082E02
$$ 1.000000E02, 3.469537E02
$$ 1.000000E02, 3.500102E02
$$ 1.000000E02, 3.530773E02
$$ 1.000000E02, 3.561554E02
$$ 1.000000E02, 3.592442E02
$$ 1.000000E02, 2.343750E00
$$ 1.000000E02, 5.454150E00
$$ 1.000000E02, 8.575350E00
$$ 1.000000E02, 1.170735E01
$$ 1.000000E02, 1.485015E01
$$ 1.000000E02, 1.800375E01
$$ 1.000000E02, 2.116815E01
$$ 1.000000E02, 2.434335E01
$$ 1.000000E02, 2.752935E01
$$ 1.000000E02, 3.072615E01
$$ 1.000000E02, 3.393375E01
$$ 1.000000E02, 3.715215E01
$$ 1.000000E02, 4.038135E01
$$ 1.000000E02, 4.362135E01
$$ 9.999688E01, 4.687215E01
$$ 9.998754E01, 5.013375E01
$$ 9.997196E01, 5.340615E01
$$ 9.995016E01, 5.668935E01
$$ 9.992213E01, 5.998335E01
$$ 9.988787E01, 6.328815E01
$$ 9.984739E01, 6.660375E01
$$ 9.980069E01, 6.993015E01
$$ 9.974776E01, 7.326735E01
$$ 9.968863E01, 7.661535E01
$$ 9.962328E01, 7.997415E01
$$ 9.955173E01, 8.334375E01
$$ 9.947397E01, 8.672415E01
$$ 9.939002E01, 9.011535E01
$$ 9.929987E01, 9.351735E01
$$ 9.920354E01, 9.693015E01
$$ 9.910102E01, 1.003537E02
$$ 9.899233E01, 1.037881E02
$$ 9.887747E01, 1.072333E02
$$ 9.875646E01, 1.106893E02
$$ 9.862928E01, 1.141562E02
$$ 9.849597E01, 1.176337E02
$$ 9.835651E01, 1.211222E02
$$ 9.821093E01, 1.246213E02
$$ 9.805923E01, 1.281314E02
$$ 9.790142E01, 1.316521E02
$$ 9.773751E01, 1.351837E02
$$ 9.756751E01, 1.387261E02
$$ 9.739143E01, 1.422794E02
$$ 9.720928E01, 1.458434E02
$$ 9.702108E01, 1.494181E02
$$ 9.682683E01, 1.530037E02
$$ 9.662655E01, 1.566001E02
$$ 9.642025E01, 1.602074E02
$$ 9.620794E01, 1.638253E02
$$ 9.598963E01, 1.674542E02
$$ 9.576535E01, 1.710937E02
$$ 9.553510E01, 1.747442E02
$$ 9.529889E01, 1.784053E02
$$ 9.505675E01, 1.820774E02
$$ 9.480868E01, 1.857602E02
$$ 9.455471E01, 1.894537E02
$$ 9.429485E01, 1.931581E02
$$ 9.402911E01, 1.968733E02
$$ 9.375751E01, 2.005993E02
$$ 9.348008E01, 2.043361E02
$$ 9.319681E01, 2.080838E02
$$ 9.290774E01, 2.118421E02
$$ 9.261288E01, 2.156114E02
$$ 9.231226E01, 2.193914E02
$$ 9.200588E01, 2.231821E02
$$ 9.169376E01, 2.269838E02
$$ 9.137594E01, 2.307962E02
$$ 9.105242E01, 2.346193E02
$$ 9.072323E01, 2.384533E02
$$ 9.038838E01, 2.422981E02
$$ 9.004790E01, 2.461537E02
$$ 8.970182E01, 2.500202E02
$$ 8.935014E01, 2.538973E02
$$ 8.899290E01, 2.577854E02
$$ 8.863011E01, 2.616842E02
$$ 8.826180E01, 2.655938E02
$$ 8.788799E01, 2.695142E02
$$ 8.750870E01, 2.734453E02
$$ 8.712396E01, 2.773873E02
$$ 8.673380E01, 2.813401E02
$$ 8.633823E01, 2.853038E02
$$ 8.593728E01, 2.892781E02
$$ 8.553097E01, 2.932634E02
$$ 8.511934E01, 2.972593E02
$$ 8.470240E01, 3.012662E02
$$ 8.428019E01, 3.052837E02
$$ 8.385272E01, 3.093122E02
$$ 8.342003E01, 3.133514E02
$$ 8.298215E01, 3.174013E02
$$ 8.253909E01, 3.214621E02
$$ 8.209089E01, 3.255337E02
$$ 8.163757E01, 3.296161E02
$$ 8.117917E01, 3.337094E02
$$ 8.071571E01, 3.378133E02
$$ 8.024722E01, 3.419282E02
$$ 7.977373E01, 3.460537E02
$$ 7.929527E01, 3.501902E02
$$ 7.881187E01, 3.543373E02
$$ 7.832356E01, 3.584954E02
$$ 7.783037E01, 2.664150E00
$$ 7.733233E01, 6.843750E00
$$ 7.682948E01, 1.103415E01
$$ 7.632183E01, 1.523535E01
$$ 7.580943E01, 1.944735E01
$$ 7.529231E01, 2.367015E01
$$ 7.477049E01, 2.790375E01
$$ 7.424402E01, 3.214815E01
$$ 7.371292E01, 3.640335E01
$$ 7.317723E01, 4.066935E01
$$ 7.263698E01, 4.494615E01
$$ 7.209220E01, 4.923375E01
$$ 7.154293E01, 5.353215E01
$$ 7.098920E01, 5.784135E01
$$ 7.043105E01, 6.216135E01
$$ 6.986851E01, 6.649215E01
$$ 6.930162E01, 7.083375E01
$$ 6.873041E01, 7.518615E01
$$ 6.815492E01, 7.954935E01
$$ 6.757518E01, 8.392335E01
$$ 6.699124E01, 8.830815E01
$$ 6.640311E01, 9.270375E01
$$ 6.581085E01, 9.711015E01
$$ 6.521449E01, 1.015274E02
$$ 6.461407E01, 1.059553E02
$$ 6.400962E01, 1.103941E02
$$ 6.340118E01, 1.148438E02
$$ 6.278880E01, 1.193041E02
$$ 6.217250E01, 1.237754E02
$$ 6.155232E01, 1.282573E02
$$ 6.092832E01, 1.327501E02
$$ 6.030051E01, 1.372537E02
$$ 5.966895E01, 1.417682E02
$$ 5.903367E01, 1.462934E02
$$ 5.839471E01, 1.508293E02
$$ 5.775212E01, 1.553761E02
$$ 5.710592E01, 1.599337E02
$$ 5.645617E01, 1.645021E02
$$ 5.580290E01, 1.690813E02
$$ 5.514615E01, 1.736713E02
$$ 5.448597E01, 1.782721E02
$$ 5.382239E01, 1.828837E02
$$ 5.315546E01, 1.875062E02
$$ 5.248522E01, 1.921393E02
$$ 5.181170E01, 1.967834E02
$$ 5.113496E01, 2.014381E02
$$ 5.045503E01, 2.061038E02
$$ 4.977196E01, 2.107801E02
$$ 4.908579E01, 2.154674E02
$$ 4.839656E01, 2.201653E02
$$ 4.770431E01, 2.248741E02
$$ 4.700910E01, 2.295937E02
$$ 4.631095E01, 2.343241E02
$$ 4.560992E01, 2.390654E02
$$ 4.490604E01, 2.438174E02
$$ 4.419937E01, 2.485802E02
$$ 4.348994E01, 2.533537E02
$$ 4.277781E01, 2.581382E02
$$ 4.206301E01, 2.629333E02
$$ 4.134558E01, 2.677394E02
$$ 4.062559E01, 2.725561E02
$$ 3.990306E01, 2.773837E02
$$ 3.917804E01, 2.822221E02
$$ 3.845058E01, 2.870713E02
$$ 3.772073E01, 2.919314E02
$$ 3.698853E01, 2.968021E02
$$ 3.625402E01, 3.016837E02
$$ 3.551726E01, 3.065761E02
$$ 3.477828E01, 3.114793E02
$$ 3.403713E01, 3.163933E02
$$ 3.329386E01, 3.213182E02
$$ 3.254852E01, 3.262537E02
$$ 3.180115E01, 3.312001E02
$$ 3.105180E01, 3.361573E02
$$ 3.030052E01, 3.411253E02
$$ 2.954734E01, 3.461042E02
$$ 2.879233E01, 3.510937E02
$$ 2.803552E01, 3.560941E02
$$ 2.727697E01, 1.105350E00
$$ 2.651671E01, 6.127350E00
$$ 2.575481E01, 1.116015E01
$$ 2.499130E01, 1.620375E01
$$ 2.422623E01, 2.125815E01
$$ 2.345965E01, 2.632335E01
$$ 2.269161E01, 3.139935E01
$$ 2.192216E01, 3.648615E01
$$ 2.115134E01, 4.158375E01
$$ 2.037920E01, 4.669215E01
$$ 1.960579E01, 5.181135E01
$$ 1.883117E01, 5.694135E01
$$ 1.805537E01, 6.208215E01
$$ 1.727844E01, 6.723375E01
$$ 1.650044E01, 7.239615E01
$$ 1.572140E01, 7.756935E01
$$ 1.494139E01, 8.275335E01
$$ 1.416045E01, 8.794815E01
$$ 1.337863E01, 9.315375E01
$$ 1.259597E01, 9.837015E01
$$ 1.181253E01, 1.035973E02
$$ 1.102835E01, 1.088353E02
$$ 1.024348E01, 1.140841E02
$$ 9.457981E00, 1.193437E02
$$ 8.671888E00, 1.246142E02
$$ 7.885255E00, 1.298954E02
$$ 7.098130E00, 1.351873E02
$$ 6.310563E00, 1.404901E02
$$ 5.522603E00, 1.458037E02
$$ 4.734299E00, 1.511282E02
$$ 3.945700E00, 1.564633E02
$$ 3.156855E00, 1.618093E02
$$ 2.367813E00, 1.671662E02
$$ 1.578624E00, 1.725338E02
$$ 7.893367E-01, 1.779122E02
$$ 0.000000E00, 1.833013E02
$$ 0.000000E00, 9.330067E01
$$ 3.936823E-01, 8.790607E01
$$ 7.873584E-01, 8.251687E01
$$ 1.181022E00, 7.713307E01
$$ 1.574668E00, 7.175467E01
$$ 1.968289E00, 6.638167E01
$$ 2.361880E00, 6.101408E01
$$ 2.755434E00, 5.565187E01
$$ 3.148946E00, 5.029508E01
$$ 3.542408E00, 4.494368E01
$$ 3.935816E00, 3.959767E01
$$ 4.329163E00, 3.425707E01
$$ 4.722442E00, 2.892187E01
$$ 5.115649E00, 2.359208E01
$$ 5.508776E00, 1.826768E01
$$ 5.901818E00, 1.294867E01
$$ 6.294768E00, 7.635075E00
$$ 6.687621E00, 2.326875E00
$$ 7.080370E00, 3.570241E02
$$ 7.473009E00, 3.517267E02
$$ 7.865533E00, 3.464347E02
$$ 8.257935E00, 3.411481E02
$$ 8.650208E00, 3.358669E02
$$ 9.042348E00, 3.305911E02
$$ 9.434347E00, 3.253207E02
$$ 9.826200E00, 3.200557E02
$$ 1.021790E01, 3.147961E02
$$ 1.060944E01, 3.095419E02
$$ 1.100082E01, 3.042931E02
$$ 1.139203E01, 2.990497E02
$$ 1.178306E01, 2.938117E02
$$ 1.217391E01, 2.885791E02
$$ 1.256457E01, 2.833519E02
$$ 1.295503E01, 2.781301E02
$$ 1.334530E01, 2.729137E02
$$ 1.373536E01, 2.677027E02
$$ 1.412520E01, 2.624971E02
$$ 1.451483E01, 2.572969E02
$$ 1.490423E01, 2.521021E02
$$ 1.529340E01, 2.469127E02
$$ 1.568233E01, 2.417287E02
$$ 1.607102E01, 2.365501E02
$$ 1.645946E01, 2.313769E02
$$ 1.684764E01, 2.262091E02
$$ 1.723557E01, 2.210467E02
$$ 1.762323E01, 2.158897E02
$$ 1.801061E01, 2.107381E02
$$ 1.839771E01, 2.055919E02
$$ 1.878453E01, 2.004511E02
$$ 1.917106E01, 1.953157E02
$$ 1.955729E01, 1.901857E02
$$ 1.994322E01, 1.850611E02
$$ 2.032884E01, 1.799419E02
$$ 2.071415E01, 1.748281E02
$$ 2.109913E01, 1.697197E02
$$ 2.148379E01, 1.646167E02
$$ 2.186811E01, 1.595191E02
$$ 2.225209E01, 1.544269E02
$$ 2.263573E01, 1.493401E02
$$ 2.301902E01, 1.442587E02
$$ 2.340195E01, 1.391827E02
$$ 2.378452E01, 1.341121E02
$$ 2.416672E01, 1.290469E02
$$ 2.454855E01, 1.239871E02
$$ 2.492999E01, 1.189327E02
$$ 2.531105E01, 1.138837E02
$$ 2.569172E01, 1.088401E02
$$ 2.607199E01, 1.038019E02
$$ 2.645185E01, 9.876907E01
$$ 2.683131E01, 9.374168E01
$$ 2.721035E01, 8.871967E01
$$ 2.758896E01, 8.370307E01
$$ 2.796715E01, 7.869187E01
$$ 2.834491E01, 7.368607E01
$$ 2.872223E01, 6.868567E01
$$ 2.909910E01, 6.369067E01
$$ 2.947552E01, 5.870107E01
$$ 2.985148E01, 5.371687E01
$$ 3.022698E01, 4.873808E01
$$ 3.060201E01, 4.376467E01
$$ 3.097657E01, 3.879668E01
$$ 3.135065E01, 3.383407E01
$$ 3.172424E01, 2.887687E01
$$ 3.209734E01, 2.392508E01
$$ 3.246995E01, 1.897867E01
$$ 3.284205E01, 1.403768E01
$$ 3.321364E01, 9.102075E00
$$ 3.358471E01, 4.171875E00
$$ 3.395527E01, 3.592471E02
$$ 3.432530E01, 3.543277E02
$$ 3.469480E01, 3.494137E02
$$ 3.506376E01, 3.445051E02
$$ 3.543217E01, 3.396019E02
$$ 3.580004E01, 3.347041E02
$$ 3.616735E01, 3.298117E02
$$ 3.653410E01, 3.249247E02
$$ 3.690029E01, 3.200431E02
$$ 3.726590E01, 3.151669E02
$$ 3.763094E01, 3.102961E02
$$ 3.799539E01, 3.054307E02
$$ 3.835925E01, 3.005707E02
$$ 3.872252E01, 2.957161E02
$$ 3.908519E01, 2.908669E02
$$ 3.944726E01, 2.860231E02
$$ 3.980871E01, 2.811847E02
$$ 4.016954E01, 2.763517E02
$$ 4.052975E01, 2.715241E02
$$ 4.088934E01, 2.667019E02
$$ 4.124829E01, 2.618851E02
$$ 4.160660E01, 2.570737E02
$$ 4.196427E01, 2.522677E02
$$ 4.232128E01, 2.474671E02
$$ 4.267764E01, 2.426719E02
$$ 4.303334E01, 2.378821E02
$$ 4.338837E01, 2.330977E02
$$ 4.374273E01, 2.283187E02
$$ 4.409641E01, 2.235451E02
$$ 4.444941E01, 2.187769E02
$$ 4.480172E01, 2.140141E02
$$ 4.515334E01, 2.092567E02
$$ 4.550425E01, 2.045047E02
$$ 4.585446E01, 1.997581E02
$$ 4.620396E01, 1.950169E02
$$ 4.655274E01, 1.902811E02
$$ 4.690080E01, 1.855507E02
$$ 4.724814E01, 1.808257E02
$$ 4.759474E01, 1.761061E02
$$ 4.794060E01, 1.713919E02
$$ 4.828573E01, 1.666831E02
$$ 4.863010E01, 1.619797E02
$$ 4.897372E01, 1.572817E02
$$ 4.931658E01, 1.525891E02
$$ 4.965867E01, 1.479019E02
$$ 5.000000E01, 1.432201E02
$$ 5.034055E01, 1.385437E02
$$ 5.068032E01, 1.338727E02
$$ 5.101931E01, 1.292071E02
$$ 5.135750E01, 1.245469E02
$$ 5.169490E01, 1.198921E02
$$ 5.203150E01, 1.152427E02
$$ 5.236729E01, 1.105987E02
$$ 5.270227E01, 1.059601E02
$$ 5.303643E01, 1.013269E02
$$ 5.336978E01, 9.669908E01
$$ 5.370229E01, 9.207667E01
$$ 5.403397E01, 8.745968E01
$$ 5.436481E01, 8.284807E01
$$ 5.469482E01, 7.824187E01
$$ 5.502397E01, 7.364107E01
$$ 5.535227E01, 6.904567E01
$$ 5.567971E01, 6.445567E01
$$ 5.600629E01, 5.987107E01
$$ 5.633201E01, 5.529187E01
$$ 5.665684E01, 5.071807E01
$$ 5.698081E01, 4.614968E01
$$ 5.730388E01, 4.158668E01
$$ 5.762607E01, 3.702907E01
$$ 5.794737E01, 3.247687E01
$$ 5.826777E01, 2.793007E01
$$ 5.858726E01, 2.338867E01
$$ 5.890585E01, 1.885268E01
$$ 5.922353E01, 1.432207E01
$$ 5.954028E01, 9.796875E00
$$ 5.985612E01, 5.277075E00
$$ 6.017102E01, 7.626750E-01
$$ 6.048499E01, 3.562537E02
$$ 6.079803E01, 3.517501E02
$$ 6.111012E01, 3.472519E02
$$ 6.142127E01, 3.427591E02
$$ 6.173147E01, 3.382717E02
$$ 6.204070E01, 3.337897E02
$$ 6.234898E01, 3.293131E02
$$ 6.265629E01, 3.248419E02
$$ 6.296263E01, 3.203761E02
$$ 6.326799E01, 3.159157E02
$$ 6.357237E01, 3.114607E02
$$ 6.387577E01, 3.070111E02
$$ 6.417818E01, 3.025669E02
$$ 6.447959E01, 2.981281E02
$$ 6.478001E01, 2.936947E02
$$ 6.507941E01, 2.892667E02
$$ 6.537782E01, 2.848441E02
$$ 6.567520E01, 2.804269E02
$$ 6.597157E01, 2.760151E02
$$ 6.626692E01, 2.716087E02
$$ 6.656124E01, 2.672077E02
$$ 6.685453E01, 2.628121E02
$$ 6.714678E01, 2.584219E02
$$ 6.743799E01, 2.540371E02
$$ 6.772816E01, 2.496577E02
$$ 6.801727E01, 2.452837E02
$$ 6.830534E01, 2.409151E02
$$ 6.859234E01, 2.365519E02
$$ 6.887828E01, 2.321941E02
$$ 6.916315E01, 2.278417E02
$$ 6.944696E01, 2.234947E02
$$ 6.972968E01, 2.191531E02
$$ 7.001132E01, 2.148169E02
$$ 7.029188E01, 2.104861E02
$$ 7.057135E01, 2.061607E02
$$ 7.084973E01, 2.018407E02
$$ 7.112701E01, 1.975261E02
$$ 7.140318E01, 1.932169E02
$$ 7.167825E01, 1.889131E02
$$ 7.195221E01, 1.846147E02
$$ 7.222505E01, 1.803217E02
$$ 7.249678E01, 1.760341E02
$$ 7.276738E01, 1.717519E02
$$ 7.303685E01, 1.674751E02
$$ 7.330519E01, 1.632037E02
$$ 7.357239E01, 1.589377E02
$$ 7.383845E01, 1.546771E02
$$ 7.410337E01, 1.504219E02
$$ 7.436714E01, 1.461721E02
$$ 7.462976E01, 1.419277E02
$$ 7.489122E01, 1.376887E02
$$ 7.515152E01, 1.334551E02
$$ 7.541066E01, 1.292269E02
$$ 7.566863E01, 1.250041E02
$$ 7.592542E01, 1.207867E02
$$ 7.618104E01, 1.165747E02
$$ 7.643548E01, 1.123681E02
$$ 7.668873E01, 1.081669E02
$$ 7.694079E01, 1.039711E02
$$ 7.719167E01, 9.978067E01
$$ 7.744134E01, 9.559567E01
$$ 7.768981E01, 9.141607E01
$$ 7.793709E01, 8.724187E01
$$ 7.818315E01, 8.307307E01
$$ 7.842800E01, 7.890967E01
$$ 7.867163E01, 7.475167E01
$$ 7.891405E01, 7.059908E01
$$ 7.915524E01, 6.645187E01
$$ 7.939521E01, 6.231007E01
$$ 7.963395E01, 5.817368E01
$$ 7.987145E01, 5.404267E01
$$ 8.010771E01, 4.991708E01
$$ 8.034273E01, 4.579688E01
$$ 8.057651E01, 4.168207E01
$$ 8.080904E01, 3.757267E01
$$ 8.104031E01, 3.346867E01
$$ 8.127033E01, 2.937007E01
$$ 8.149909E01, 2.527687E01
$$ 8.172659E01, 2.118908E01
$$ 8.195282E01, 1.710667E01
$$ 8.217778E01, 1.302967E01
$$ 8.240147E01, 8.958075E00
$$ 8.262388E01, 4.891875E00
$$ 8.284501E01, 8.310750E-01
$$ 8.306485E01, 3.567757E02
$$ 8.328341E01, 3.527257E02
$$ 8.350068E01, 3.486811E02
$$ 8.371665E01, 3.446419E02
$$ 8.393132E01, 3.406081E02
$$ 8.414470E01, 3.365797E02
$$ 8.435677E01, 3.325567E02
$$ 8.456753E01, 3.285391E02
$$ 8.477698E01, 3.245269E02
$$ 8.498512E01, 3.205201E02
$$ 8.519194E01, 3.165187E02
$$ 8.539744E01, 3.125227E02
$$ 8.560162E01, 3.085321E02
$$ 8.580447E01, 3.045469E02
$$ 8.600599E01, 3.005671E02
$$ 8.620618E01, 2.965927E02
$$ 8.640503E01, 2.926237E02
$$ 8.660254E01, 2.886601E02
$$ 8.679871E01, 2.847019E02
$$ 8.699354E01, 2.807491E02
$$ 8.718701E01, 2.768017E02
$$ 8.737914E01, 2.728597E02
$$ 8.756991E01, 2.689231E02
$$ 8.775932E01, 2.649919E02
$$ 8.794738E01, 2.610661E02
$$ 8.813407E01, 2.571457E02
$$ 8.831939E01, 2.532307E02
$$ 8.850335E01, 2.493211E02
$$ 8.868593E01, 2.454169E02
$$ 8.886714E01, 2.415181E02
$$ 8.904697E01, 2.376247E02
$$ 8.922542E01, 2.337367E02
$$ 8.940249E01, 2.298541E02
$$ 8.957818E01, 2.259769E02
$$ 8.975247E01, 2.221051E02
$$ 8.992538E01, 2.182387E02
$$ 9.009689E01, 2.143777E02
$$ 9.026700E01, 2.105221E02
$$ 9.043572E01, 2.066719E02
$$ 9.060303E01, 2.028271E02
$$ 9.076894E01, 1.989877E02
$$ 9.093344E01, 1.951537E02
$$ 9.109653E01, 1.913251E02
$$ 9.125822E01, 1.875019E02
$$ 9.141848E01, 1.836841E02
$$ 9.157733E01, 1.798717E02
$$ 9.173476E01, 1.760647E02
$$ 9.189077E01, 1.722631E02
$$ 9.204536E01, 1.684669E02
$$ 9.219852E01, 1.646761E02
$$ 9.235024E01, 1.608907E02
$$ 9.250054E01, 1.571107E02
$$ 9.264941E01, 1.533361E02
$$ 9.279684E01, 1.495669E02
$$ 9.294283E01, 1.458031E02
$$ 9.308737E01, 1.420447E02
$$ 9.323048E01, 1.382917E02
$$ 9.337214E01, 1.345441E02
$$ 9.351236E01, 1.308019E02
$$ 9.365112E01, 1.270651E02
$$ 9.378844E01, 1.233337E02
$$ 9.392430E01, 1.196077E02
$$ 9.405870E01, 1.158871E02
$$ 9.419165E01, 1.121719E02
$$ 9.432314E01, 1.084621E02
$$ 9.445316E01, 1.047577E02
$$ 9.458172E01, 1.010587E02
$$ 9.470882E01, 9.736507E01
$$ 9.483445E01, 9.367687E01
$$ 9.495861E01, 8.999407E01
$$ 9.508129E01, 8.631668E01
$$ 9.520250E01, 8.264468E01
$$ 9.532224E01, 7.897807E01
$$ 9.544050E01, 7.531687E01
$$ 9.555728E01, 7.166107E01
$$ 9.567258E01, 6.801067E01
$$ 9.578640E01, 6.436568E01
$$ 9.589873E01, 6.072607E01
$$ 9.600957E01, 5.709187E01
$$ 9.611893E01, 5.346308E01
$$ 9.622680E01, 4.983967E01
$$ 9.633318E01, 4.622167E01
$$ 9.643806E01, 4.260907E01
$$ 9.654145E01, 3.900188E01
$$ 9.664334E01, 3.540008E01
$$ 9.674374E01, 3.180367E01
$$ 9.684263E01, 2.821267E01
$$ 9.694003E01, 2.462707E01
$$ 9.703592E01, 2.104688E01
$$ 9.713031E01, 1.747207E01
$$ 9.722319E01, 1.390267E01
$$ 9.731457E01, 1.033867E01
$$ 9.740443E01, 6.780075E00
$$ 9.749279E01, 3.226875E00
$$ 9.757964E01, 3.596791E02
$$ 9.766497E01, 3.561367E02
$$ 9.774879E01, 3.525997E02
$$ 9.783110E01, 3.490681E02
$$ 9.791189E01, 3.455419E02
$$ 9.799116E01, 3.420211E02
$$ 9.806892E01, 3.385057E02
$$ 9.814515E01, 3.349957E02
$$ 9.821986E01, 3.314911E02
$$ 9.829305E01, 3.279919E02
$$ 9.836472E01, 3.244981E02
$$ 9.843486E01, 3.210097E02
$$ 9.850348E01, 3.175267E02
$$ 9.857057E01, 3.140491E02
$$ 9.863613E01, 3.105769E02
$$ 9.870016E01, 3.071101E02
$$ 9.876267E01, 3.036487E02
$$ 9.882364E01, 3.001927E02
$$ 9.888308E01, 2.967421E02
$$ 9.894099E01, 2.932969E02
$$ 9.899737E01, 2.898571E02
$$ 9.905221E01, 2.864227E02
$$ 9.910551E01, 2.829937E02
$$ 9.915728E01, 2.795701E02
$$ 9.920752E01, 2.761519E02
$$ 9.925621E01, 2.727391E02
$$ 9.930337E01, 2.693317E02
$$ 9.934899E01, 2.659297E02
$$ 9.939307E01, 2.625331E02
$$ 9.943561E01, 2.591419E02
$$ 9.947660E01, 2.557561E02
$$ 9.951606E01, 2.523757E02
$$ 9.955397E01, 2.490007E02
$$ 9.959034E01, 2.456311E02
$$ 9.962517E01, 2.422669E02
$$ 9.965845E01, 2.389081E02
$$ 9.969019E01, 2.355547E02
$$ 9.972038E01, 2.322067E02
$$ 9.974903E01, 2.288641E02
$$ 9.977613E01, 2.255269E02
$$ 9.980168E01, 2.221951E02
$$ 9.982569E01, 2.188687E02
$$ 9.984815E01, 2.155477E02
$$ 9.986906E01, 2.122321E02
$$ 9.988843E01, 2.089219E02
$$ 9.990625E01, 2.056171E02
$$ 9.992252E01, 2.023177E02
$$ 9.993724E01, 1.990237E02
$$ 9.995041E01, 1.957351E02
$$ 9.996203E01, 1.924519E02
$$ 9.997210E01, 1.891741E02
$$ 9.998063E01, 1.859017E02
$$ 9.998760E01, 1.826347E02
$$ 9.999303E01, 1.793731E02
$$ 9.999690E01, 1.761169E02
$$ 9.999923E01, 1.728661E02
$$ 1.000000E02, 1.696207E02
$$ 1.000000E02, 1.663807E02
$$ 1.000000E02, 1.631461E02
$$ 1.000000E02, 1.599169E02
$$ 1.000000E02, 1.566931E02
$$ 1.000000E02, 1.534747E02
$$ 1.000000E02, 1.502617E02
$$ 1.000000E02, 1.470541E02
$$ 1.000000E02, 1.438519E02
$$ 1.000000E02, 1.406551E02
$$ 1.000000E02, 1.374637E02
$$ 1.000000E02, 1.342777E02
$$ 1.000000E02, 1.310971E02
$$ 1.000000E02, 1.279219E02
$$ 1.000000E02, 1.247521E02
$$ 1.000000E02, 1.215877E02
$$ 1.000000E02, 1.184287E02
$$ 1.000000E02, 1.152751E02
$$ 1.000000E02, 1.121269E02
$$ 1.000000E02, 1.089841E02
$$ 1.000000E02, 1.058467E02
$$ 1.000000E02, 1.027147E02
$$ 1.000000E02, 9.958808E01
$$ 1.000000E02, 9.646687E01
$$ 1.000000E02, 9.335107E01
$$ 1.000000E02, 9.024067E01
$$ 1.000000E02, 8.713567E01
$$ 1.000000E02, 8.403608E01
$$ 1.000000E02, 8.094188E01
$$ 1.000000E02, 7.785307E01
$$ 1.000000E02, 7.476967E01
$$ 1.000000E02, 7.169167E01
$$ 1.000000E02, 6.861908E01
$$ 1.000000E02, 6.555187E01
$$ 1.000000E02, 6.249007E01
$$ 1.000000E02, 5.943367E01
$$ 1.000000E02, 5.638267E01
$$ 1.000000E02, 5.333708E01
$$ 1.000000E02, 5.029688E01
$$ 1.000000E02, 4.726207E01
$$ 1.000000E02, 4.423267E01
$$ 1.000000E02, 4.120867E01
$$ 1.000000E02, 3.819007E01
$$ 1.000000E02, 3.517687E01
$$ 1.000000E02, 3.216908E01
$$ 1.000000E02, 2.916667E01
$$ 1.000000E02, 2.616967E01
$$ 1.000000E02, 2.317807E01
$$ 1.000000E02, 2.019187E01
$$ 1.000000E02, 1.721107E01
$$ 1.000000E02, 1.423568E01
$$ 1.000000E02, 1.126567E01
$$ 1.000000E02, 8.301075E00
$$ 1.000000E02, 5.341875E00
$$ 1.000000E02, 2.388075E00
$$ 1.000000E02, 3.594397E02
$$ 1.000000E02, 3.564967E02
$$ 1.000000E02, 3.535591E02
$$ 1.000000E02, 3.506269E02
$$ 1.000000E02, 3.477001E02
$$ 1.000000E02, 3.447787E02
$$ 1.000000E02, 3.418627E02
$$ 1.000000E02, 3.389521E02
$$ 1.000000E02, 3.360469E02
$$ 1.000000E02, 3.331471E02
$$ 1.000000E02, 3.302527E02
$$ 1.000000E02, 3.273637E02
$$ 1.000000E02, 3.244801E02
$$ 1.000000E02, 3.216019E02
$$ 1.000000E02, 3.187291E02
$$ 1.000000E02, 3.158617E02
$$ 1.000000E02, 3.129997E02
$$ 1.000000E02, 3.101431E02
$$ 1.000000E02, 3.072919E02
$$ 1.000000E02, 3.044461E02
$$ 1.000000E02, 3.016057E02
$$ 1.000000E02, 2.987707E02
$$ 1.000000E02, 2.959411E02
$$ 1.000000E02, 2.931169E02
$$ 1.000000E02, 2.902981E02
$$ 1.000000E02, 2.874847E02
$$ 1.000000E02, 2.846767E02
$$ 1.000000E02, 2.818741E02
$$ 1.000000E02, 2.790769E02
$$ 1.000000E02, 2.762851E02
$$ 1.000000E02, 2.734987E02
$$ 1.000000E02, 2.707177E02
$$ 1.000000E02, 2.679421E02
$$ 1.000000E02, 2.651719E02
$$ 1.000000E02, 2.624071E02
$$ 1.000000E02, 2.596477E02
$$ 1.000000E02, 2.568937E02
$$ 1.000000E02, 2.541451E02
$$ 1.000000E02, 2.514019E02
$$ 1.000000E02, 2.486641E02
$$ 1.000000E02, 2.459317E02
$$ 1.000000E02, 2.432047E02
$$ 1.000000E02, 2.404831E02
$$ 1.000000E02, 2.377669E02
$$ 1.000000E02, 2.350561E02
$$ 1.000000E02, 2.323507E02
$$ 1.000000E02, 2.296507E02
$$ 1.000000E02, 2.269561E02
$$ 1.000000E02, 2.242669E02
$$ 1.000000E02, 2.215831E02
$$ 1.000000E02, 2.189047E02
$$ 1.000000E02, 2.162317E02
$$ 1.000000E02, 2.135641E02
$$ 1.000000E02, 2.109019E02
$$ 1.000000E02, 2.082451E02
$$ 1.000000E02, 2.055937E02
$$ 1.000000E02, 2.029477E02
$$ 1.000000E02, 2.003071E02
$$ 1.000000E02, 1.976719E02
$$ 1.000000E02, 1.950421E02
$$ 1.000000E02, 1.924177E02
$$ 1.000000E02, 1.897987E02
$$ 1.000000E02, 1.871851E02
$$ 1.000000E02, 1.845769E02
$$ 1.000000E02, 1.819741E02
$$ 1.000000E02, 1.793767E02
$$ 1.000000E02, 1.767847E02
$$ 1.000000E02, 1.741981E02
$$ 1.000000E02, 1.716169E02
$$ 1.000000E02, 1.690411E02
$$ 1.000000E02, 1.664707E02
$$ 1.000000E02, 1.639057E02
$$ 1.000000E02, 1.613461E02
$$ 1.000000E02, 1.587919E02
$$ 1.000000E02, 1.562431E02
$$ 1.000000E02, 1.536997E02
$$ 1.000000E02, 1.511617E02
$$ 1.000000E02, 1.486291E02
$$ 1.000000E02, 1.461019E02
$$ 1.000000E02, 1.435801E02
$$ 1.000000E02, 1.410637E02
$$ 1.000000E02, 1.385527E02
$$ 1.000000E02, 1.360471E02
$$ 1.000000E02, 1.335469E02
$$ 1.000000E02, 1.310521E02
$$ 1.000000E02, 1.285627E02
$$ 1.000000E02, 1.260787E02
$$ 1.000000E02, 1.236001E02
$$ 1.000000E02, 1.211269E02
$$ 1.000000E02, 1.186591E02
$$ 1.000000E02, 1.161967E02
$$ 1.000000E02, 1.137397E02
$$ 1.000000E02, 1.112881E02
$$ 1.000000E02, 1.088419E02
$$ 1.000000E02, 1.064011E02
$$ 1.000000E02, 1.039657E02
$$ 1.000000E02, 1.015357E02
$$ 1.000000E02, 9.911107E01
$$ 1.000000E02, 9.669187E01
$$ 1.000000E02, 9.427807E01
$$ 1.000000E02, 9.186968E01
$$ 1.000000E02, 8.946667E01
$$ 1.000000E02, 8.706908E01
$$ 1.000000E02, 8.467687E01
$$ 1.000000E02, 8.229008E01
$$ 1.000000E02, 7.990868E01
$$ 1.000000E02, 7.753268E01
$$ 1.000000E02, 7.516207E01
$$ 1.000000E02, 7.279687E01
$$ 1.000000E02, 7.043707E01
$$ 1.000000E02, 6.808267E01
$$ 1.000000E02, 6.573368E01
$$ 1.000000E02, 6.339007E01
$$ 1.000000E02, 6.105188E01
$$ 1.000000E02, 5.871907E01
$$ 1.000000E02, 5.639168E01
$$ 1.000000E02, 5.406967E01
$$ 1.000000E02, 5.175308E01
$$ 1.000000E02, 4.944187E01
$$ 1.000000E02, 4.713607E01
$$ 1.000000E02, 4.483567E01
$$ 1.000000E02, 4.254067E01
$$ 1.000000E02, 4.025107E01
$$ 1.000000E02, 3.796687E01
$$ 1.000000E02, 3.568807E01
$$ 1.000000E02, 3.341467E01
$$ 1.000000E02, 3.114668E01
$$ 1.000000E02, 2.888407E01
$$ 1.000000E02, 2.662687E01
$$ 1.000000E02, 2.437507E01
$$ 1.000000E02, 2.212867E01
$$ 1.000000E02, 1.988768E01
$$ 1.000000E02, 1.765207E01
$$ 1.000000E02, 1.542188E01
$$ 1.000000E02, 1.319707E01
$$ 1.000000E02, 1.097767E01
$$ 1.000000E02, 8.763675E00
$$ 1.000000E02, 6.555075E00
$$ 1.000000E02, 4.351875E00
$$ 1.000000E02, 2.154075E00
$$ 1.000000E02, 3.599617E02
$$ 1.000000E02, 3.577747E02
$$ 1.000000E02, 3.555931E02
$$ 1.000000E02, 3.534169E02
$$ 1.000000E02, 3.512461E02
$$ 1.000000E02, 3.490807E02
$$ 1.000000E02, 3.469207E02
$$ 1.000000E02, 3.447661E02
$$ 1.000000E02, 3.426169E02
$$ 1.000000E02, 3.404731E02
$$ 1.000000E02, 3.383347E02
$$ 1.000000E02, 3.362017E02
$$ 1.000000E02, 3.340741E02
$$ 1.000000E02, 3.319519E02
$$ 1.000000E02, 3.298351E02
$$ 1.000000E02, 3.277237E02
$$ 1.000000E02, 3.256177E02
$$ 1.000000E02, 3.235171E02
$$ 1.000000E02, 3.214219E02
$$ 1.000000E02, 3.193321E02
$$ 1.000000E02, 3.172477E02
$$ 1.000000E02, 3.151687E02
$$ 1.000000E02, 3.130951E02
$$ 1.000000E02, 3.110269E02
$$ 1.000000E02, 3.089641E02
$$ 1.000000E02, 3.069067E02
$$ 1.000000E02, 3.048547E02
$$ 1.000000E02, 3.028081E02
$$ 1.000000E02, 3.007669E02
$$ 1.000000E02, 2.987311E02
$$ 1.000000E02, 2.967007E02
$$ 1.000000E02, 2.946757E02
$$ 1.000000E02, 2.926561E02
$$ 1.000000E02, 2.906419E02
$$ 1.000000E02, 2.886331E02
$$ 1.000000E02, 2.866297E02
$$ 1.000000E02, 2.846317E02
$$ 1.000000E02, 2.826391E02
$$ 1.000000E02, 2.806519E02
$$ 1.000000E02, 2.786701E02
$$ 1.000000E02, 2.766937E02
$$ 1.000000E02, 2.747227E02
$$ 1.000000E02, 2.727571E02
$$ 1.000000E02, 2.707969E02
$$ 1.000000E02, 2.688421E02
$$ 1.000000E02, 2.668927E02
$$ 1.000000E02, 2.649487E02
$$ 1.000000E02, 2.630101E02
$$ 1.000000E02, 2.610769E02
$$ 1.000000E02, 2.591491E02
$$ 1.000000E02, 2.572267E02
$$ 1.000000E02, 2.553097E02
$$ 1.000000E02, 2.533981E02
$$ 1.000000E02, 2.514919E02
$$ 1.000000E02, 2.495911E02
$$ 1.000000E02, 2.476957E02
$$ 1.000000E02, 2.458057E02
$$ 1.000000E02, 2.439211E02
$$ 1.000000E02, 2.420419E02
$$ 1.000000E02, 2.401681E02
$$ 1.000000E02, 2.382997E02
$$ 1.000000E02, 2.364367E02
$$ 1.000000E02, 2.345791E02
$$ 1.000000E02, 2.327269E02
$$ 1.000000E02, 2.308801E02
$$ 1.000000E02, 2.290387E02
$$ 1.000000E02, 2.272027E02
$$ 1.000000E02, 2.253721E02
$$ 1.000000E02, 2.235469E02
$$ 1.000000E02, 2.217271E02
$$ 1.000000E02, 2.199127E02
$$ 1.000000E02, 2.181037E02
$$ 1.000000E02, 2.163001E02
$$ 1.000000E02, 2.145019E02
$$ 1.000000E02, 2.127091E02
$$ 1.000000E02, 2.109217E02
$$ 1.000000E02, 2.091397E02
$$ 1.000000E02, 2.073631E02
$$ 1.000000E02, 2.055919E02
$$ 1.000000E02, 2.038261E02
$$ 1.000000E02, 2.020657E02
$$ 1.000000E02, 2.003107E02
$$ 1.000000E02, 1.985611E02
$$ 1.000000E02, 1.968169E02
$$ 1.000000E02, 1.950781E02
$$ 1.000000E02, 1.933447E02
$$ 1.000000E02, 1.916167E02
$$ 1.000000E02, 1.898941E02
$$ 1.000000E02, 1.881769E02
$$ 1.000000E02, 1.864651E02
$$ 1.000000E02, 1.847587E02
$$ 1.000000E02, 1.830577E02
$$ 1.000000E02, 1.813621E02
$$ 1.000000E02, 1.796719E02
$$ 1.000000E02, 1.779871E02
$$ 1.000000E02, 1.763077E02
$$ 1.000000E02, 1.746337E02
$$ 1.000000E02, 1.729651E02
$$ 1.000000E02, 1.713019E02
$$ 1.000000E02, 1.696441E02
$$ 1.000000E02, 1.679917E02
$$ 1.000000E02, 1.663447E02
$$ 1.000000E02, 1.647031E02
$$ 1.000000E02, 1.630669E02
$$ 1.000000E02, 1.614361E02
$$ 1.000000E02, 1.598107E02
$$ 1.000000E02, 1.581907E02
$$ 1.000000E02, 1.565761E02
$$ 1.000000E02, 1.549669E02
$$ 1.000000E02, 1.533631E02
$$ 1.000000E02, 1.517647E02
$$ 1.000000E02, 1.501717E02
$$ 1.000000E02, 1.485841E02
$$ 1.000000E02, 1.470019E02
$$ 1.000000E02, 1.454251E02
$$ 1.000000E02, 1.438537E02
$$ 1.000000E02, 1.422877E02
$$ 1.000000E02, 1.407271E02
$$ 1.000000E02, 1.391719E02
$$ 1.000000E02, 1.376221E02
$$ 1.000000E02, 1.360777E02
$$ 1.000000E02, 1.345387E02
$$ 1.000000E02, 1.330051E02
$$ 1.000000E02, 1.314769E02
$$ 1.000000E02, 1.299541E02
$$ 1.000000E02, 1.284367E02
$$ 1.000000E02, 1.269247E02
$$ 1.000000E02, 1.254181E02
$$ 1.000000E02, 1.239169E02
$$ 1.000000E02, 1.224211E02
$$ 1.000000E02, 1.209307E02
$$ 1.000000E02, 1.194457E02
$$ 1.000000E02, 1.179661E02
$$ 1.000000E02, 1.164919E02
$$ 1.000000E02, 1.150231E02
$$ 1.000000E02, 1.135597E02
$$ 1.000000E02, 1.121017E02
$$ 1.000000E02, 1.106491E02
$$ 1.000000E02, 1.092019E02
$$ 1.000000E02, 1.077601E02
$$ 1.000000E02, 1.063237E02
$$ 1.000000E02, 1.048927E02
$$ 1.000000E02, 1.034671E02
$$ 1.000000E02, 1.020469E02
$$ 1.000000E02, 1.006321E02
$$ 1.000000E02, 9.922267E01
$$ 1.000000E02, 9.781867E01
$$ 1.000000E02, 9.642008E01
$$ 1.000000E02, 9.502687E01
$$ 1.000000E02, 9.363907E01
$$ 1.000000E02, 9.225667E01
$$ 1.000000E02, 9.087967E01
$$ 1.000000E02, 8.950807E01
$$ 1.000000E02, 8.814188E01
$$ 1.000000E02, 8.678107E01
$$ 1.000000E02, 8.542567E01
$$ 1.000000E02, 8.407567E01
$$ 1.000000E02, 8.273107E01
$$ 1.000000E02, 8.139188E01
$$ 1.000000E02, 8.005807E01
$$ 1.000000E02, 7.872967E01
$$ 1.000000E02, 7.740667E01
$$ 1.000000E02, 7.608907E01
$$ 1.000000E02, 7.477687E01
$$ 1.000000E02, 7.347007E01
$$ 1.000000E02, 7.216868E01
$$ 1.000000E02, 7.087268E01
$$ 1.000000E02, 6.958208E01
$$ 1.000000E02, 6.829688E01
$$ 1.000000E02, 6.701708E01
$$ 1.000000E02, 6.574267E01
$$ 1.000000E02, 6.447367E01
$$ 1.000000E02, 6.321007E01
$$ 1.000000E02, 6.195188E01
$$ 1.000000E02, 6.069907E01
$$ 1.000000E02, 5.945167E01
$$ 1.000000E02, 5.820968E01
$$ 1.000000E02, 5.697307E01
$$ 1.000000E02, 5.574187E01
$$ 1.000000E02, 5.451608E01
$$ 1.000000E02, 5.329567E01
$$ 1.000000E02, 5.208067E01
$$ 1.000000E02, 5.087107E01
$$ 1.000000E02, 4.966687E01
$$ 1.000000E02, 4.846808E01
$$ 1.000000E02, 4.727468E01
$$ 1.000000E02, 4.608667E01
$$ 1.000000E02, 4.490408E01
$$ 1.000000E02, 4.372688E01
$$ 1.000000E02, 4.255507E01
$$ 1.000000E02, 4.138867E01
$$ 1.000000E02, 4.022767E01
$$ 1.000000E02, 3.907207E01
$$ 1.000000E02, 3.792187E01
$$ 1.000000E02, 3.677707E01
$$ 1.000000E02, 3.563767E01
$$ 1.000000E02, 3.450367E01
$$ 1.000000E02, 3.337507E01
$$ 1.000000E02, 3.225188E01
$$ 1.000000E02, 3.113407E01
$$ 1.000000E02, 3.002167E01
$$ 1.000000E02, 2.891467E01
$$ 1.000000E02, 2.781307E01
$$ 1.000000E02, 2.671688E01
$$ 1.000000E02, 2.562607E01
$$ 1.000000E02, 2.454067E01
$$ 1.000000E02, 2.346067E01
$$ 1.000000E02, 2.238608E01
$$ 1.000000E02, 2.131687E01
$$ 1.000000E02, 2.025307E01
$$ 1.000000E02, 1.919467E01
$$ 1.000000E02, 1.814167E01
$$ 1.000000E02, 1.709407E01
$$ 1.000000E02, 1.605187E01
$$ 1.000000E02, 1.501507E01
$$ 1.000000E02, 1.398367E01
$$ 1.000000E02, 1.295768E01
$$ 1.000000E02, 1.193707E01
$$ 1.000000E02, 1.092188E01
$$ 1.000000E02, 9.912075E00
$$ 1.000000E02, 8.907675E00
$$ 1.000000E02, 7.908675E00
$$ 1.000000E02, 6.915075E00
$$ 1.000000E02, 5.926875E00
$$ 1.000000E02, 4.944075E00
$$ 1.000000E02, 3.966675E00
$$ 1.000000E02, 2.994675E00
$$ 1.000000E02, 2.028075E00
$$ 1.000000E02, 1.066875E00
$$ 1.000000E02, 1.110750E-01
$$ 1.000000E02, 3.591607E02
$$ 1.000000E02, 3.582157E02
$$ 1.000000E02, 3.572761E02
$$ 1.000000E02, 3.563419E02
$$ 1.000000E02, 3.554131E02
$$ 1.000000E02, 3.544897E02
$$ 1.000000E02, 3.535717E02
$$ 1.000000E02, 3.526591E02
$$ 1.000000E02, 3.517519E02
$$ 1.000000E02, 3.508501E02
$$ 1.000000E02, 3.499537E02
$$ 1.000000E02, 3.490627E02
$$ 1.000000E02, 3.481771E02
$$ 1.000000E02, 3.472969E02
$$ 1.000000E02, 3.464221E02
$$ 1.000000E02, 3.455527E02
$$ 1.000000E02, 3.446887E02
$$ 1.000000E02, 3.438301E02
$$ 1.000000E02, 3.429769E02
$$ 1.000000E02, 3.421291E02
$$ 1.000000E02, 3.412867E02
$$ 1.000000E02, 3.404497E02
$$ 1.000000E02, 3.396181E02
$$ 1.000000E02, 3.387919E02
$$ 1.000000E02, 3.379711E02
$$ 1.000000E02, 3.371557E02
$$ 1.000000E02, 3.363457E02
$$ 1.000000E02, 3.355411E02
$$ 1.000000E02, 3.347419E02
$$ 1.000000E02, 3.339481E02
$$ 1.000000E02, 3.331597E02
$$ 1.000000E02, 3.323767E02
$$ 1.000000E02, 3.315991E02
$$ 1.000000E02, 3.308269E02
$$ 1.000000E02, 3.300601E02
$$ 1.000000E02, 3.292987E02
$$ 1.000000E02, 3.285427E02
$$ 1.000000E02, 3.277921E02
$$ 1.000000E02, 3.270469E02
$$ 1.000000E02, 3.263071E02
$$ 1.000000E02, 3.255727E02
$$ 1.000000E02, 3.248437E02
$$ 1.000000E02, 3.241201E02
$$ 1.000000E02, 3.234019E02
$$ 1.000000E02, 3.226891E02
$$ 1.000000E02, 3.219817E02
$$ 1.000000E02, 3.212797E02
$$ 1.000000E02, 3.205831E02
$$ 1.000000E02, 3.198919E02
$$ 1.000000E02, 3.192061E02
$$ 1.000000E02, 3.185257E02
$$ 1.000000E02, 3.178507E02
$$ 1.000000E02, 3.171811E02
$$ 1.000000E02, 3.165169E02
$$ 1.000000E02, 3.158581E02
$$ 1.000000E02, 3.152047E02
$$ 1.000000E02, 3.145567E02
$$ 1.000000E02, 3.139141E02
$$ 1.000000E02, 3.132769E02
$$ 1.000000E02, 3.126451E02
$$ 1.000000E02, 3.120187E02
$$ 1.000000E02, 3.113977E02
$$ 1.000000E02, 3.107821E02
$$ 1.000000E02, 3.101719E02
$$ 1.000000E02, 3.095671E02
$$ 1.000000E02, 3.089677E02
$$ 1.000000E02, 3.083737E02
$$ 1.000000E02, 3.077851E02
$$ 1.000000E02, 3.072019E02
$$ 1.000000E02, 3.066241E02
$$ 1.000000E02, 3.060517E02
$$ 1.000000E02, 3.054847E02
$$ 1.000000E02, 3.049231E02
$$ 1.000000E02, 3.043669E02
$$ 1.000000E02, 3.038161E02
$$ 1.000000E02, 3.032707E02
$$ 1.000000E02, 3.027307E02
$$ 1.000000E02, 3.021961E02
$$ 1.000000E02, 3.016669E02
$$ 1.000000E02, 3.011431E02
$$ 1.000000E02, 3.006247E02
$$ 1.000000E02, 3.001117E02
$$ 1.000000E02, 2.996041E02
$$ 1.000000E02, 2.991019E02
$$ 1.000000E02, 2.986051E02
$$ 1.000000E02, 2.981137E02
$$ 1.000000E02, 2.976277E02
$$ 1.000000E02, 2.971471E02
$$ 1.000000E02, 2.966719E02
$$ 1.000000E02, 2.962021E02
$$ 1.000000E02, 2.957377E02
$$ 1.000000E02, 2.952787E02
$$ 1.000000E02, 2.948251E02
$$ 1.000000E02, 2.943769E02
$$ 1.000000E02, 2.939341E02
$$ 1.000000E02, 2.934967E02
$$ 1.000000E02, 2.930647E02
$$ 1.000000E02, 2.926381E02
$$ 1.000000E02, 2.922169E02
$$ 1.000000E02, 2.918011E02
$$ 1.000000E02, 2.913907E02
$$ 1.000000E02, 2.909857E02
$$ 1.000000E02, 2.905861E02
$$ 1.000000E02, 2.901919E02
$$ 1.000000E02, 2.898031E02
$$ 1.000000E02, 2.894197E02
$$ 1.000000E02, 2.890417E02
$$ 1.000000E02, 2.886691E02
$$ 1.000000E02, 2.883019E02
$$ 1.000000E02, 2.879401E02
$$ 1.000000E02, 2.875837E02
$$ 1.000000E02, 2.872327E02
$$ 1.000000E02, 2.868871E02
$$ 1.000000E02, 2.865469E02
$$ 1.000000E02, 2.862121E02
$$ 1.000000E02, 2.858827E02
$$ 1.000000E02, 2.855587E02
$$ 1.000000E02, 2.852401E02
$$ 1.000000E02, 2.849269E02
$$ 1.000000E02, 2.846191E02
$$ 1.000000E02, 2.843167E02
$$ 1.000000E02, 2.840197E02
$$ 1.000000E02, 2.837281E02
$$ 1.000000E02, 2.834419E02
$$ 1.000000E02, 2.831611E02
$$ 1.000000E02, 2.828857E02
$$ 1.000000E02, 2.826157E02
$$ 1.000000E02, 2.823511E02
$$ 1.000000E02, 2.820919E02
$$ 1.000000E02, 2.818381E02
$$ 1.000000E02, 2.815897E02
$$ 1.000000E02, 2.813467E02
$$ 1.000000E02, 2.811091E02
$$ 1.000000E02, 2.808769E02
$$ 1.000000E02, 2.806501E02
$$ 1.000000E02, 2.804287E02
$$ 1.000000E02, 2.802127E02
$$ 1.000000E02, 2.800021E02
$$ 1.000000E02, 2.797969E02
$$ 1.000000E02, 2.795971E02
$$ 1.000000E02, 2.794027E02
$$ 1.000000E02, 2.792137E02
$$ 1.000000E02, 2.790301E02
$$ 1.000000E02, 2.788519E02
$$ 1.000000E02, 2.786791E02
$$ 1.000000E02, 2.785117E02
$$ 1.000000E02, 2.783497E02
$$ 1.000000E02, 2.781931E02
$$ 1.000000E02, 2.780419E02
$$ 1.000000E02, 2.778961E02
$$ 1.000000E02, 2.777557E02
$$ 1.000000E02, 2.776207E02
$$ 1.000000E02, 2.774911E02
$$ 1.000000E02, 2.773669E02
$$ 1.000000E02, 2.772481E02
$$ 1.000000E02, 2.771347E02
$$ 1.000000E02, 2.770267E02
$$ 1.000000E02, 2.769241E02
$$ 1.000000E02, 2.768269E02
$$ 1.000000E02, 2.767351E02
$$ 1.000000E02, 2.766487E02
$$ 1.000000E02, 2.765677E02
$$ 1.000000E02, 2.764921E02
$$ 1.000000E02, 2.764219E02
$$ 1.000000E02, 2.763571E02
$$ 1.000000E02, 2.762977E02
$$ 1.000000E02, 2.762437E02
$$ 1.000000E02, 2.761951E02
$$ 1.000000E02, 2.761519E02
$$ 1.000000E02, 2.761141E02
$$ 1.000000E02, 2.760817E02
$$ 1.000000E02, 2.760547E02
$$ 1.000000E02, 2.760331E02
$$ 1.000000E02, 2.760169E02
$$ 1.000000E02, 2.760061E02
$$ 1.000000E02, 2.760007E02
$$ 1.000000E02, 2.760007E02
$$ 1.000000E02, 2.760061E02
$$ 1.000000E02, 2.760169E02
$$ 1.000000E02, 2.760331E02
$$ 1.000000E02, 2.760547E02
$$ 1.000000E02, 2.760817E02
$$ 1.000000E02, 2.761141E02
$$ 1.000000E02, 2.761519E02
$$ 1.000000E02, 2.761951E02
$$ 1.000000E02, 2.762437E02
$$ 1.000000E02, 2.762977E02
$$ 1.000000E02, 2.763571E02
$$ 1.000000E02, 2.764219E02
$$ 1.000000E02, 2.764921E02
$$ 1.000000E02, 2.765677E02
$$ 1.000000E02, 2.766487E02
$$ 1.000000E02, 2.767351E02
$$ 1.000000E02, 2.768269E02
$$ 1.000000E02, 2.769241E02
$$ 1.000000E02, 2.770267E02
$$ 1.000000E02, 2.771347E02
$$ 1.000000E02, 2.772481E02
$$ 1.000000E02, 2.773669E02
$$ 1.000000E02, 2.774911E02
$$ 1.000000E02, 2.776207E02
$$ 1.000000E02, 2.777557E02
$$ 1.000000E02, 2.778961E02
$$ 1.000000E02, 2.780419E02
$$ 1.000000E02, 2.781931E02
$$ 1.000000E02, 2.783497E02
$$ 1.000000E02, 2.785117E02
$$ 1.000000E02, 2.786791E02
$$ 1.000000E02, 2.788519E02
$$ 1.000000E02, 2.790301E02
$$ 1.000000E02, 2.792137E02
$$ 1.000000E02, 2.794027E02
$$ 1.000000E02, 2.795971E02
$$ 1.000000E02, 2.797969E02
$$ 1.000000E02, 2.800021E02
$$ 1.000000E02, 2.802127E02
$$ 1.000000E02, 2.804287E02
$$ 1.000000E02, 2.806501E02
$$ 1.000000E02, 2.808769E02
$$ 1.000000E02, 2.811091E02
$$ 1.000000E02, 2.813467E02
$$ 1.000000E02, 2.815897E02
$$ 1.000000E02, 2.818381E02
$$ 1.000000E02, 2.820919E02
$$ 1.000000E02, 2.823511E02
$$ 1.000000E02, 2.826157E02
$$ 1.000000E02, 2.828857E02
$$ 1.000000E02, 2.831611E02
$$ 1.000000E02, 2.834419E02
$$ 1.000000E02, 2.837281E02
$$ 1.000000E02, 2.840197E02
$$ 1.000000E02, 2.843167E02
$$ 1.000000E02, 2.846191E02
$$ 1.000000E02, 2.849269E02
$$ 1.000000E02, 2.852401E02
$$ 1.000000E02, 2.855587E02
$$ 1.000000E02, 2.858827E02
$$ 1.000000E02, 2.862121E02
$$ 1.000000E02, 2.865469E02
$$ 1.000000E02, 2.868871E02
$$ 1.000000E02, 2.872327E02
$$ 1.000000E02, 2.875837E02
$$ 1.000000E02, 2.879401E02
$$ 1.000000E02, 2.883019E02
$$ 1.000000E02, 2.886691E02
$$ 1.000000E02, 2.890417E02
$$ 1.000000E02, 2.894197E02
$$ 1.000000E02, 2.898031E02
$$ 1.000000E02, 2.901919E02
$$ 1.000000E02, 2.905861E02
$$ 1.000000E02, 2.909857E02
$$ 1.000000E02, 2.913907E02
$$ 1.000000E02, 2.918011E02
$$ 1.000000E02, 2.922169E02
$$ 1.000000E02, 2.926381E02
$$ 1.000000E02, 2.930647E02
$$ 1.000000E02, 2.934967E02
$$ 1.000000E02, 2.939341E02
$$ 1.000000E02, 2.943769E02
$$ 1.000000E02, 2.948251E02
$$ 1.000000E02, 2.952787E02
$$ 1.000000E02, 2.957377E02
$$ 1.000000E02, 2.962021E02
$$ 1.000000E02, 2.966719E02
$$ 1.000000E02, 2.971471E02
$$ 1.000000E02, 2.976277E02
$$ 1.000000E02, 2.981137E02
$$ 1.000000E02, 2.986051E02
$$ 1.000000E02, 2.991019E02
$$ 1.000000E02, 2.996041E02
$$ 1.000000E02, 3.001117E02
$$ 1.000000E02, 3.006247E02
$$ 1.000000E02, 3.011431E02
$$ 1.000000E02, 3.016669E02
$$ 1.000000E02, 3.021961E02
$$ 1.000000E02, 3.027307E02
$$ 1.000000E02, 3.032707E02
$$ 1.000000E02, 3.038161E02
$$ 1.000000E02, 3.043669E02
$$ 1.000000E02, 3.049231E02
$$ 1.000000E02, 3.054847E02
$$ 1.000000E02, 3.060517E02
$$ 1.000000E02, 3.066241E02
$$ 1.000000E02, 3.072019E02
$$ 1.000000E02, 3.077851E02
$$ 1.000000E02, 3.083737E02
$$ 1.000000E02, 3.089677E02
$$ 1.000000E02, 3.095671E02
$$ 1.000000E02, 3.101719E02
$$ 1.000000E02, 3.107821E02
$$ 1.000000E02, 3.113977E02
$$ 1.000000E02, 3.120187E02
$$ 1.000000E02, 3.126451E02
$$ 1.000000E02, 3.132769E02
$$ 1.000000E02, 3.139141E02
$$ 1.000000E02, 3.145567E02
$$ 1.000000E02, 3.152047E02
$$ 1.000000E02, 3.158581E02
$$ 1.000000E02, 3.165169E02
$$ 1.000000E02, 3.171811E02
$$ 1.000000E02, 3.178507E02
$$ 1.000000E02, 3.185257E02
$$ 1.000000E02, 3.192061E02
$$ 1.000000E02, 3.198919E02
$$ 1.000000E02, 3.205831E02
$$ 1.000000E02, 3.212797E02
$$ 1.000000E02, 3.219817E02
$$ 1.000000E02, 3.226891E02
$$ 1.000000E02, 3.234019E02
$$ 1.000000E02, 3.241201E02
$$ 1.000000E02, 3.248437E02
$$ 1.000000E02, 3.255727E02
$$ 1.000000E02, 3.263071E02
$$ 1.000000E02, 3.270469E02
$$ 1.000000E02, 3.277921E02
$$ 1.000000E02, 3.285427E02
$$ 1.000000E02, 3.292987E02
$$ 1.000000E02, 3.300601E02
$$ 1.000000E02, 3.308269E02
$$ 1.000000E02, 3.315991E02
$$ 1.000000E02, 3.323767E02
$$ 1.000000E02, 3.331597E02
$$ 1.000000E02, 3.339481E02
$$ 1.000000E02, 3.347419E02
$$ 1.000000E02, 3.355411E02
$$ 1.000000E02, 3.363457E02
$$ 1.000000E02, 3.371557E02
$$ 1.000000E02, 3.379711E02
$$ 1.000000E02, 3.387919E02
$$ 1.000000E02, 3.396181E02
$$ 1.000000E02, 3.404497E02
$$ 1.000000E02, 3.412867E02
$$ 1.000000E02, 3.421291E02
$$ 1.000000E02, 3.429769E02
$$ 1.000000E02, 3.438301E02
$$ 1.000000E02, 3.446887E02
$$ 1.000000E02, 3.455527E02
$$ 1.000000E02, 3.464221E02
$$ 1.000000E02, 3.472969E02
$$ 1.000000E02, 3.481771E02
$$ 1.000000E02, 3.490627E02
$$ 1.000000E02, 3.499537E02
$$ 1.000000E02, 3.508501E02
$$ 1.000000E02, 3.517519E02
$$ 1.000000E02, 3.526591E02
$$ 1.000000E02, 3.535717E02
$$ 1.000000E02, 3.544897E02
$$ 1.000000E02, 3.554131E02
$$ 1.000000E02, 3.563419E02
$$ 1.000000E02, 3.572761E02
$$ 1.000000E02, 3.582157E02
$$ 1.000000E02, 3.591607E02
$$ 1.000000E02, 1.110750E-01
$$ 1.000000E02, 1.066875E00
$$ 1.000000E02, 2.028075E00
$$ 1.000000E02, 2.994675E00
$$ 1.000000E02, 3.966675E00
$$ 1.000000E02, 4.944075E00
$$ 1.000000E02, 5.926875E00
$$ 1.000000E02, 6.915075E00
$$ 1.000000E02, 7.908675E00
$$ 1.000000E02, 8.907675E00
$$ 1.000000E02, 9.912075E00
$$ 1.000000E02, 1.092188E01
$$ 1.000000E02, 1.193707E01
$$ 1.000000E02, 1.295768E01
$$ 1.000000E02, 1.398367E01
$$ 1.000000E02, 1.501507E01
$$ 1.000000E02, 1.605187E01
$$ 1.000000E02, 1.709407E01
$$ 1.000000E02, 1.814167E01
$$ 1.000000E02, 1.919467E01
$$ 1.000000E02, 2.025307E01
$$ 1.000000E02, 2.131687E01
$$ 1.000000E02, 2.238608E01
$$ 1.000000E02, 2.346067E01
$$ 1.000000E02, 2.454067E01
$$ 1.000000E02, 2.562607E01
$$ 1.000000E02, 2.671688E01
$$ 1.000000E02, 2.781307E01
$$ 1.000000E02, 2.891467E01
$$ 1.000000E02, 3.002167E01
$$ 1.000000E02, 3.113407E01
$$ 1.000000E02, 3.225188E01
$$ 1.000000E02, 3.337507E01
$$ 1.000000E02, 3.450367E01
$$ 1.000000E02, 3.563767E01
$$ 1.000000E02, 3.677707E01
$$ 1.000000E02, 3.792187E01
$$ 1.000000E02, 3.907207E01
$$ 1.000000E02, 4.022767E01
$$ 1.000000E02, 4.138867E01
$$ 1.000000E02, 4.255507E01
$$ 1.000000E02, 4.372688E01
$$ 1.000000E02, 4.490408E01
$$ 1.000000E02, 4.608667E01
$$ 1.000000E02, 4.727468E01
$$ 1.000000E02, 4.846808E01
$$ 1.000000E02, 4.966687E01
$$ 1.000000E02, 5.087107E01
$$ 1.000000E02, 5.208067E01
$$ 1.000000E02, 5.329567E01
$$ 1.000000E02, 5.451608E01
$$ 1.000000E02, 5.574187E01
$$ 1.000000E02, 5.697307E01
$$ 1.000000E02, 5.820968E01
$$ 1.000000E02, 5.945167E01
$$ 1.000000E02, 6.069907E01
$$ 1.000000E02, 6.195188E01
$$ 1.000000E02, 6.321007E01
$$ 1.000000E02, 6.447367E01
$$ 1.000000E02, 6.574267E01
$$ 1.000000E02, 6.701708E01
$$ 1.000000E02, 6.829688E01
$$ 1.000000E02, 6.958208E01
$$ 1.000000E02, 7.087268E01
$$ 1.000000E02, 7.216868E01
$$ 1.000000E02, 7.347007E01
$$ 1.000000E02, 7.477687E01
$$ 1.000000E02, 7.608907E01
$$ 1.000000E02, 7.740667E01
$$ 1.000000E02, 7.872967E01
$$ 1.000000E02, 8.005807E01
$$ 1.000000E02, 8.139188E01
$$ 1.000000E02, 8.273107E01
$$ 1.000000E02, 8.407567E01
$$ 1.000000E02, 8.542567E01
$$ 1.000000E02, 8.678107E01
$$ 1.000000E02, 8.814188E01
$$ 1.000000E02, 8.950807E01
$$ 1.000000E02, 9.087967E01
$$ 1.000000E02, 9.225667E01
$$ 1.000000E02, 9.363907E01
$$ 1.000000E02, 9.502687E01
$$ 1.000000E02, 9.642008E01
$$ 1.000000E02, 9.781867E01
$$ 1.000000E02, 9.922267E01
$$ 1.000000E02, 1.006321E02
$$ 1.000000E02, 1.020469E02
$$ 1.000000E02, 1.034671E02
$$ 1.000000E02, 1.048927E02
$$ 1.000000E02, 1.063237E02
$$ 1.000000E02, 1.077601E02
$$ 1.000000E02, 1.092019E02
$$ 1.000000E02, 1.106491E02
$$ 1.000000E02, 1.121017E02
$$ 1.000000E02, 1.135597E02
$$ 1.000000E02, 1.150231E02
$$ 1.000000E02, 1.164919E02
$$ 1.000000E02, 1.179661E02
$$ 1.000000E02, 1.194457E02
$$ 1.000000E02, 1.209307E02
$$ 1.000000E02, 1.224211E02
$$ 1.000000E02, 1.239169E02
$$ 1.000000E02, 1.254181E02
$$ 1.000000E02, 1.269247E02
$$ 1.000000E02, 1.284367E02
$$ 1.000000E02, 1.299541E02
$$ 1.000000E02, 1.314769E02
$$ 1.000000E02, 1.330051E02
$$ 1.000000E02, 1.345387E02
$$ 1.000000E02, 1.360777E02
$$ 1.000000E02, 1.376221E02
$$ 1.000000E02, 1.391719E02
$$ 1.000000E02, 1.407271E02
$$ 1.000000E02, 1.422877E02
$$ 1.000000E02, 1.438537E02
$$ 1.000000E02, 1.454251E02
$$ 1.000000E02, 1.470019E02
$$ 1.000000E02, 1.485841E02
$$ 1.000000E02, 1.501717E02
$$ 1.000000E02, 1.517647E02
$$ 1.000000E02, 1.533631E02
$$ 1.000000E02, 1.549669E02
$$ 1.000000E02, 1.565761E02
$$ 1.000000E02, 1.581907E02
$$ 1.000000E02, 1.598107E02
$$ 1.000000E02, 1.614361E02
$$ 1.000000E02, 1.630669E02
$$ 1.000000E02, 1.647031E02
$$ 1.000000E02, 1.663447E02
$$ 1.000000E02, 1.679917E02
$$ 1.000000E02, 1.696441E02
$$ 1.000000E02, 1.713019E02
$$ 1.000000E02, 1.729651E02
$$ 1.000000E02, 1.746337E02
$$ 1.000000E02, 1.763077E02
$$ 1.000000E02, 1.779871E02
$$ 1.000000E02, 1.796719E02
$$ 1.000000E02, 1.813621E02
$$ 1.000000E02, 1.830577E02
$$ 1.000000E02, 1.847587E02
$$ 1.000000E02, 1.864651E02
$$ 1.000000E02, 1.881769E02
$$ 1.000000E02, 1.898941E02
$$ 1.000000E02, 1.916167E02
$$ 1.000000E02, 1.933447E02
$$ 1.000000E02, 1.950781E02
$$ 1.000000E02, 1.968169E02
$$ 1.000000E02, 1.985611E02
$$ 1.000000E02, 2.003107E02
$$ 1.000000E02, 2.020657E02
$$ 1.000000E02, 2.038261E02
$$ 1.000000E02, 2.055919E02
$$ 1.000000E02, 2.073631E02
$$ 1.000000E02, 2.091397E02
$$ 1.000000E02, 2.109217E02
$$ 1.000000E02, 2.127091E02
$$ 1.000000E02, 2.145019E02
$$ 1.000000E02, 2.163001E02
$$ 1.000000E02, 2.181037E02
$$ 1.000000E02, 2.199127E02
$$ 1.000000E02, 2.217271E02
$$ 1.000000E02, 2.235469E02
$$ 1.000000E02, 2.253721E02
$$ 1.000000E02, 2.272027E02
$$ 1.000000E02, 2.290387E02
$$ 1.000000E02, 2.308801E02
$$ 1.000000E02, 2.327269E02
$$ 1.000000E02, 2.345791E02
$$ 1.000000E02, 2.364367E02
$$ 1.000000E02, 2.382997E02
$$ 1.000000E02, 2.401681E02
$$ 1.000000E02, 2.420419E02
$$ 1.000000E02, 2.439211E02
$$ 1.000000E02, 2.458057E02
$$ 1.000000E02, 2.476957E02
$$ 1.000000E02, 2.495911E02
$$ 1.000000E02, 2.514919E02
$$ 1.000000E02, 2.533981E02
$$ 1.000000E02, 2.553097E02
$$ 1.000000E02, 2.572267E02
$$ 1.000000E02, 2.591491E02
$$ 1.000000E02, 2.610769E02
$$ 1.000000E02, 2.630101E02
$$ 1.000000E02, 2.649487E02
$$ 1.000000E02, 2.668927E02
$$ 1.000000E02, 2.688421E02
$$ 1.000000E02, 2.707969E02
$$ 1.000000E02, 2.727571E02
$$ 1.000000E02, 2.747227E02
$$ 1.000000E02, 2.766937E02
$$ 1.000000E02, 2.786701E02
$$ 1.000000E02, 2.806519E02
$$ 1.000000E02, 2.826391E02
$$ 1.000000E02, 2.846317E02
$$ 1.000000E02, 2.866297E02
$$ 1.000000E02, 2.886331E02
$$ 1.000000E02, 2.906419E02
$$ 1.000000E02, 2.926561E02
$$ 1.000000E02, 2.946757E02
$$ 1.000000E02, 2.967007E02
$$ 1.000000E02, 2.987311E02
$$ 1.000000E02, 3.007669E02
$$ 1.000000E02, 3.028081E02
$$ 1.000000E02, 3.048547E02
$$ 1.000000E02, 3.069067E02
$$ 1.000000E02, 3.089641E02
$$ 1.000000E02, 3.110269E02
$$ 1.000000E02, 3.130951E02
$$ 1.000000E02, 3.151687E02
$$ 1.000000E02, 3.172477E02
$$ 1.000000E02, 3.193321E02
$$ 1.000000E02, 3.214219E02
$$ 1.000000E02, 3.235171E02
$$ 1.000000E02, 3.256177E02
$$ 1.000000E02, 3.277237E02
$$ 1.000000E02, 3.298351E02
$$ 1.000000E02, 3.319519E02
$$ 1.000000E02, 3.340741E02
$$ 1.000000E02, 3.362017E02
$$ 1.000000E02, 3.383347E02
$$ 1.000000E02, 3.404731E02
$$ 1.000000E02, 3.426169E02
$$ 1.000000E02, 3.447661E02
$$ 1.000000E02, 3.469207E02
$$ 1.000000E02, 3.490807E02
$$ 1.000000E02, 3.512461E02
$$ 1.000000E02, 3.534169E02
$$ 1.000000E02, 3.555931E02
$$ 1.000000E02, 3.577747E02
$$ 1.000000E02, 3.599617E02
$$ 1.000000E02, 2.154075E00
$$ 1.000000E02, 4.351875E00
$$ 1.000000E02, 6.555075E00
$$ 1.000000E02, 8.763675E00
$$ 1.000000E02, 1.097767E01
$$ 1.000000E02, 1.319707E01
$$ 1.000000E02, 1.542188E01
$$ 1.000000E02, 1.765207E01
$$ 1.000000E02, 1.988768E01
$$ 1.000000E02, 2.212867E01
$$ 1.000000E02, 2.437507E01
$$ 1.000000E02, 2.662687E01
$$ 1.000000E02, 2.888407E01
$$ 1.000000E02, 3.114668E01
$$ 1.000000E02, 3.341467E01
$$ 1.000000E02, 3.568807E01
$$ 1.000000E02, 3.796687E01
$$ 1.000000E02, 4.025107E01
$$ 1.000000E02, 4.254067E01
$$ 1.000000E02, 4.483567E01
$$ 1.000000E02, 4.713607E01
$$ 1.000000E02, 4.944187E01
$$ 1.000000E02, 5.175308E01
$$ 1.000000E02, 5.406967E01
$$ 1.000000E02, 5.639168E01
$$ 1.000000E02, 5.871907E01
$$ 1.000000E02, 6.105188E01
$$ 1.000000E02, 6.339007E01
$$ 1.000000E02, 6.573368E01
$$ 1.000000E02, 6.808267E01
$$ 1.000000E02, 7.043707E01
$$ 1.000000E02, 7.279687E01
$$ 1.000000E02, 7.516207E01
$$ 1.000000E02, 7.753268E01
$$ 1.000000E02, 7.990868E01
$$ 1.000000E02, 8.229008E01
$$ 1.000000E02, 8.467687E01
$$ 1.000000E02, 8.706908E01
$$ 1.000000E02, 8.946667E01
$$ 1.000000E02, 9.186968E01
$$ 1.000000E02, 9.427807E01
$$ 1.000000E02, 9.669187E01
$$ 1.000000E02, 9.911107E01
$$ 1.000000E02, 1.015357E02
$$ 1.000000E02, 1.039657E02
$$ 1.000000E02, 1.064011E02
$$ 1.000000E02, 1.088419E02
$$ 1.000000E02, 1.112881E02
$$ 1.000000E02, 1.137397E02
$$ 1.000000E02, 1.161967E02
$$ 1.000000E02, 1.186591E02
$$ 1.000000E02, 1.211269E02
$$ 1.000000E02, 1.236001E02
$$ 1.000000E02, 1.260787E02
$$ 1.000000E02, 1.285627E02
$$ 1.000000E02, 1.310521E02
$$ 1.000000E02, 1.335469E02
$$ 1.000000E02, 1.360471E02
$$ 1.000000E02, 1.385527E02
$$ 1.000000E02, 1.410637E02
$$ 1.000000E02, 1.435801E02
$$ 1.000000E02, 1.461019E02
$$ 1.000000E02, 1.486291E02
$$ 1.000000E02, 1.511617E02
$$ 1.000000E02, 1.536997E02
$$ 1.000000E02, 1.562431E02
$$ 1.000000E02, 1.587919E02
$$ 1.000000E02, 1.613461E02
$$ 1.000000E02, 1.639057E02
$$ 1.000000E02, 1.664707E02
$$ 1.000000E02, 1.690411E02
$$ 1.000000E02, 1.716169E02
$$ 1.000000E02, 1.741981E02
$$ 1.000000E02, 1.767847E02
$$ 1.000000E02, 1.793767E02
$$ 1.000000E02, 1.819741E02
$$ 1.000000E02, 1.845769E02
$$ 1.000000E02, 1.871851E02
$$ 1.000000E02, 1.897987E02
$$ 1.000000E02, 1.924177E02
$$ 1.000000E02, 1.950421E02
$$ 1.000000E02, 1.976719E02
$$ 1.000000E02, 2.003071E02
$$ 1.000000E02, 2.029477E02
$$ 1.000000E02, 2.055937E02
$$ 1.000000E02, 2.082451E02
$$ 1.000000E02, 2.109019E02
$$ 1.000000E02, 2.135641E02
$$ 1.000000E02, 2.162317E02
$$ 1.000000E02, 2.189047E02
$$ 1.000000E02, 2.215831E02
$$ 1.000000E02, 2.242669E02
$$ 1.000000E02, 2.269561E02
$$ 1.000000E02, 2.296507E02
$$ 1.000000E02, 2.323507E02
$$ 1.000000E02, 2.350561E02
$$ 1.000000E02, 2.377669E02
$$ 1.000000E02, 2.404831E02
$$ 1.000000E02, 2.432047E02
$$ 1.000000E02, 2.459317E02
$$ 1.000000E02, 2.486641E02
$$ 1.000000E02, 2.514019E02
$$ 1.000000E02, 2.541451E02
$$ 1.000000E02, 2.568937E02
$$ 1.000000E02, 2.596477E02
$$ 1.000000E02, 2.624071E02
$$ 1.000000E02, 2.651719E02
$$ 1.000000E02, 2.679421E02
$$ 1.000000E02, 2.707177E02
$$ 1.000000E02, 2.734987E02
$$ 1.000000E02, 2.762851E02
$$ 1.000000E02, 2.790769E02
$$ 1.000000E02, 2.818741E02
$$ 1.000000E02, 2.846767E02
$$ 1.000000E02, 2.874847E02
$$ 1.000000E02, 2.902981E02
$$ 1.000000E02, 2.931169E02
$$ 1.000000E02, 2.959411E02
$$ 1.000000E02, 2.987707E02
$$ 1.000000E02, 3.016057E02
$$ 1.000000E02, 3.044461E02
$$ 1.000000E02, 3.072919E02
$$ 1.000000E02, 3.101431E02
$$ 1.000000E02, 3.129997E02
$$ 1.000000E02, 3.158617E02
$$ 1.000000E02, 3.187291E02
$$ 1.000000E02, 3.216019E02
$$ 1.000000E02, 3.244801E02
$$ 1.000000E02, 3.273637E02
$$ 1.000000E02, 3.302527E02
$$ 1.000000E02, 3.331471E02
$$ 1.000000E02, 3.360469E02
$$ 1.000000E02, 3.389521E02
$$ 1.000000E02, 3.418627E02
$$ 1.000000E02, 3.447787E02
$$ 1.000000E02, 3.477001E02
$$ 1.000000E02, 3.506269E02
$$ 1.000000E02, 3.535591E02
$$ 1.000000E02, 3.564967E02
$$ 1.000000E02, 3.594397E02
$$ 1.000000E02, 2.388075E00
$$ 1.000000E02, 5.341875E00
$$ 1.000000E02, 8.301075E00
$$ 1.000000E02, 1.126567E01
$$ 1.000000E02, 1.423568E01
$$ 1.000000E02, 1.721107E01
$$ 1.000000E02, 2.019187E01
$$ 1.000000E02, 2.317807E01
$$ 1.000000E02, 2.616967E01
$$ 1.000000E02, 2.916667E01
$$ 1.000000E02, 3.216908E01
$$ 1.000000E02, 3.517687E01
$$ 1.000000E02, 3.819007E01
$$ 1.000000E02, 4.120867E01
$$ 1.000000E02, 4.423267E01
$$ 1.000000E02, 4.726207E01
$$ 1.000000E02, 5.029688E01
$$ 1.000000E02, 5.333708E01
$$ 1.000000E02, 5.638267E01
$$ 1.000000E02, 5.943367E01
$$ 1.000000E02, 6.249007E01
$$ 1.000000E02, 6.555187E01
$$ 1.000000E02, 6.861908E01
$$ 1.000000E02, 7.169167E01
$$ 1.000000E02, 7.476967E01
$$ 1.000000E02, 7.785307E01
$$ 1.000000E02, 8.094188E01
$$ 1.000000E02, 8.403608E01
$$ 1.000000E02, 8.713567E01
$$ 1.000000E02, 9.024067E01
$$ 1.000000E02, 9.335107E01
$$ 1.000000E02, 9.646687E01
$$ 1.000000E02, 9.958808E01
$$ 1.000000E02, 1.027147E02
$$ 1.000000E02, 1.058467E02
$$ 1.000000E02, 1.089841E02
$$ 1.000000E02, 1.121269E02
$$ 1.000000E02, 1.152751E02
$$ 1.000000E02, 1.184287E02
$$ 1.000000E02, 1.215877E02
$$ 1.000000E02, 1.247521E02
$$ 1.000000E02, 1.279219E02
$$ 1.000000E02, 1.310971E02
$$ 1.000000E02, 1.342777E02
$$ 1.000000E02, 1.374637E02
$$ 1.000000E02, 1.406551E02
$$ 1.000000E02, 1.438519E02
$$ 1.000000E02, 1.470541E02
$$ 1.000000E02, 1.502617E02
$$ 1.000000E02, 1.534747E02
$$ 1.000000E02, 1.566931E02
$$ 1.000000E02, 1.599169E02
$$ 1.000000E02, 1.631461E02
$$ 1.000000E02, 1.663807E02
$$ 1.000000E02, 1.696207E02
$$ 9.999923E01, 1.728661E02
$$ 9.999690E01, 1.761169E02
$$ 9.999303E01, 1.793731E02
$$ 9.998760E01, 1.826347E02
$$ 9.998063E01, 1.859017E02
$$ 9.997210E01, 1.891741E02
$$ 9.996203E01, 1.924519E02
$$ 9.995041E01, 1.957351E02
$$ 9.993724E01, 1.990237E02
$$ 9.992252E01, 2.023177E02
$$ 9.990625E01, 2.056171E02
$$ 9.988843E01, 2.089219E02
$$ 9.986906E01, 2.122321E02
$$ 9.984815E01, 2.155477E02
$$ 9.982569E01, 2.188687E02
$$ 9.980168E01, 2.221951E02
$$ 9.977613E01, 2.255269E02
$$ 9.974903E01, 2.288641E02
$$ 9.972038E01, 2.322067E02
$$ 9.969019E01, 2.355547E02
$$ 9.965845E01, 2.389081E02
$$ 9.962517E01, 2.422669E02
$$ 9.959034E01, 2.456311E02
$$ 9.955397E01, 2.490007E02
$$ 9.951606E01, 2.523757E02
$$ 9.947660E01, 2.557561E02
$$ 9.943561E01, 2.591419E02
$$ 9.939307E01, 2.625331E02
$$ 9.934899E01, 2.659297E02
$$ 9.930337E01, 2.693317E02
$$ 9.925621E01, 2.727391E02
$$ 9.920752E01, 2.761519E02
$$ 9.915728E01, 2.795701E02
$$ 9.910551E01, 2.829937E02
$$ 9.905221E01, 2.864227E02
$$ 9.899737E01, 2.898571E02
$$ 9.894099E01, 2.932969E02
$$ 9.888308E01, 2.967421E02
$$ 9.882364E01, 3.001927E02
$$ 9.876267E01, 3.036487E02
$$ 9.870016E01, 3.071101E02
$$ 9.863613E01, 3.105769E02
$$ 9.857057E01, 3.140491E02
$$ 9.850348E01, 3.175267E02
$$ 9.843486E01, 3.210097E02
$$ 9.836472E01, 3.244981E02
$$ 9.829305E01, 3.279919E02
$$ 9.821986E01, 3.314911E02
$$ 9.814515E01, 3.349957E02
$$ 9.806892E01, 3.385057E02
$$ 9.799116E01, 3.420211E02
$$ 9.791189E01, 3.455419E02
$$ 9.783110E01, 3.490681E02
$$ 9.774879E01, 3.525997E02
$$ 9.766497E01, 3.561367E02
$$ 9.757964E01, 3.596791E02
$$ 9.749279E01, 3.226875E00
$$ 9.740443E01, 6.780075E00
$$ 9.731457E01, 1.033867E01
$$ 9.722319E01, 1.390267E01
$$ 9.713031E01, 1.747207E01
$$ 9.703592E01, 2.104688E01
$$ 9.694003E01, 2.462707E01
$$ 9.684263E01, 2.821267E01
$$ 9.674374E01, 3.180367E01
$$ 9.664334E01, 3.540008E01
$$ 9.654145E01, 3.900188E01
$$ 9.643806E01, 4.260907E01
$$ 9.633318E01, 4.622167E01
$$ 9.622680E01, 4.983967E01
$$ 9.611893E01, 5.346308E01
$$ 9.600957E01, 5.709187E01
$$ 9.589873E01, 6.072607E01
$$ 9.578640E01, 6.436568E01
$$ 9.567258E01, 6.801067E01
$$ 9.555728E01, 7.166107E01
$$ 9.544050E01, 7.531687E01
$$ 9.532224E01, 7.897807E01
$$ 9.520250E01, 8.264468E01
$$ 9.508129E01, 8.631668E01
$$ 9.495861E01, 8.999407E01
$$ 9.483445E01, 9.367687E01
$$ 9.470882E01, 9.736507E01
$$ 9.458172E01, 1.010587E02
$$ 9.445316E01, 1.047577E02
$$ 9.432314E01, 1.084621E02
$$ 9.419165E01, 1.121719E02
$$ 9.405870E01, 1.158871E02
$$ 9.392430E01, 1.196077E02
$$ 9.378844E01, 1.233337E02
$$ 9.365112E01, 1.270651E02
$$ 9.351236E01, 1.308019E02
$$ 9.337214E01, 1.345441E02
$$ 9.323048E01, 1.382917E02
$$ 9.308737E01, 1.420447E02
$$ 9.294283E01, 1.458031E02
$$ 9.279684E01, 1.495669E02
$$ 9.264941E01, 1.533361E02
$$ 9.250054E01, 1.571107E02
$$ 9.235024E01, 1.608907E02
$$ 9.219852E01, 1.646761E02
$$ 9.204536E01, 1.684669E02
$$ 9.189077E01, 1.722631E02
$$ 9.173476E01, 1.760647E02
$$ 9.157733E01, 1.798717E02
$$ 9.141848E01, 1.836841E02
$$ 9.125822E01, 1.875019E02
$$ 9.109653E01, 1.913251E02
$$ 9.093344E01, 1.951537E02
$$ 9.076894E01, 1.989877E02
$$ 9.060303E01, 2.028271E02
$$ 9.043572E01, 2.066719E02
$$ 9.026700E01, 2.105221E02
$$ 9.009689E01, 2.143777E02
$$ 8.992538E01, 2.182387E02
$$ 8.975247E01, 2.221051E02
$$ 8.957818E01, 2.259769E02
$$ 8.940249E01, 2.298541E02
$$ 8.922542E01, 2.337367E02
$$ 8.904697E01, 2.376247E02
$$ 8.886714E01, 2.415181E02
$$ 8.868593E01, 2.454169E02
$$ 8.850335E01, 2.493211E02
$$ 8.831939E01, 2.532307E02
$$ 8.813407E01, 2.571457E02
$$ 8.794738E01, 2.610661E02
$$ 8.775932E01, 2.649919E02
$$ 8.756991E01, 2.689231E02
$$ 8.737914E01, 2.728597E02
$$ 8.718701E01, 2.768017E02
$$ 8.699354E01, 2.807491E02
$$ 8.679871E01, 2.847019E02
$$ 8.660254E01, 2.886601E02
$$ 8.640503E01, 2.926237E02
$$ 8.620618E01, 2.965927E02
$$ 8.600599E01, 3.005671E02
$$ 8.580447E01, 3.045469E02
$$ 8.560162E01, 3.085321E02
$$ 8.539744E01, 3.125227E02
$$ 8.519194E01, 3.165187E02
$$ 8.498512E01, 3.205201E02
$$ 8.477698E01, 3.245269E02
$$ 8.456753E01, 3.285391E02
$$ 8.435677E01, 3.325567E02
$$ 8.414470E01, 3.365797E02
$$ 8.393132E01, 3.406081E02
$$ 8.371665E01, 3.446419E02
$$ 8.350068E01, 3.486811E02
$$ 8.328341E01, 3.527257E02
$$ 8.306485E01, 3.567757E02
$$ 8.284501E01, 8.310750E-01
$$ 8.262388E01, 4.891875E00
$$ 8.240147E01, 8.958075E00
$$ 8.217778E01, 1.302967E01
$$ 8.195282E01, 1.710667E01
$$ 8.172659E01, 2.118908E01
$$ 8.149909E01, 2.527687E01
$$ 8.127033E01, 2.937007E01
$$ 8.104031E01, 3.346867E01
$$ 8.080904E01, 3.757267E01
$$ 8.057651E01, 4.168207E01
$$ 8.034273E01, 4.579688E01
$$ 8.010771E01, 4.991708E01
$$ 7.987145E01, 5.404267E01
$$ 7.963395E01, 5.817368E01
$$ 7.939521E01, 6.231007E01
$$ 7.915524E01, 6.645187E01
$$ 7.891405E01, 7.059908E01
$$ 7.867163E01, 7.475167E01
$$ 7.842800E01, 7.890967E01
$$ 7.818315E01, 8.307307E01
$$ 7.793709E01, 8.724187E01
$$ 7.768981E01, 9.141607E01
$$ 7.744134E01, 9.559567E01
$$ 7.719167E01, 9.978067E01
$$ 7.694079E01, 1.039711E02
$$ 7.668873E01, 1.081669E02
$$ 7.643548E01, 1.123681E02
$$ 7.618104E01, 1.165747E02
$$ 7.592542E01, 1.207867E02
$$ 7.566863E01, 1.250041E02
$$ 7.541066E01, 1.292269E02
$$ 7.515152E01, 1.334551E02
$$ 7.489122E01, 1.376887E02
$$ 7.462976E01, 1.419277E02
$$ 7.436714E01, 1.461721E02
$$ 7.410337E01, 1.504219E02
$$ 7.383845E01, 1.546771E02
$$ 7.357239E01, 1.589377E02
$$ 7.330519E01, 1.632037E02
$$ 7.303685E01, 1.674751E02
$$ 7.276738E01, 1.717519E02
$$ 7.249678E01, 1.760341E02
$$ 7.222505E01, 1.803217E02
$$ 7.195221E01, 1.846147E02
$$ 7.167825E01, 1.889131E02
$$ 7.140318E01, 1.932169E02
$$ 7.112701E01, 1.975261E02
$$ 7.084973E01, 2.018407E02
$$ 7.057135E01, 2.061607E02
$$ 7.029188E01, 2.104861E02
$$ 7.001132E01, 2.148169E02
$$ 6.972968E01, 2.191531E02
$$ 6.944696E01, 2.234947E02
$$ 6.916315E01, 2.278417E02
$$ 6.887828E01, 2.321941E02
$$ 6.859234E01, 2.365519E02
$$ 6.830534E01, 2.409151E02
$$ 6.801727E01, 2.452837E02
$$ 6.772816E01, 2.496577E02
$$ 6.743799E01, 2.540371E02
$$ 6.714678E01, 2.584219E02
$$ 6.685453E01, 2.628121E02
$$ 6.656124E01, 2.672077E02
$$ 6.626692E01, 2.716087E02
$$ 6.597157E01, 2.760151E02
$$ 6.567520E01, 2.804269E02
$$ 6.537782E01, 2.848441E02
$$ 6.507941E01, 2.892667E02
$$ 6.478001E01, 2.936947E02
$$ 6.447959E01, 2.981281E02
$$ 6.417818E01, 3.025669E02
$$ 6.387577E01, 3.070111E02
$$ 6.357237E01, 3.114607E02
$$ 6.326799E01, 3.159157E02
$$ 6.296263E01, 3.203761E02
$$ 6.265629E01, 3.248419E02
$$ 6.234898E01, 3.293131E02
$$ 6.204070E01, 3.337897E02
$$ 6.173147E01, 3.382717E02
$$ 6.142127E01, 3.427591E02
$$ 6.111012E01, 3.472519E02
$$ 6.079803E01, 3.517501E02
$$ 6.048499E01, 3.562537E02
$$ 6.017102E01, 7.626750E-01
$$ 5.985612E01, 5.277075E00
$$ 5.954028E01, 9.796875E00
$$ 5.922353E01, 1.432207E01
$$ 5.890585E01, 1.885268E01
$$ 5.858726E01, 2.338867E01
$$ 5.826777E01, 2.793007E01
$$ 5.794737E01, 3.247687E01
$$ 5.762607E01, 3.702907E01
$$ 5.730388E01, 4.158668E01
$$ 5.698081E01, 4.614968E01
$$ 5.665684E01, 5.071807E01
$$ 5.633201E01, 5.529187E01
$$ 5.600629E01, 5.987107E01
$$ 5.567971E01, 6.445567E01
$$ 5.535227E01, 6.904567E01
$$ 5.502397E01, 7.364107E01
$$ 5.469482E01, 7.824187E01
$$ 5.436481E01, 8.284807E01
$$ 5.403397E01, 8.745968E01
$$ 5.370229E01, 9.207667E01
$$ 5.336978E01, 9.669908E01
$$ 5.303643E01, 1.013269E02
$$ 5.270227E01, 1.059601E02
$$ 5.236729E01, 1.105987E02
$$ 5.203150E01, 1.152427E02
$$ 5.169490E01, 1.198921E02
$$ 5.135750E01, 1.245469E02
$$ 5.101931E01, 1.292071E02
$$ 5.068032E01, 1.338727E02
$$ 5.034055E01, 1.385437E02
$$ 5.000000E01, 1.432201E02
$$ 4.965867E01, 1.479019E02
$$ 4.931658E01, 1.525891E02
$$ 4.897372E01, 1.572817E02
$$ 4.863010E01, 1.619797E02
$$ 4.828573E01, 1.666831E02
$$ 4.794060E01, 1.713919E02
$$ 4.759474E01, 1.761061E02
$$ 4.724814E01, 1.808257E02
$$ 4.690080E01, 1.855507E02
$$ 4.655274E01, 1.902811E02
$$ 4.620396E01, 1.950169E02
$$ 4.585446E01, 1.997581E02
$$ 4.550425E01, 2.045047E02
$$ 4.515334E01, 2.092567E02
$$ 4.480172E01, 2.140141E02
$$ 4.444941E01, 2.187769E02
$$ 4.409641E01, 2.235451E02
$$ 4.374273E01, 2.283187E02
$$ 4.338837E01, 2.330977E02
$$ 4.303334E01, 2.378821E02
$$ 4.267764E01, 2.426719E02
$$ 4.232128E01, 2.474671E02
$$ 4.196427E01, 2.522677E02
$$ 4.160660E01, 2.570737E02
$$ 4.124829E01, 2.618851E02
$$ 4.088934E01, 2.667019E02
$$ 4.052975E01, 2.715241E02
$$ 4.016954E01, 2.763517E02
$$ 3.980871E01, 2.811847E02
$$ 3.944726E01, 2.860231E02
$$ 3.908519E01, 2.908669E02
$$ 3.872252E01, 2.957161E02
$$ 3.835925E01, 3.005707E02
$$ 3.799539E01, 3.054307E02
$$ 3.763094E01, 3.102961E02
$$ 3.726590E01, 3.151669E02
$$ 3.690029E01, 3.200431E02
$$ 3.653410E01, 3.249247E02
$$ 3.616735E01, 3.298117E02
$$ 3.580004E01, 3.347041E02
$$ 3.543217E01, 3.396019E02
$$ 3.506376E01, 3.445051E02
$$ 3.469480E01, 3.494137E02
$$ 3.432530E01, 3.543277E02
$$ 3.395527E01, 3.592471E02
$$ 3.358471E01, 4.171875E00
$$ 3.321364E01, 9.102075E00
$$ 3.284205E01, 1.403768E01
$$ 3.246995E01, 1.897867E01
$$ 3.209734E01, 2.392508E01
$$ 3.172424E01, 2.887687E01
$$ 3.135065E01, 3.383407E01
$$ 3.097657E01, 3.879668E01
$$ 3.060201E01, 4.376467E01
$$ 3.022698E01, 4.873808E01
$$ 2.985148E01, 5.371687E01
$$ 2.947552E01, 5.870107E01
$$ 2.909910E01, 6.369067E01
$$ 2.872223E01, 6.868567E01
$$ 2.834491E01, 7.368607E01
$$ 2.796715E01, 7.869187E01
$$ 2.758896E01, 8.370307E01
$$ 2.721035E01, 8.871967E01
$$ 2.683131E01, 9.374168E01
$$ 2.645185E01, 9.876907E01
$$ 2.607199E01, 1.038019E02
$$ 2.569172E01, 1.088401E02
$$ 2.531105E01, 1.138837E02
$$ 2.492999E01, 1.189327E02
$$ 2.454855E01, 1.239871E02
$$ 2.416672E01, 1.290469E02
$$ 2.378452E01, 1.341121E02
$$ 2.340195E01, 1.391827E02
$$ 2.301902E01, 1.442587E02
$$ 2.263573E01, 1.493401E02
$$ 2.225209E01, 1.544269E02
$$ 2.186811E01, 1.595191E02
$$ 2.148379E01, 1.646167E02
$$ 2.109913E01, 1.697197E02
$$ 2.071415E01, 1.748281E02
$$ 2.032884E01, 1.799419E02
$$ 1.994322E01, 1.850611E02
$$ 1.955729E01, 1.901857E02
$$ 1.917106E01, 1.953157E02
$$ 1.878453E01, 2.004511E02
$$ 1.839771E01, 2.055919E02
$$ 1.801061E01, 2.107381E02
$$ 1.762323E01, 2.158897E02
$$ 1.723557E01, 2.210467E02
$$ 1.684764E01, 2.262091E02
$$ 1.645946E01, 2.313769E02
$$ 1.607102E01, 2.365501E02
$$ 1.568233E01, 2.417287E02
$$ 1.529340E01, 2.469127E02
$$ 1.490423E01, 2.521021E02
$$ 1.451483E01, 2.572969E02
$$ 1.412520E01, 2.624971E02
$$ 1.373536E01, 2.677027E02
$$ 1.334530E01, 2.729137E02
$$ 1.295503E01, 2.781301E02
$$ 1.256457E01, 2.833519E02
$$ 1.217391E01, 2.885791E02
$$ 1.178306E01, 2.938117E02
$$ 1.139203E01, 2.990497E02
$$ 1.100082E01, 3.042931E02
$$ 1.060944E01, 3.095419E02
$$ 1.021790E01, 3.147961E02
$$ 9.826200E00, 3.200557E02
$$ 9.434347E00, 3.253207E02
$$ 9.042348E00, 3.305911E02
$$ 8.650208E00, 3.358669E02
$$ 8.257935E00, 3.411481E02
$$ 7.865533E00, 3.464347E02
$$ 7.473009E00, 3.517267E02
$$ 7.080370E00, 3.570241E02
$$ 6.687621E00, 2.326875E00
$$ 6.294768E00, 7.635075E00
$$ 5.901818E00, 1.294867E01
$$ 5.508776E00, 1.826768E01
$$ 5.115649E00, 2.359208E01
$$ 4.722442E00, 2.892187E01
$$ 4.329163E00, 3.425707E01
$$ 3.935816E00, 3.959767E01
$$ 3.542408E00, 4.494368E01
$$ 3.148946E00, 5.029508E01
$$ 2.755434E00, 5.565187E01
$$ 2.361880E00, 6.101408E01
$$ 1.968289E00, 6.638167E01
$$ 1.574668E00, 7.175467E01
$$ 1.181022E00, 7.713307E01
$$ 7.873584E-01, 8.251687E01
$$ 3.936823E-01, 8.790607E01
$$ 0.000000E00, 9.330067E01
$$ 0.000000E00, 1.833013E02
$$ 7.893367E-01, 1.779122E02
$$ 1.578624E00, 1.725338E02
$$ 2.367813E00, 1.671662E02
$$ 3.156855E00, 1.618093E02
$$ 3.945700E00, 1.564633E02
$$ 4.734299E00, 1.511282E02
$$ 5.522603E00, 1.458037E02
$$ 6.310563E00, 1.404901E02
$$ 7.098130E00, 1.351873E02
$$ 7.885255E00, 1.298954E02
$$ 8.671888E00, 1.246142E02
$$ 9.457981E00, 1.193437E02
$$ 1.024348E01, 1.140841E02
$$ 1.102835E01, 1.088353E02
$$ 1.181253E01, 1.035973E02
$$ 1.259597E01, 9.837015E01
$$ 1.337863E01, 9.315375E01
$$ 1.416045E01, 8.794815E01
$$ 1.494139E01, 8.275335E01
$$ 1.572140E01, 7.756935E01
$$ 1.650044E01, 7.239615E01
$$ 1.727844E01, 6.723375E01
$$ 1.805537E01, 6.208215E01
$$ 1.883117E01, 5.694135E01
$$ 1.960579E01, 5.181135E01
$$ 2.037920E01, 4.669215E01
$$ 2.115134E01, 4.158375E01
$$ 2.192216E01, 3.648615E01
$$ 2.269161E01, 3.139935E01
$$ 2.345965E01, 2.632335E01
$$ 2.422623E01, 2.125815E01
$$ 2.499130E01, 1.620375E01
$$ 2.575481E01, 1.116015E01
$$ 2.651671E01, 6.127350E00
$$ 2.727697E01, 1.105350E00
$$ 2.803552E01, 3.560941E02
$$ 2.879233E01, 3.510937E02
$$ 2.954734E01, 3.461042E02
$$ 3.030052E01, 3.411253E02
$$ 3.105180E01, 3.361573E02
$$ 3.180115E01, 3.312001E02
$$ 3.254852E01, 3.262537E02
$$ 3.329386E01, 3.213182E02
$$ 3.403713E01, 3.163933E02
$$ 3.477828E01, 3.114793E02
$$ 3.551726E01, 3.065761E02
$$ 3.625402E01, 3.016837E02
$$ 3.698853E01, 2.968021E02
$$ 3.772073E01, 2.919314E02
$$ 3.845058E01, 2.870713E02
$$ 3.917804E01, 2.822221E02
$$ 3.990306E01, 2.773837E02
$$ 4.062559E01, 2.725561E02
$$ 4.134558E01, 2.677394E02
$$ 4.206301E01, 2.629333E02
$$ 4.277781E01, 2.581382E02
$$ 4.348994E01, 2.533537E02
$$ 4.419937E01, 2.485802E02
$$ 4.490604E01, 2.438174E02
$$ 4.560992E01, 2.390654E02
$$ 4.631095E01, 2.343241E02
$$ 4.700910E01, 2.295937E02
$$ 4.770431E01, 2.248741E02
$$ 4.839656E01, 2.201653E02
$$ 4.908579E01, 2.154674E02
$$ 4.977196E01, 2.107801E02
$$ 5.045503E01, 2.061038E02
$$ 5.113496E01, 2.014381E02
$$ 5.181170E01, 1.967834E02
$$ 5.248522E01, 1.921393E02
$$ 5.315546E01, 1.875062E02
$$ 5.382239E01, 1.828837E02
$$ 5.448597E01, 1.782721E02
$$ 5.514615E01, 1.736713E02
$$ 5.580290E01, 1.690813E02
$$ 5.645617E01, 1.645021E02
$$ 5.710592E01, 1.599337E02
$$ 5.775212E01, 1.553761E02
$$ 5.839471E01, 1.508293E02
$$ 5.903367E01, 1.462934E02
$$ 5.966895E01, 1.417682E02
$$ 6.030051E01, 1.372537E02
$$ 6.092832E01, 1.327501E02
$$ 6.155232E01, 1.282573E02
$$ 6.217250E01, 1.237754E02
$$ 6.278880E01, 1.193041E02
$$ 6.340118E01, 1.148438E02
$$ 6.400962E01, 1.103941E02
$$ 6.461407E01, 1.059553E02
$$ 6.521449E01, 1.015274E02
$$ 6.581085E01, 9.711015E01
$$ 6.640311E01, 9.270375E01
$$ 6.699124E01, 8.830815E01
$$ 6.757518E01, 8.392335E01
$$ 6.815492E01, 7.954935E01
$$ 6.873041E01, 7.518615E01
$$ 6.930162E01, 7.083375E01
$$ 6.986851E01, 6.649215E01
$$ 7.043105E01, 6.216135E01
$$ 7.098920E01, 5.784135E01
$$ 7.154293E01, 5.353215E01
$$ 7.209220E01, 4.923375E01
$$ 7.263698E01, 4.494615E01
$$ 7.317723E01, 4.066935E01
$$ 7.371292E01, 3.640335E01
$$ 7.424402E01, 3.214815E01
$$ 7.477049E01, 2.790375E01
$$ 7.529231E01, 2.367015E01
$$ 7.580943E01, 1.944735E01
$$ 7.632183E01, 1.523535E01
$$ 7.682948E01, 1.103415E01
$$ 7.733233E01, 6.843750E00
$$ 7.783037E01, 2.664150E00
$$ 7.832356E01, 3.584954E02
$$ 7.881187E01, 3.543373E02
$$ 7.929527E01, 3.501902E02
$$ 7.977373E01, 3.460537E02
$$ 8.024722E01, 3.419282E02
$$ 8.071571E01, 3.378133E02
$$ 8.117917E01, 3.337094E02
$$ 8.163757E01, 3.296161E02
$$ 8.209089E01, 3.255337E02
$$ 8.253909E01, 3.214621E02
$$ 8.298215E01, 3.174013E02
$$ 8.342003E01, 3.133514E02
$$ 8.385272E01, 3.093122E02
$$ 8.428019E01, 3.052837E02
$$ 8.470240E01, 3.012662E02
$$ 8.511934E01, 2.972593E02
$$ 8.553097E01, 2.932634E02
$$ 8.593728E01, 2.892781E02
$$ 8.633823E01, 2.853038E02
$$ 8.673380E01, 2.813401E02
$$ 8.712396E01, 2.773873E02
$$ 8.750870E01, 2.734453E02
$$ 8.788799E01, 2.695142E02
$$ 8.826180E01, 2.655938E02
$$ 8.863011E01, 2.616842E02
$$ 8.899290E01, 2.577854E02
$$ 8.935014E01, 2.538973E02
$$ 8.970182E01, 2.500202E02
$$ 9.004790E01, 2.461537E02
$$ 9.038838E01, 2.422981E02
$$ 9.072323E01, 2.384533E02
$$ 9.105242E01, 2.346193E02
$$ 9.137594E01, 2.307962E02
$$ 9.169376E01, 2.269838E02
$$ 9.200588E01, 2.231821E02
$$ 9.231226E01, 2.193914E02
$$ 9.261288E01, 2.156114E02
$$ 9.290774E01, 2.118421E02
$$ 9.319681E01, 2.080838E02
$$ 9.348008E01, 2.043361E02
$$ 9.375751E01, 2.005993E02
$$ 9.402911E01, 1.968733E02
$$ 9.429485E01, 1.931581E02
$$ 9.455471E01, 1.894537E02
$$ 9.480868E01, 1.857602E02
$$ 9.505675E01, 1.820774E02
$$ 9.529889E01, 1.784053E02
$$ 9.553510E01, 1.747442E02
$$ 9.576535E01, 1.710937E02
$$ 9.598963E01, 1.674542E02
$$ 9.620794E01, 1.638253E02
$$ 9.642025E01, 1.602074E02
$$ 9.662655E01, 1.566001E02
$$ 9.682683E01, 1.530037E02
$$ 9.702108E01, 1.494181E02
$$ 9.720928E01, 1.458434E02
$$ 9.739143E01, 1.422794E02
$$ 9.756751E01, 1.387261E02
$$ 9.773751E01, 1.351837E02
$$ 9.790142E01, 1.316521E02
$$ 9.805923E01, 1.281314E02
$$ 9.821093E01, 1.246213E02
$$ 9.835651E01, 1.211222E02
$$ 9.849597E01, 1.176337E02
$$ 9.862928E01, 1.141562E02
$$ 9.875646E01, 1.106893E02
$$ 9.887747E01, 1.072333E02
$$ 9.899233E01, 1.037881E02
$$ 9.910102E01, 1.003537E02
$$ 9.920354E01, 9.693015E01
$$ 9.929987E01, 9.351735E01
$$ 9.939002E01, 9.011535E01
$$ 9.947397E01, 8.672415E01
$$ 9.955173E01, 8.334375E01
$$ 9.962328E01, 7.997415E01
$$ 9.968863E01, 7.661535E01
$$ 9.974776E01, 7.326735E01
$$ 9.980069E01, 6.993015E01
$$ 9.984739E01, 6.660375E01
$$ 9.988787E01, 6.328815E01
$$ 9.992213E01, 5.998335E01
$$ 9.995016E01, 5.668935E01
$$ 9.997196E01, 5.340615E01
$$ 9.998754E01, 5.013375E01
$$ 9.999688E01, 4.687215E01
$$ 1.000000E02, 4.362135E01
$$ 1.000000E02, 4.038135E01
$$ 1.000000E02, 3.715215E01
$$ 1.000000E02, 3.393375E01
$$ 1.000000E02, 3.072615E01
$$ 1.000000E02, 2.752935E01
$$ 1.000000E02, 2.434335E01
$$ 1.000000E02, 2.116815E01
$$ 1.000000E02, 1.800375E01
$$ 1.000000E02, 1.485015E01
$$ 1.000000E02, 1.170735E01
$$ 1.000000E02, 8.575350E00
$$ 1.000000E02, 5.454150E00
$$ 1.000000E02, 2.343750E00
$$ 1.000000E02, 3.592442E02
$$ 1.000000E02, 3.561554E02
$$ 1.000000E02, 3.530773E02
$$ 1.000000E02, 3.500102E02
$$ 1.000000E02, 3.469537E02
$$ 1.000000E02, 3.439082E02
$$ 1.000000E02, 3.408734E02
$$ 1.000000E02, 3.378493E02
$$ 1.000000E02, 3.348362E02
$$ 1.000000E02, 3.318337E02
$$ 1.000000E02, 3.288422E02
$$ 1.000000E02, 3.258613E02
$$ 1.000000E02, 3.228914E02
$$ 1.000000E02, 3.199322E02
$$ 1.000000E02, 3.169838E02
$$ 1.000000E02, 3.140461E02
$$ 1.000000E02, 3.111193E02
$$ 1.000000E02, 3.082033E02
$$ 1.000000E02, 3.052981E02
$$ 1.000000E02, 3.024038E02
$$ 1.000000E02, 2.995201E02
$$ 1.000000E02, 2.966474E02
$$ 1.000000E02, 2.937853E02
$$ 1.000000E02, 2.909342E02
$$ 1.000000E02, 2.880937E02
$$ 1.000000E02, 2.852642E02
$$ 1.000000E02, 2.824453E02
$$ 1.000000E02, 2.796373E02
$$ 1.000000E02, 2.768402E02
$$ 1.000000E02, 2.740537E02
$$ 1.000000E02, 2.712782E02
$$ 1.000000E02, 2.685133E02
$$ 1.000000E02, 2.657594E02
$$ 1.000000E02, 2.630161E02
$$ 1.000000E02, 2.602838E02
$$ 1.000000E02, 2.575622E02
$$ 1.000000E02, 2.548513E02
$$ 1.000000E02, 2.521513E02
$$ 1.000000E02, 2.494621E02
$$ 1.000000E02, 2.467838E02
$$ 1.000000E02, 2.441161E02
$$ 1.000000E02, 2.414593E02
$$ 1.000000E02, 2.388133E02
$$ 1.000000E02, 2.361781E02
$$ 1.000000E02, 2.335537E02
$$ 1.000000E02, 2.309401E02
$$ 1.000000E02, 2.283374E02
$$ 1.000000E02, 2.257454E02
$$ 1.000000E02, 2.231642E02
$$ 1.000000E02, 2.205938E02
$$ 1.000000E02, 2.180342E02
$$ 1.000000E02, 2.154853E02
$$ 1.000000E02, 2.129473E02
$$ 1.000000E02, 2.104201E02
$$ 1.000000E02, 2.079038E02
$$ 1.000000E02, 2.053982E02
$$ 1.000000E02, 2.029034E02
$$ 1.000000E02, 2.004194E02
$$ 1.000000E02, 1.979462E02
$$ 1.000000E02, 1.954838E02
$$ 1.000000E02, 1.930322E02
$$ 1.000000E02, 1.905913E02
$$ 1.000000E02, 1.881613E02
$$ 1.000000E02, 1.857421E02
$$ 1.000000E02, 1.833337E02
$$ 1.000000E02, 1.809362E02
$$ 1.000000E02, 1.785494E02
$$ 1.000000E02, 1.761733E02
$$ 1.000000E02, 1.738082E02
$$ 1.000000E02, 1.714538E02
$$ 1.000000E02, 1.691101E02
$$ 1.000000E02, 1.667773E02
$$ 1.000000E02, 1.644553E02
$$ 1.000000E02, 1.621441E02
$$ 1.000000E02, 1.598437E02
$$ 1.000000E02, 1.575542E02
$$ 1.000000E02, 1.552753E02
$$ 1.000000E02, 1.530073E02
$$ 1.000000E02, 1.507502E02
$$ 1.000000E02, 1.485038E02
$$ 1.000000E02, 1.462681E02
$$ 1.000000E02, 1.440433E02
$$ 1.000000E02, 1.418293E02
$$ 1.000000E02, 1.396261E02
$$ 1.000000E02, 1.374338E02
$$ 1.000000E02, 1.352521E02
$$ 1.000000E02, 1.330814E02
$$ 1.000000E02, 1.309214E02
$$ 1.000000E02, 1.287722E02
$$ 1.000000E02, 1.266337E02
$$ 1.000000E02, 1.245061E02
$$ 1.000000E02, 1.223893E02
$$ 1.000000E02, 1.202833E02
$$ 1.000000E02, 1.181881E02
$$ 1.000000E02, 1.161037E02
$$ 1.000000E02, 1.140301E02
$$ 1.000000E02, 1.119673E02
$$ 1.000000E02, 1.099154E02
$$ 1.000000E02, 1.078741E02
$$ 1.000000E02, 1.058438E02
$$ 1.000000E02, 1.038241E02
$$ 1.000000E02, 1.018153E02
$$ 1.000000E02, 9.981735E01
$$ 1.000000E02, 9.783015E01
$$ 1.000000E02, 9.585375E01
$$ 1.000000E02, 9.388815E01
$$ 1.000000E02, 9.193335E01
$$ 1.000000E02, 8.998935E01
$$ 1.000000E02, 8.805615E01
$$ 1.000000E02, 8.613375E01
$$ 1.000000E02, 8.422215E01
$$ 1.000000E02, 8.232135E01
$$ 1.000000E02, 8.043135E01
$$ 1.000000E02, 7.855215E01
$$ 1.000000E02, 7.668375E01
$$ 1.000000E02, 7.482615E01
$$ 1.000000E02, 7.297935E01
$$ 1.000000E02, 7.114335E01
$$ 1.000000E02, 6.931815E01
$$ 1.000000E02, 6.750375E01
$$ 1.000000E02, 6.570015E01
$$ 1.000000E02, 6.390735E01
$$ 1.000000E02, 6.212535E01
$$ 1.000000E02, 6.035415E01
$$ 1.000000E02, 5.859375E01
$$ 1.000000E02, 5.684415E01
$$ 1.000000E02, 5.510535E01
$$ 1.000000E02, 5.337735E01
$$ 1.000000E02, 5.166015E01
$$ 1.000000E02, 4.995375E01
$$ 1.000000E02, 4.825815E01
$$ 1.000000E02, 4.657335E01
$$ 1.000000E02, 4.489935E01
$$ 1.000000E02, 4.323615E01
$$ 1.000000E02, 4.158375E01
$$ 1.000000E02, 3.994215E01
$$ 1.000000E02, 3.831135E01
$$ 1.000000E02, 3.669135E01
$$ 1.000000E02, 3.508215E01
$$ 1.000000E02, 3.348375E01
$$ 1.000000E02, 3.189615E01
$$ 1.000000E02, 3.031935E01
$$ 1.000000E02, 2.875335E01
$$ 1.000000E02, 2.719815E01
$$ 1.000000E02, 2.565375E01
$$ 1.000000E02, 2.412015E01
$$ 1.000000E02, 2.259735E01
$$ 1.000000E02, 2.108535E01
$$ 1.000000E02, 1.958415E01
$$ 1.000000E02, 1.809375E01
$$ 1.000000E02, 1.661415E01
$$ 1.000000E02, 1.514535E01
$$ 1.000000E02, 1.368735E01
$$ 1.000000E02, 1.224015E01
$$ 1.000000E02, 1.080375E01
$$ 1.000000E02, 9.378150E00
$$ 1.000000E02, 7.963350E00
$$ 1.000000E02, 6.559350E00
$$ 1.000000E02, 5.166150E00
$$ 1.000000E02, 3.783750E00
$$ 1.000000E02, 2.412150E00
$$ 1.000000E02, 1.051350E00
$$ 1.000000E02, 3.597014E02
$$ 1.000000E02, 3.583622E02
$$ 1.000000E02, 3.570338E02
$$ 1.000000E02, 3.557161E02
$$ 1.000000E02, 3.544094E02
$$ 1.000000E02, 3.531133E02
$$ 1.000000E02, 3.518282E02
$$ 1.000000E02, 3.505538E02
$$ 1.000000E02, 3.492902E02
$$ 1.000000E02, 3.480373E02
$$ 1.000000E02, 3.467954E02
$$ 1.000000E02, 3.455642E02
$$ 1.000000E02, 3.443438E02
$$ 1.000000E02, 3.431342E02
$$ 1.000000E02, 3.419353E02
$$ 1.000000E02, 3.407474E02
$$ 1.000000E02, 3.395702E02
$$ 1.000000E02, 3.384038E02
$$ 1.000000E02, 3.372482E02
$$ 1.000000E02, 3.361034E02
$$ 1.000000E02, 3.349693E02
$$ 1.000000E02, 3.338461E02
$$ 1.000000E02, 3.327338E02
$$ 1.000000E02, 3.316322E02
$$ 1.000000E02, 3.305413E02
$$ 1.000000E02, 3.294614E02
$$ 1.000000E02, 3.283922E02
$$ 1.000000E02, 3.273338E02
$$ 1.000000E02, 3.262862E02
$$ 1.000000E02, 3.252494E02
$$ 1.000000E02, 3.242234E02
$$ 1.000000E02, 3.232082E02
$$ 1.000000E02, 3.222038E02
$$ 1.000000E02, 3.212102E02
$$ 1.000000E02, 3.202274E02
$$ 1.000000E02, 3.192554E02
$$ 1.000000E02, 3.182942E02
$$ 1.000000E02, 3.173438E02
$$ 1.000000E02, 3.164042E02
$$ 1.000000E02, 3.154754E02
$$ 1.000000E02, 3.145574E02
$$ 1.000000E02, 3.136502E02
$$ 1.000000E02, 3.127537E02
$$ 1.000000E02, 3.118682E02
$$ 1.000000E02, 3.109933E02
$$ 1.000000E02, 3.101294E02
$$ 1.000000E02, 3.092762E02
$$ 1.000000E02, 3.084338E02
$$ 1.000000E02, 3.076022E02
$$ 1.000000E02, 3.067814E02
$$ 1.000000E02, 3.059714E02
$$ 1.000000E02, 3.051722E02
$$ 1.000000E02, 3.043838E02
$$ 1.000000E02, 3.036062E02
$$ 1.000000E02, 3.028393E02
$$ 1.000000E02, 3.020834E02
$$ 1.000000E02, 3.013382E02
$$ 1.000000E02, 3.006038E02
$$ 1.000000E02, 2.998802E02
$$ 1.000000E02, 2.991674E02
$$ 1.000000E02, 2.984654E02
$$ 1.000000E02, 2.977742E02
$$ 1.000000E02, 2.970938E02
$$ 1.000000E02, 2.964242E02
$$ 1.000000E02, 2.957654E02
$$ 1.000000E02, 2.951174E02
$$ 1.000000E02, 2.944802E02
$$ 1.000000E02, 2.938538E02
$$ 1.000000E02, 2.932382E02
$$ 1.000000E02, 2.926334E02
$$ 1.000000E02, 2.920394E02
$$ 1.000000E02, 2.914562E02
$$ 1.000000E02, 2.908837E02
$$ 1.000000E02, 2.903221E02
$$ 1.000000E02, 2.897714E02
$$ 1.000000E02, 2.892314E02
$$ 1.000000E02, 2.887022E02
$$ 1.000000E02, 2.881838E02
$$ 1.000000E02, 2.876762E02
$$ 1.000000E02, 2.871794E02
$$ 1.000000E02, 2.866934E02
$$ 1.000000E02, 2.862182E02
$$ 1.000000E02, 2.857537E02
$$ 1.000000E02, 2.853002E02
$$ 1.000000E02, 2.848574E02
$$ 1.000000E02, 2.844254E02
$$ 1.000000E02, 2.840042E02
$$ 1.000000E02, 2.835938E02
$$ 1.000000E02, 2.831942E02
$$ 1.000000E02, 2.828054E02
$$ 1.000000E02, 2.824274E02
$$ 1.000000E02, 2.820602E02
$$ 1.000000E02, 2.817038E02
$$ 1.000000E02, 2.813582E02
$$ 1.000000E02, 2.810234E02
$$ 1.000000E02, 2.806994E02
$$ 1.000000E02, 2.803862E02
$$ 1.000000E02, 2.800838E02
$$ 1.000000E02, 2.797922E02
$$ 1.000000E02, 2.795114E02
$$ 1.000000E02, 2.792414E02
$$ 1.000000E02, 2.789822E02
$$ 1.000000E02, 2.787338E02
$$ 1.000000E02, 2.784962E02
$$ 1.000000E02, 2.782694E02
$$ 1.000000E02, 2.780534E02
$$ 1.000000E02, 2.778482E02
$$ 1.000000E02, 2.776538E02
$$ 1.000000E02, 2.774702E02
$$ 1.000000E02, 2.772974E02
$$ 1.000000E02, 2.771354E02
$$ 1.000000E02, 2.769842E02
$$ 1.000000E02, 2.768438E02
$$ 1.000000E02, 2.767142E02
$$ 1.000000E02, 2.765954E02
$$ 1.000000E02, 2.764874E02
$$ 1.000000E02, 2.763902E02
$$ 1.000000E02, 2.763038E02
$$ 1.000000E02, 2.762282E02
$$ 1.000000E02, 2.761634E02
$$ 1.000000E02, 2.761094E02
$$ 1.000000E02, 2.760662E02
$$ 1.000000E02, 2.760338E02
$$ 1.000000E02, 2.760122E02
$$ 1.000000E02, 2.760014E02
$$ 1.000000E02, 2.760014E02
$$ 1.000000E02, 2.760122E02
$$ 1.000000E02, 2.760338E02
$$ 1.000000E02, 2.760662E02
$$ 1.000000E02, 2.761094E02
$$ 1.000000E02, 2.761634E02
$$ 1.000000E02, 2.762282E02
$$ 1.000000E02, 2.763038E02
$$ 1.000000E02, 2.763902E02
$$ 1.000000E02, 2.764874E02
$$ 1.000000E02, 2.765954E02
$$ 1.000000E02, 2.767142E02
$$ 1.000000E02, 2.768438E02
$$ 1.000000E02, 2.769842E02
$$ 1.000000E02, 2.771354E02
$$ 1.000000E02, 2.772974E02
$$ 1.000000E02, 2.774702E02
$$ 1.000000E02, 2.776538E02
$$ 1.000000E02, 2.778482E02
$$ 1.000000E02, 2.780534E02
$$ 1.000000E02, 2.782694E02
$$ 1.000000E02, 2.784962E02
$$ 1.000000E02, 2.787338E02
$$ 1.000000E02, 2.789822E02
$$ 1.000000E02, 2.792414E02
$$ 1.000000E02, 2.795114E02
$$ 1.000000E02, 2.797922E02
$$ 1.000000E02, 2.800838E02
$$ 1.000000E02, 2.803862E02
$$ 1.000000E02, 2.806994E02
$$ 1.000000E02, 2.810234E02
$$ 1.000000E02, 2.813582E02
$$ 1.000000E02, 2.817038E02
$$ 1.000000E02, 2.820602E02
$$ 1.000000E02, 2.824274E02
$$ 1.000000E02, 2.828054E02
$$ 1.000000E02, 2.831942E02
$$ 1.000000E02, 2.835938E02
$$ 1.000000E02, 2.840042E02
$$ 1.000000E02, 2.844254E02
$$ 1.000000E02, 2.848574E02
$$ 1.000000E02, 2.853002E02
$$ 1.000000E02, 2.857537E02
$$ 1.000000E02, 2.862182E02
$$ 1.000000E02, 2.866934E02
$$ 1.000000E02, 2.871794E02
$$ 1.000000E02, 2.876762E02
$$ 1.000000E02, 2.881838E02
$$ 1.000000E02, 2.887022E02
$$ 1.000000E02, 2.892314E02
$$ 1.000000E02, 2.897714E02
$$ 1.000000E02, 2.903221E02
$$ 1.000000E02, 2.908837E02
$$ 1.000000E02, 2.914562E02
$$ 1.000000E02, 2.920394E02
$$ 1.000000E02, 2.926334E02
$$ 1.000000E02, 2.932382E02
$$ 1.000000E02, 2.938538E02
$$ 1.000000E02, 2.944802E02
$$ 1.000000E02, 2.951174E02
$$ 1.000000E02, 2.957654E02
$$ 1.000000E02, 2.964242E02
$$ 1.000000E02, 2.970938E02
$$ 1.000000E02, 2.977742E02
$$ 1.000000E02, 2.984654E02
$$ 1.000000E02, 2.991674E02
$$ 1.000000E02, 2.998802E02
$$ 1.000000E02, 3.006038E02
$$ 1.000000E02, 3.013382E02
$$ 1.000000E02, 3.020834E02
$$ 1.000000E02, 3.028393E02
$$ 1.000000E02, 3.036062E02
$$ 1.000000E02, 3.043838E02
$$ 1.000000E02, 3.051722E02
$$ 1.000000E02, 3.059714E02
$$ 1.000000E02, 3.067814E02
$$ 1.000000E02, 3.076022E02
$$ 1.000000E02, 3.084338E02
$$ 1.000000E02, 3.092762E02
$$ 1.000000E02, 3.101294E02
$$ 1.000000E02, 3.109933E02
$$ 1.000000E02, 3.118682E02
$$ 1.000000E02, 3.127537E02
$$ 1.000000E02, 3.136502E02
$$ 1.000000E02, 3.145574E02
$$ 1.000000E02, 3.154754E02
$$ 1.000000E02, 3.164042E02
$$ 1.000000E02, 3.173438E02
$$ 1.000000E02, 3.182942E02
$$ 1.000000E02, 3.192554E02
$$ 1.000000E02, 3.202274E02
$$ 1.000000E02, 3.212102E02
$$ 1.000000E02, 3.222038E02
$$ 1.000000E02, 3.232082E02
$$ 1.000000E02, 3.242234E02
$$ 1.000000E02, 3.252494E02
$$ 1.000000E02, 3.262862E02
$$ 1.000000E02, 3.273338E02
$$ 1.000000E02, 3.283922E02
$$ 1.000000E02, 3.294614E02
$$ 1.000000E02, 3.305413E02
$$ 1.000000E02, 3.316322E02
$$ 1.000000E02, 3.327338E02
$$ 1.000000E02, 3.338461E02
$$ 1.000000E02, 3.349693E02
$$ 1.000000E02, 3.361034E02
$$ 1.000000E02, 3.372482E02
$$ 1.000000E02, 3.384038E02
$$ 1.000000E02, 3.395702E02
$$ 1.000000E02, 3.407474E02
$$ 1.000000E02, 3.419353E02
$$ 1.000000E02, 3.431342E02
$$ 1.000000E02, 3.443438E02
$$ 1.000000E02, 3.455642E02
$$ 1.000000E02, 3.467954E02
$$ 1.000000E02, 3.480373E02
$$ 1.000000E02, 3.492902E02
$$ 1.000000E02, 3.505538E02
$$ 1.000000E02, 3.518282E02
$$ 1.000000E02, 3.531133E02
$$ 1.000000E02, 3.544094E02
$$ 1.000000E02, 3.557161E02
$$ 1.000000E02, 3.570338E02
$$ 1.000000E02, 3.583622E02
$$ 1.000000E02, 3.597014E02
$$ 1.000000E02, 1.051350E00
$$ 1.000000E02, 2.412150E00
$$ 1.000000E02, 3.783750E00
$$ 1.000000E02, 5.166150E00
$$ 1.000000E02, 6.559350E00
$$ 1.000000E02, 7.963350E00
$$ 1.000000E02, 9.378150E00
$$ 1.000000E02, 1.080375E01
$$ 1.000000E02, 1.224015E01
$$ 1.000000E02, 1.368735E01
$$ 1.000000E02, 1.514535E01
$$ 1.000000E02, 1.661415E01
$$ 1.000000E02, 1.809375E01
$$ 1.000000E02, 1.958415E01
$$ 1.000000E02, 2.108535E01
$$ 1.000000E02, 2.259735E01
$$ 1.000000E02, 2.412015E01
$$ 1.000000E02, 2.565375E01
$$ 1.000000E02, 2.719815E01
$$ 1.000000E02, 2.875335E01
$$ 1.000000E02, 3.031935E01
$$ 1.000000E02, 3.189615E01
$$ 1.000000E02, 3.348375E01
$$ 1.000000E02, 3.508215E01
$$ 1.000000E02, 3.669135E01
$$ 1.000000E02, 3.831135E01
$$ 1.000000E02, 3.994215E01
$$ 1.000000E02, 4.158375E01
$$ 1.000000E02, 4.323615E01
$$ 1.000000E02, 4.489935E01
$$ 1.000000E02, 4.657335E01
$$ 1.000000E02, 4.825815E01
$$ 1.000000E02, 4.995375E01
$$ 1.000000E02, 5.166015E01
$$ 1.000000E02, 5.337735E01
$$ 1.000000E02, 5.510535E01
$$ 1.000000E02, 5.684415E01
$$ 1.000000E02, 5.859375E01
$$ 1.000000E02, 6.035415E01
$$ 1.000000E02, 6.212535E01
$$ 1.000000E02, 6.390735E01
$$ 1.000000E02, 6.570015E01
$$ 1.000000E02, 6.750375E01
$$ 1.000000E02, 6.931815E01
$$ 1.000000E02, 7.114335E01
$$ 1.000000E02, 7.297935E01
$$ 1.000000E02, 7.482615E01
$$ 1.000000E02, 7.668375E01
$$ 1.000000E02, 7.855215E01
$$ 1.000000E02, 8.043135E01
$$ 1.000000E02, 8.232135E01
$$ 1.000000E02, 8.422215E01
$$ 1.000000E02, 8.613375E01
$$ 1.000000E02, 8.805615E01
$$ 1.000000E02, 8.998935E01
$$ 1.000000E02, 9.193335E01
$$ 1.000000E02, 9.388815E01
$$ 1.000000E02, 9.585375E01
$$ 1.000000E02, 9.783015E01
$$ 1.000000E02, 9.981735E01
$$ 1.000000E02, 1.018153E02
$$ 1.000000E02, 1.038241E02
$$ 1.000000E02, 1.058438E02
$$ 1.000000E02, 1.078741E02
$$ 1.000000E02, 1.099154E02
$$ 1.000000E02, 1.119673E02
$$ 1.000000E02, 1.140301E02
$$ 1.000000E02, 1.161037E02
$$ 1.000000E02, 1.181881E02
$$ 1.000000E02, 1.202833E02
$$ 1.000000E02, 1.223893E02
$$ 1.000000E02, 1.245061E02
$$ 1.000000E02, 1.266337E02
$$ 1.000000E02, 1.287722E02
$$ 1.000000E02, 1.309214E02
$$ 1.000000E02, 1.330814E02
$$ 1.000000E02, 1.352521E02
$$ 1.000000E02, 1.374338E02
$$ 1.000000E02, 1.396261E02
$$ 1.000000E02, 1.418293E02
$$ 1.000000E02, 1.440433E02
$$ 1.000000E02, 1.462681E02
$$ 1.000000E02, 1.485038E02
$$ 1.000000E02, 1.507502E02
$$ 1.000000E02, 1.530073E02
$$ 1.000000E02, 1.552753E02
$$ 1.000000E02, 1.575542E02
$$ 1.000000E02, 1.598437E02
$$ 1.000000E02, 1.621441E02
$$ 1.000000E02, 1.644553E02
$$ 1.000000E02, 1.667773E02
$$ 1.000000E02, 1.691101E02
$$ 1.000000E02, 1.714538E02
$$ 1.000000E02, 1.738082E02
$$ 1.000000E02, 1.761733E02
$$ 1.000000E02, 1.785494E02
$$ 1.000000E02, 1.809362E02
$$ 1.000000E02, 1.833337E02
$$ 1.000000E02, 1.857421E02
$$ 1.000000E02, 1.881613E02
$$ 1.000000E02, 1.905913E02
$$ 1.000000E02, 1.930322E02
$$ 1.000000E02, 1.954838E02
$$ 1.000000E02, 1.979462E02
$$ 1.000000E02, 2.004194E02
$$ 1.000000E02, 2.029034E02
$$ 1.000000E02, 2.053982E02
$$ 1.000000E02, 2.079038E02
$$ 1.000000E02, 2.104201E02
$$ 1.000000E02, 2.129473E02
$$ 1.000000E02, 2.154853E02
$$ 1.000000E02, 2.180342E02
$$ 1.000000E02, 2.205938E02
$$ 1.000000E02, 2.231642E02
$$ 1.000000E02, 2.257454E02
$$ 1.000000E02, 2.283374E02
$$ 1.000000E02, 2.309401E02
$$ 1.000000E02, 2.335537E02
$$ 1.000000E02, 2.361781E02
$$ 1.000000E02, 2.388133E02
$$ 1.000000E02, 2.414593E02
$$ 1.000000E02, 2.441161E02
$$ 1.000000E02, 2.467838E02
$$ 1.000000E02, 2.494621E02
$$ 1.000000E02, 2.521513E02
$$ 1.000000E02, 2.548513E02
$$ 1.000000E02, 2.575622E02
$$ 1.000000E02, 2.602838E02
$$ 1.000000E02, 2.630161E02
$$ 1.000000E02, 2.657594E02
$$ 1.000000E02, 2.685133E02
$$ 1.000000E02, 2.712782E02
$$ 1.000000E02, 2.740537E02
$$ 1.000000E02, 2.768402E02
$$ 1.000000E02, 2.796373E02
$$ 1.000000E02, 2.824453E02
$$ 1.000000E02, 2.852642E02
$$ 1.000000E02, 2.880937E02
$$ 1.000000E02, 2.909342E02
$$ 1.000000E02, 2.937853E02
$$ 1.000000E02, 2.966474E02
$$ 1.000000E02, 2.995201E02
$$ 1.000000E02, 3.024038E02
$$ 1.000000E02, 3.052981E02
$$ 1.000000E02, 3.082033E02
$$ 1.000000E02, 3.111193E02
$$ 1.000000E02, 3.140461E02
$$ 1.000000E02, 3.169838E02
$$ 1.000000E02, 3.199322E02
$$ 1.000000E02, 3.228914E02
$$ 1.000000E02, 3.258613E02
$$ 1.000000E02, 3.288422E02
$$ 1.000000E02, 3.318337E02
$$ 1.000000E02, 3.348362E02
$$ 1.000000E02, 3.378493E02
$$ 1.000000E02, 3.408734E02
$$ 1.000000E02, 3.439082E02
$$ 1.000000E02, 3.469537E02
$$ 1.000000E02, 3.500102E02
$$ 1.000000E02, 3.530773E02
$$ 1.000000E02, 3.561554E02
$$ 1.000000E02, 3.592442E02
$$ 1.000000E02, 2.343750E00
$$ 1.000000E02, 5.454150E00
$$ 1.000000E02, 8.575350E00
$$ 1.000000E02, 1.170735E01
$$ 1.000000E02, 1.485015E01
$$ 1.000000E02, 1.800375E01
$$ 1.000000E02, 2.116815E01
$$ 1.000000E02, 2.434335E01
$$ 1.000000E02, 2.752935E01
$$ 1.000000E02, 3.072615E01
$$ 1.000000E02, 3.393375E01
$$ 1.000000E02, 3.715215E01
$$ 1.000000E02, 4.038135E01
$$ 1.000000E02, 4.362135E01
$$ 9.999688E01, 4.687215E01
$$ 9.998754E01, 5.013375E01
$$ 9.997196E01, 5.340615E01
$$ 9.995016E01, 5.668935E01
$$ 9.992213E01, 5.998335E01
$$ 9.988787E01, 6.328815E01
$$ 9.984739E01, 6.660375E01
$$ 9.980069E01, 6.993015E01
$$ 9.974776E01, 7.326735E01
$$ 9.968863E01, 7.661535E01
$$ 9.962328E01, 7.997415E01
$$ 9.955173E01, 8.334375E01
$$ 9.947397E01, 8.672415E01
$$ 9.939002E01, 9.011535E01
$$ 9.929987E01, 9.351735E01
$$ 9.920354E01, 9.693015E01
$$ 9.910102E01, 1.003537E02
$$ 9.899233E01, 1.037881E02
$$ 9.887747E01, 1.072333E02
$$ 9.875646E01, 1.106893E02
$$ 9.862928E01, 1.141562E02
$$ 9.849597E01, 1.176337E02
$$ 9.835651E01, 1.211222E02
$$ 9.821093E01, 1.246213E02
$$ 9.805923E01, 1.281314E02
$$ 9.790142E01, 1.316521E02
$$ 9.773751E01, 1.351837E02
$$ 9.756751E01, 1.387261E02
$$ 9.739143E01, 1.422794E02
$$ 9.720928E01, 1.458434E02
$$ 9.702108E01, 1.494181E02
$$ 9.682683E01, 1.530037E02
$$ 9.662655E01, 1.566001E02
$$ 9.642025E01, 1.602074E02
$$ 9.620794E01, 1.638253E02
$$ 9.598963E01, 1.674542E02
$$ 9.576535E01, 1.710937E02
$$ 9.553510E01, 1.747442E02
$$ 9.529889E01, 1.784053E02
$$ 9.505675E01, 1.820774E02
$$ 9.480868E01, 1.857602E02
$$ 9.455471E01, 1.894537E02
$$ 9.429485E01, 1.931581E02
$$ 9.402911E01, 1.968733E02
$$ 9.375751E01, 2.005993E02
$$ 9.348008E01, 2.043361E02
$$ 9.319681E01, 2.080838E02
$$ 9.290774E01, 2.118421E02
$$ 9.261288E01, 2.156114E02
$$ 9.231226E01, 2.193914E02
$$ 9.200588E01, 2.231821E02
$$ 9.169376E01, 2.269838E02
$$ 9.137594E01, 2.307962E02
$$ 9.105242E01, 2.346193E02
$$ 9.072323E01, 2.384533E02
$$ 9.038838E01, 2.422981E02
$$ 9.004790E01, 2.461537E02
$$ 8.970182E01, 2.500202E02
$$ 8.935014E01, 2.538973E02
$$ 8.899290E01, 2.577854E02
$$ 8.863011E01, 2.616842E02
$$ 8.826180E01, 2.655938E02
$$ 8.788799E01, 2.695142E02
$$ 8.750870E01, 2.734453E02
$$ 8.712396E01, 2.773873E02
$$ 8.673380E01, 2.813401E02
$$ 8.633823E01, 2.853038E02
$$ 8.593728E01, 2.892781E02
$$ 8.553097E01, 2.932634E02
$$ 8.511934E01, 2.972593E02
$$ 8.470240E01, 3.012662E02
$$ 8.428019E01, 3.052837E02
$$ 8.385272E01, 3.093122E02
$$ 8.342003E01, 3.133514E02
$$ 8.298215E01, 3.174013E02
$$ 8.253909E01, 3.214621E02
$$ 8.209089E01, 3.255337E02
$$ 8.163757E01, 3.296161E02
$$ 8.117917E01, 3.337094E02
$$ 8.071571E01, 3.378133E02
$$ 8.024722E01, 3.419282E02
$$ 7.977373E01, 3.460537E02
$$ 7.929527E01, 3.501902E02
$$ 7.881187E01, 3.543373E02
$$ 7.832356E01, 3.584954E02
$$ 7.783037E01, 2.664150E00
$$ 7.733233E01, 6.843750E00
$$ 7.682948E01, 1.103415E01
$$ 7.632183E01, 1.523535E01
$$ 7.580943E01, 1.944735E01
$$ 7.529231E01, 2.367015E01
$$ 7.477049E01, 2.790375E01
$$ 7.424402E01, 3.214815E01
$$ 7.371292E01, 3.640335E01
$$ 7.317723E01, 4.066935E01
$$ 7.263698E01, 4.494615E01
$$ 7.209220E01, 4.923375E01
$$ 7.154293E01, 5.353215E01
$$ 7.098920E01, 5.784135E01
$$ 7.043105E01, 6.216135E01
$$ 6.986851E01, 6.649215E01
$$ 6.930162E01, 7.083375E01
$$ 6.873041E01, 7.518615E01
$$ 6.815492E01, 7.954935E01
$$ 6.757518E01, 8.392335E01
$$ 6.699124E01, 8.830815E01
$$ 6.640311E01, 9.270375E01
$$ 6.581085E01, 9.711015E01
$$ 6.521449E01, 1.015274E02
$$ 6.461407E01, 1.059553E02
$$ 6.400962E01, 1.103941E02
$$ 6.340118E01, 1.148438E02
$$ 6.278880E01, 1.193041E02
$$ 6.217250E01, 1.237754E02
$$ 6.155232E01, 1.282573E02
$$ 6.092832E01, 1.327501E02
$$ 6.030051E01, 1.372537E02
$$ 5.966895E01, 1.417682E02
$$ 5.903367E01, 1.462934E02
$$ 5.839471E01, 1.508293E02
$$ 5.775212E01, 1.553761E02
$$ 5.710592E01, 1.599337E02
$$ 5.645617E01, 1.645021E02
$$ 5.580290E01, 1.690813E02
$$ 5.514615E01, 1.736713E02
$$ 5.448597E01, 1.782721E02
$$ 5.382239E01, 1.828837E02
$$ 5.315546E01, 1.875062E02
$$ 5.248522E01, 1.921393E02
$$ 5.181170E01, 1.967834E02
$$ 5.113496E01, 2.014381E02
$$ 5.045503E01, 2.061038E02
$$ 4.977196E01, 2.107801E02
$$ 4.908579E01, 2.154674E02
$$ 4.839656E01, 2.201653E02
$$ 4.770431E01, 2.248741E02
$$ 4.700910E01, 2.295937E02
$$ 4.631095E01, 2.343241E02
$$ 4.560992E01, 2.390654E02
$$ 4.490604E01, 2.438174E02
$$ 4.419937E01, 2.485802E02
$$ 4.348994E01, 2.533537E02
$$ 4.277781E01, 2.581382E02
$$ 4.206301E01, 2.629333E02
$$ 4.134558E01, 2.677394E02
$$ 4.062559E01, 2.725561E02
$$ 3.990306E01, 2.773837E02
$$ 3.917804E01, 2.822221E02
$$ 3.845058E01, 2.870713E02
$$ 3.772073E01, 2.919314E02
$$ 3.698853E01, 2.968021E02
$$ 3.625402E01, 3.016837E02
$$ 3.551726E01, 3.065761E02
$$ 3.477828E01, 3.114793E02
$$ 3.403713E01, 3.163933E02
$$ 3.329386E01, 3.213182E02
$$ 3.254852E01, 3.262537E02
$$ 3.180115E01, 3.312001E02
$$ 3.105180E01, 3.361573E02
$$ 3.030052E01, 3.411253E02
$$ 2.954734E01, 3.461042E02
$$ 2.879233E01, 3.510937E02
$$ 2.803552E01, 3.560941E02
$$ 2.727697E01, 1.105350E00
$$ 2.651671E01, 6.127350E00
$$ 2.575481E01, 1.116015E01
$$ 2.499130E01, 1.620375E01
$$ 2.422623E01, 2.125815E01
$$ 2.345965E01, 2.632335E01
$$ 2.269161E01, 3.139935E01
$$ 2.192216E01, 3.648615E01
$$ 2.115134E01, 4.158375E01
$$ 2.037920E01, 4.669215E01
$$ 1.960579E01, 5.181135E01
$$ 1.883117E01, 5.694135E01
$$ 1.805537E01, 6.208215E01
$$ 1.727844E01, 6.723375E01
$$ 1.650044E01, 7.239615E01
$$ 1.572140E01, 7.756935E01
$$ 1.494139E01, 8.275335E01
$$ 1.416045E01, 8.794815E01
$$ 1.337863E01, 9.315375E01
$$ 1.259597E01, 9.837015E01
$$ 1.181253E01, 1.035973E02
$$ 1.102835E01, 1.088353E02
$$ 1.024348E01, 1.140841E02
$$ 9.457981E00, 1.193437E02
$$ 8.671888E00, 1.246142E02
$$ 7.885255E00, 1.298954E02
$$ 7.098130E00, 1.351873E02
$$ 6.310563E00, 1.404901E02
$$ 5.522603E00, 1.458037E02
$$ 4.734299E00, 1.511282E02
$$ 3.945700E00, 1.564633E02
$$ 3.156855E00, 1.618093E02
$$ 2.367813E00, 1.671662E02
$$ 1.578624E00, 1.725338E02
$$ 7.893367E-01, 1.779122E02
$$ 0.000000E00, 1.833013E02
$$ ##END
##$RELAX= 
##$BRUKER FILE EXP=pulseprogram
$$ # 1 "/opt/topspin3.5pl7/exp/stan/nmr/lists/pp/deptsp135"
$$ ;deptsp135
$$ ;avance-version (14/10/09)
$$ ;dept polarization transfer
$$ ;with decoupling during acquisition
$$ ;using shaped pulse for 180degree pulse on f1 - channel
$$ ;with 135 degree read pulse to give XH, XH3 positive and XH2 negative
$$ ;
$$ ;$CLASS=HighRes
$$ ;$DIM=1D
$$ ;$TYPE=
$$ ;$SUBTYPE=
$$ ;$COMMENT=
$$ ;$RECOMMEND=y
$$ 
$$ 
$$ # 1 "/opt/topspin3.5pl7/exp/stan/nmr/lists/pp/Avance.incl" 1
$$ ;Avance3.incl
$$ ;   for AV III
$$ ;
$$ ;avance-version (13/06/17)
$$ ;
$$ ;$CLASS=HighRes Incl
$$ ;$COMMENT=
$$ # 169 "/opt/topspin3.5pl7/exp/stan/nmr/lists/pp/Avance.incl"
$$ ;$Id: Avance3.incl,v 1.10.2.2 2013/08/30 09:43:33 ber Exp $
$$ # 16 "/opt/topspin3.5pl7/exp/stan/nmr/lists/pp/deptsp135" 2
$$ 
$$ # 1 "/opt/topspin3.5pl7/exp/stan/nmr/lists/pp/Delay.incl" 1
$$ ;Delay.incl  -  include file for commonly used delays
$$ ;
$$ ;version (13/08/07)
$$ ;
$$ ;$CLASS=HighRes Incl
$$ ;$COMMENT=
$$ 
$$ # 9 "/opt/topspin3.5pl7/exp/stan/nmr/lists/pp/Delay.incl"
$$ ;general delays
$$ 
$$ define delay DELTA
$$ define delay DELTA1
$$ define delay DELTA2
$$ define delay DELTA3
$$ define delay DELTA4
$$ define delay DELTA5
$$ define delay DELTA6
$$ define delay DELTA7
$$ define delay DELTA8
$$ define delay DELTA9
$$ define delay DELTA10
$$ define delay DELTA11
$$ define delay DELTA12
$$ define delay DELTA13
$$ define delay DELTA14
$$ define delay DELTA15
$$ define delay DELTA16
$$ 
$$ define delay TAU
$$ define delay TAU1
$$ define delay TAU2
$$ define delay TAU3
$$ define delay TAU4
$$ define delay TAU5
$$ define delay TAU6
$$ define delay TAU7
$$ define delay TAU8
$$ define delay TAU9
$$ # 40 "/opt/topspin3.5pl7/exp/stan/nmr/lists/pp/Delay.incl"
$$ define delay INCR1
$$ define delay INCR2
$$ define delay INCR3
$$ define delay INCR4
$$ define delay INCR5
$$ define delay INCR6
$$ 
$$ 
$$ ;delays for centering pulses
$$ # 50 "/opt/topspin3.5pl7/exp/stan/nmr/lists/pp/Delay.incl"
$$ define delay CEN_HN1
$$ define delay CEN_HN2
$$ define delay CEN_HN3
$$ define delay CEN_HC1
$$ define delay CEN_HC2
$$ define delay CEN_HC3
$$ define delay CEN_HC4
$$ define delay CEN_HP1
$$ define delay CEN_HP2
$$ define delay CEN_CN1
$$ define delay CEN_CN2
$$ define delay CEN_CN3
$$ define delay CEN_CN4
$$ define delay CEN_CP1
$$ define delay CEN_CP2
$$ 
$$ 
$$ ;loop counters
$$ # 69 "/opt/topspin3.5pl7/exp/stan/nmr/lists/pp/Delay.incl"
$$ define loopcounter COUNTER
$$ define loopcounter SCALEF
$$ define loopcounter FACTOR1
$$ define loopcounter FACTOR2
$$ define loopcounter FACTOR3
$$ define loopcounter FACTOR4
$$ define loopcounter FACTOR5
$$ define loopcounter FACTOR6
$$ 
$$ 
$$ # 80 "/opt/topspin3.5pl7/exp/stan/nmr/lists/pp/Delay.incl"
$$ ;$Id: Delay.incl,v 1.14.2.1 2013/08/30 09:43:33 ber Exp $
$$ # 17 "/opt/topspin3.5pl7/exp/stan/nmr/lists/pp/deptsp135" 2
$$ 
$$ 
$$ # 20 "/opt/topspin3.5pl7/exp/stan/nmr/lists/pp/deptsp135"
$$ "p4=p3*2"
$$ "d2=1s/(cnst2*2)"
$$ "d12=20u"
$$ 
$$ 
$$ "DELTA=p1*4/PI"
$$ # 28 "/opt/topspin3.5pl7/exp/stan/nmr/lists/pp/deptsp135"
$$ "acqt0=-p1*2/PI"
$$ 
$$ 
$$ # 1 "mc_line 31 file /opt/topspin3.5pl7/exp/stan/nmr/lists/pp/deptsp135 exp. def. part of mc cmd. before ze"
$$ ; dimension 1D; AQ_mode 
$$ define delay MCWRK
$$ define delay MCREST
$$ "MCREST = 30m - 30m"
$$ "MCWRK = 0.333333*30m"
$$ 
$$     dccorr
$$ # 31 "/opt/topspin3.5pl7/exp/stan/nmr/lists/pp/deptsp135"
$$ 1 ze
$$ # 1 "mc_line 31 file /opt/topspin3.5pl7/exp/stan/nmr/lists/pp/deptsp135 exp. def. of mc cmd. after ze"
$$ # 32 "/opt/topspin3.5pl7/exp/stan/nmr/lists/pp/deptsp135"
$$ # 1 "mc_line 32 file /opt/topspin3.5pl7/exp/stan/nmr/lists/pp/deptsp135 exp. start label for mc cmd."
$$ 2 MCWRK  * 2 do:f2
$$ LBLF0, MCWRK 
$$   MCREST
$$ # 33 "/opt/topspin3.5pl7/exp/stan/nmr/lists/pp/deptsp135"
$$   d1
$$   d12 pl1:f1 pl2:f2
$$   (p3 ph1):f2
$$   d2
$$   (p4 ph2):f2 
$$   (p1 ph4):f1
$$   d2 pl0:f1
$$   (p3*1.5 ph3):f2 (p13:sp5 ph5):f1
$$   d2
$$   DELTA pl12:f2
$$   go=2 ph31 cpd2:f2
$$ # 1 "mc_line 44 file /opt/topspin3.5pl7/exp/stan/nmr/lists/pp/deptsp135 exp. mc cmd. in line"
$$   MCWRK do:f2 wr #0
$$   MCWRK zd
$$   lo to LBLF0 times td0
$$ 
$$ # 45 "/opt/topspin3.5pl7/exp/stan/nmr/lists/pp/deptsp135"
$$ exit
$$ # 48 "/opt/topspin3.5pl7/exp/stan/nmr/lists/pp/deptsp135"
$$ ph1=0
$$ ph2=0 2 1 3
$$ ph3=1 1 1 1 3 3 3 3
$$ ph4=0 0 0 0 0 0 0 0 1 1 1 1 1 1 1 1
$$     2 2 2 2 2 2 2 2 3 3 3 3 3 3 3 3
$$ ph5=0 2 0 2 0 2 0 2 1 3 1 3 1 3 1 3
$$ ph31=1 1 3 3 3 3 1 1 2 2 0 0 0 0 2 2
$$      3 3 1 1 1 1 3 3 0 0 2 2 2 2 0 0
$$ 
$$ 
$$ ;pl0 : 0W
$$ ;pl1 : f1 channel - power level for pulse (default)
$$ ;pl2 : f2 channel - power level for pulse (default)
$$ ;pl12: f2 channel - power level for CPD/BB decoupling
$$ ;sp5: f1 channel - shaped pulse (180degree)
$$ ;spnam5: Crp60comp.4
$$ ;p1 : f1 channel -  90 degree high power pulse
$$ ;p3 : f2 channel -  90 degree high power pulse
$$ ;p4 : f2 channel - 180 degree high power pulse
$$ ;p13: f1 channel - 180 degree shaped pulse
$$ ;     = 2msec for Crp60comp.4
$$ ;d1 : relaxation delay; 1-5 * T1
$$ ;d2 : 1/(2J(XH))
$$ ;d12: delay for power switching                      [20 usec]
$$ ;cnst2: = J(XH)
$$ ;ns: 4 * n, total number of scans: NS * TD0
$$ ;ds: 8
$$ ;cpd2: decoupling according to sequence defined by cpdprg2
$$ ;pcpd2: f2 channel - 90 degree pulse for decoupling sequence
$$ # 79 "/opt/topspin3.5pl7/exp/stan/nmr/lists/pp/deptsp135"
$$ ;DELTA: delay to compensate for chemical shift evolution during
$$ ;          RF pulse in order to give same phase correction as
$$ ;          for reference 1D spectrum
$$ 
$$ 
$$ # 85 "/opt/topspin3.5pl7/exp/stan/nmr/lists/pp/deptsp135"
$$ ;$Id: deptsp135,v 1.13.2.1 2014/10/10 09:21:10 ber Exp $
##$RELAX= 
##$BRUKER FILE EXP=shimvalues
$$ # Mon May 19 13:51:37 2025
$$ #$$PROBEIDENTIFIER=Z800701_0081
$$ #$$PROBENAME=PA BBO 500S2 BB-H-D-05 Z
$$ #$$SHIMID=292722
$$ #
$$ # Active Shim Gradients
$$ #
$$ Z           		493             
$$ Z2          		2198            
$$ Z3          		-952            
$$ Z4          		3494            
$$ Z5          		-1243           
$$ Z6          		2909            
$$ Z7          		-973            
$$ Z8          		0               
$$ X           		1767            
$$ XZ          		-4879           
$$ XZ2         		1010            
$$ XZ3         		-6355           
$$ XZ4         		1379            
$$ XZ5         		10013           
$$ Y           		4297            
$$ YZ          		-10141          
$$ YZ2         		-4173           
$$ YZ3         		3481            
$$ YZ4         		-66             
$$ YZ5         		-12010          
$$ XY          		2927            
$$ XYZ         		-8055           
$$ XYZ2        		-6939           
$$ XYZ3        		-4244           
$$ XYZ4        		-2739           
$$ XYZ5        		0               
$$ (X2-Y2)     		11678           
$$ (X2-Y2)Z    		-10953          
$$ (X2-Y2)Z2   		1259            
$$ (X2-Y2)Z3   		6854            
$$ (X2-Y2)Z4   		1240            
$$ (X2-Y2)Z5   		0               
$$ X3          		2375            
$$ X3Z         		-6144           
$$ Y3          		4207            
$$ Y3Z         		6975            
$$ #
$$ # Lock Parameter
$$ #
$$ FIELD		5540.109
$$ LOCKPHASE		8.270   
$$ LOCKPOWER		-39.000 
$$ LOCKGAIN		118.200 
$$ LOCKDC		-75.000 
$$ LOCKSHIFT		4.700   
$$ LOOPGAIN		5.000   
$$ LOOPTIME		0.250   
$$ LOOPFILTER		500.000 
$$ #
$$ IEEE64_VERSION_CODE 1
$$ #
$$ # Shim currents 
$$ #
$$ SHIM_SETTING [1 ]  -78.67193272    
$$ SHIM_SETTING [2 ]  2100.24494489   
$$ SHIM_SETTING [3 ]  -1432.80181078  
$$ SHIM_SETTING [4 ]  -5399.61734684  
$$ SHIM_SETTING [5 ]  506.61048804    
$$ SHIM_SETTING [6 ]  2836.85524127   
$$ SHIM_SETTING [7 ]  5007.31730491   
$$ SHIM_SETTING [8 ]  9695.65013102   
$$ SHIM_SETTING [9 ]  1810.47082825   
$$ SHIM_SETTING [10]  3643.08246409   
$$ SHIM_SETTING [11]  0.00000000      
$$ SHIM_SETTING [12]  -2767.60200000  
$$ SHIM_SETTING [13]  11181.60200000  
$$ SHIM_SETTING [14]  4131.70300000   
$$ SHIM_SETTING [15]  -3705.29499837  
$$ SHIM_SETTING [16]  10593.86211167  
$$ SHIM_SETTING [17]  5990.19101141   
$$ SHIM_SETTING [18]  -6518.50573355  
$$ SHIM_SETTING [19]  6247.99766845   
$$ SHIM_SETTING [20]  -3066.38374695  
$$ SHIM_SETTING [21]  3498.87400000   
$$ SHIM_SETTING [22]  15280.36800000  
$$ SHIM_SETTING [23]  -2539.12700000  
$$ SHIM_SETTING [24]  21570.70100000  
$$ SHIM_SETTING [25]  9539.37000000   
$$ SHIM_SETTING [26]  727.49000000    
$$ SHIM_SETTING [27]  -1827.95400000  
$$ SHIM_SETTING [28]  -11494.18458558 
$$ SHIM_SETTING [29]  -5065.22500000  
$$ SHIM_SETTING [30]  7022.84400000   
$$ SHIM_SETTING [31]  -3963.81475956  
$$ SHIM_SETTING [32]  10828.99616429  
$$ SHIM_SETTING [33]  -17506.44300000 
$$ SHIM_SETTING [34]  4873.22900000   
$$ SHIM_SETTING [35]  7752.75800000   
$$ SHIM_SETTING [36]  13742.15300000  
$$ SHIM_SETTING [37]  14596.73823196  
$$ SHIM_SETTING [38]  -8094.36799228  
$$ SHIM_SETTING [39]  18079.29921752  
$$ SHIM_SETTING [40]  0.00000000      
##$RELAX= 
##$BRUKER FILE EXP=uxnmr.par
$$ ##TITLE= Parameter file, TopSpin 3.5 pl 7
$$ ##JCAMPDX= 5.0
$$ ##DATATYPE= Parameter Values
$$ ##NPOINTS= 104	$$ modification sequence number
$$ ##ORIGIN= Bruker BioSpin GmbH
$$ ##OWNER= nmrsu
$$ $$ 2025-04-09 09:16:50.742 +0200  aci@chem-nmr500
$$ $$ /opt/topspin3.5pl7/conf/instr/spect/uxnmr.par
$$ $$ process /opt/topspin3.5pl7/prog/mod/cfserverav3
$$ ##$ACB= 0
$$ ##$ACBTAT= (0..23)
$$ 0 72 88 50 50 0 0 0 0 0 0 0 0 0 0 0 0 0 0 0 0 0 0 0
$$ ##$ACBTBA= (0..23)
$$ 0 0 0 0 0 0 0 0 0 0 0 0 0 0 0 0 0 0 0 0 0 0 0 0
$$ ##$ACBTBLK= (0..23)
$$ 0 34 33 36 1 0 0 0 0 0 0 0 0 0 0 0 0 0 0 0 0 0 0 0
$$ ##$ACBTCTL= (0..23)
$$ 0 6 6 6 6 0 0 0 0 0 0 0 0 0 0 0 0 0 0 0 0 0 0 0
$$ ##$ACBTDI= (0..23)
$$ 0 -1779670023 -1779670023 -1779670023 -1779670252 0 0 0 0 0 0 0 0 0 0 0
$$ 0 0 0 0 0 0 0 0
$$ ##$ACBTDM= (0..23)
$$ 0 25 6 10 10 0 0 0 0 0 0 0 0 0 0 0 0 0 0 0 0 0 0 0
$$ ##$ACBTFHI= (0..23)
$$ 0 600 365 92 78 0 0 0 0 0 0 0 0 0 0 0 0 0 0 0 0 0 0 0
$$ ##$ACBTFL= (0..23)
$$ 0 248 248 88 8 0 0 0 0 0 0 0 0 0 0 0 0 0 0 0 0 0 0 0
$$ ##$ACBTFLO= (0..23)
$$ 0 180 6 30 76 0 0 0 0 0 0 0 0 0 0 0 0 0 0 0 0 0 0 0
$$ ##$ACBTINP= (0..23)
$$ 0 2 1 4 0 0 0 0 0 0 0 0 0 0 0 0 0 0 0 0 0 0 0 0
$$ ##$ACBTOUT= (0..23)
$$ 0 1 2 3 1 0 0 0 0 0 0 0 0 0 0 0 0 0 0 0 0 0 0 0
$$ ##$ACBTPO= (0..23)
$$ 0 100000 500000 150000 5000 0 0 0 0 0 0 0 0 0 0 0 0 0 0 0 0 0 0 0
$$ ##$ACBTPW= (0..23)
$$ 0 100 60 5 1000 0 0 0 0 0 0 0 0 0 0 0 0 0 0 0 0 0 0 0
$$ ##$ACBTSB= (0..23)
$$ 0 103 99 16 0 0 0 0 0 0 0 0 0 0 0 0 0 0 0 0 0 0 0 0
$$ ##$ACBTSDT= (0..23)
$$ 0 2 2 2 2 0 0 0 0 0 0 0 0 0 0 0 0 0 0 0 0 0 0 0
$$ ##$ACBTY= <no>
$$ ##$AMPDFLT= no
$$ ##$AQSBDCH= (0..95)
$$ 0 0 0 0 0 0 0 0 0 0 255 255 255 255 255 255 255 255 255 255 255 255 255
$$ 255 255 255 255 255 255 255 255 255 255 255 255 255 255 255 255 255 255
$$ 255 255 255 255 255 255 255 255 255 255 255 255 255 255 255 255 255 255
$$ 255 255 255 255 255 255 255 255 255 255 255 255 255 255 255 255 255 255
$$ 255 255 255 255 255 255 255 255 255 255 255 255 255 255 255 255 255 255
$$ 255
$$ ##$AQSBDHW= (0..95)
$$ 5 1 0 0 0 0 0 0 0 0 255 255 255 255 255 255 255 255 255 255 255 255 255
$$ 255 255 255 255 255 255 255 255 255 255 255 255 255 255 255 255 255 255
$$ 255 255 255 255 255 255 255 255 255 255 255 255 255 255 255 255 255 255
$$ 255 255 255 255 255 255 255 255 255 255 255 255 255 255 255 255 255 255
$$ 255 255 255 255 255 255 255 255 255 255 255 255 255 255 255 255 255 255
$$ 255
$$ ##$AQSBDID= (0..95)
$$ 82 88 83 83 83 83 86 86 66 66 255 255 255 255 255 255 255 255 255 255 255
$$ 255 255 255 255 255 255 255 255 255 255 255 255 255 255 255 255 255 255
$$ 255 255 255 255 255 255 255 255 255 255 255 255 255 255 255 255 255 255
$$ 255 255 255 255 255 255 255 255 255 255 255 255 255 255 255 255 255 255
$$ 255 255 255 255 255 255 255 255 255 255 255 255 255 255 255 255 255 255
$$ 255 255 255
$$ ##$AQSBDNO= (0..95)
$$ 1 1 1 2 3 4 1 2 1 1 255 255 255 255 255 255 255 255 255 255 255 255 255
$$ 255 255 255 255 255 255 255 255 255 255 255 255 255 255 255 255 255 255
$$ 255 255 255 255 255 255 255 255 255 255 255 255 255 255 255 255 255 255
$$ 255 255 255 255 255 255 255 255 255 255 255 255 255 255 255 255 255 255
$$ 255 255 255 255 255 255 255 255 255 255 255 255 255 255 255 255 255 255
$$ 255
$$ ##$AQSBDSL= (0..95)
$$ 2 3 4 4 5 5 13 14 255 1 255 255 255 255 255 255 255 255 255 255 255 255
$$ 255 255 255 255 255 255 255 255 255 255 255 255 255 255 255 255 255 255
$$ 255 255 255 255 255 255 255 255 255 255 255 255 255 255 255 255 255 255
$$ 255 255 255 255 255 255 255 255 255 255 255 255 255 255 255 255 255 255
$$ 255 255 255 255 255 255 255 255 255 255 255 255 255 255 255 255 255 255
$$ 255 255
$$ ##$AQSBDTY= (0..95)
$$ 67 214 50 50 50 50 147 145 216 7 255 255 255 255 255 255 255 255 255 255
$$ 255 255 255 255 255 255 255 255 255 255 255 255 255 255 255 255 255 255
$$ 255 255 255 255 255 255 255 255 255 255 255 255 255 255 255 255 255 255
$$ 255 255 255 255 255 255 255 255 255 255 255 255 255 255 255 255 255 255
$$ 255 255 255 255 255 255 255 255 255 255 255 255 255 255 255 255 255 255
$$ 255 255 255 255
$$ ##$AQSBUAD= (0..95)
$$ 16 52 36 37 38 39 160 161 32 32 255 255 255 255 255 255 255 255 255 255
$$ 255 255 255 255 255 255 255 255 255 255 255 255 255 255 255 255 255 255
$$ 255 255 255 255 255 255 255 255 255 255 255 255 255 255 255 255 255 255
$$ 255 255 255 255 255 255 255 255 255 255 255 255 255 255 255 255 255 255
$$ 255 255 255 255 255 255 255 255 255 255 255 255 255 255 255 255 255 255
$$ 255 255 255 255
$$ ##$AQSECL= (0..95)
$$ 0 2 2 2 2 2 0 1 1 255 255 255 255 255 255 255 255 255 255 255 255 255 255
$$ 255 255 255 255 255 255 255 255 255 255 255 255 255 255 255 255 255 255
$$ 255 255 255 255 255 255 255 255 255 255 255 255 255 255 255 255 255 255
$$ 255 255 255 255 255 255 255 255 255 255 255 255 255 255 255 255 255 255
$$ 255 255 255 255 255 255 255 255 255 255 255 255 255 255 255 255 255 255
$$ 255
$$ ##$AQSECLS= (0..95)
$$ 2 0 2 2 2 2 1 2 1 255 255 255 255 255 255 255 255 255 255 255 255 255 255
$$ 255 255 255 255 255 255 255 255 255 255 255 255 255 255 255 255 255 255
$$ 255 255 255 255 255 255 255 255 255 255 255 255 255 255 255 255 255 255
$$ 255 255 255 255 255 255 255 255 255 255 255 255 255 255 255 255 255 255
$$ 255 255 255 255 255 255 255 255 255 255 255 255 255 255 255 255 255 255
$$ 255
$$ ##$AQSETH1= <no>
$$ ##$AQSETH2= <no>
$$ ##$AQSSPLT= no
$$ ##$ATT19F= (0..1)
$$ 0 0
$$ ##$ATT1H= (0..1)
$$ 0 0
$$ ##$ATT3H= (0..1)
$$ 0 0
$$ ##$ATTX= (0..1)
$$ 0 0
$$ ##$ATTY= (0..1)
$$ 0 0
$$ ##$ATTZ= (0..1)
$$ 0 0
$$ ##$BACSAIR= yes
$$ ##$BACSCAP= 0
$$ ##$BACSDEL= 1
$$ ##$BACSFCM= no
$$ ##$BACSOPT= <>
$$ ##$BACSTY= <no>
$$ ##$BARPTY= <no>
$$ ##$BFREQ= 500.25
$$ ##$BGAETH= (0..9)
$$ <no> <no> <no> <no> <no> <no> <no> <no> <no> <no>
$$ ##$BIRDS= yes
$$ ##$BMPC= 0
$$ ##$BMPCTY= <no>
$$ ##$BPSUTY= <no>
$$ ##$BSMS= 2
$$ ##$BSMS19FLock= no
$$ ##$BSMSETH= <149.236.99.20>
$$ ##$BSMSTY= <no>
$$ ##$BgaChFac2= (0..7)
$$ 0 0 0 0 0 0 0 0
$$ ##$BgaChMap= (0..7)
$$ 0 0 0 0 0 0 0 0
$$ ##$BgaChMaxv= (0..7)
$$ 0 0 0 0 0 0 0 0
$$ ##$BgaChRouting= (0..63)
$$ 0 0 0 0 0 0 0 0 0 0 0 0 0 0 0 0 0 0 0 0 0 0 0 0 0 0 0 0 0 0 0 0 0 0 0 0
$$ 0 0 0 0 0 0 0 0 0 0 0 0 0 0 0 0 0 0 0 0 0 0 0 0 0 0 0 0
$$ ##$BgaChShimMap= (0..7)
$$ 0 0 0 0 0 0 0 0
$$ ##$BgaChShimMaxv= (0..7)
$$ 0 0 0 0 0 0 0 0
$$ ##$Bla01Eth= <149.236.99.254>
$$ ##$Bla01Nam= <BLAXH2H500/100/150 E 200-600MHZ>
$$ ##$Bla01PN= <W1345099>
$$ ##$Bla01SN= <0190>
$$ ##$Bla02Eth= <149.236.99.20>
$$ ##$Bla02Nam= <BSMS/2 LOCK TRANSCEIVER 500>
$$ ##$Bla02PN= <Z109889>
$$ ##$Bla02SN= <00456>
$$ ##$Bla03Eth= <no>
$$ ##$Bla03Nam= <>
$$ ##$Bla03PN= <>
$$ ##$Bla03SN= <>
$$ ##$Bla04Eth= <no>
$$ ##$Bla04Nam= <>
$$ ##$Bla04PN= <>
$$ ##$Bla04SN= <>
$$ ##$Bla05Eth= <no>
$$ ##$Bla05Nam= <>
$$ ##$Bla05PN= <>
$$ ##$Bla05SN= <>
$$ ##$Bla06Eth= <no>
$$ ##$Bla06Nam= <>
$$ ##$Bla06PN= <>
$$ ##$Bla06SN= <>
$$ ##$Bla07Eth= <no>
$$ ##$Bla07Nam= <>
$$ ##$Bla07PN= <>
$$ ##$Bla07SN= <>
$$ ##$Bla08Eth= <no>
$$ ##$Bla08Nam= <>
$$ ##$Bla08PN= <>
$$ ##$Bla08SN= <>
$$ ##$BlaEth= (0..9)
$$ <149.236.99.249> <149.236.99.20> <no> <no> <no> <no> <no> <no> <> <>
$$ ##$BlaNam= (0..9)
$$ <BLAXH2H500/100/150 E 200-600MHZ > <BSMS/2 LOCK TRANSCEIVER 500> <> <>
$$ <> <> <> <> <> <>
$$ ##$BlaPN= (0..9)
$$ <W1345099> <Z109889> <> <> <> <> <> <> <> <>
$$ ##$BlaSN= (0..9)
$$ <0187> <00456> <> <> <> <> <> <> <> <>
$$ ##$BsmsAuxEth= <no>
$$ ##$CFASMOD= (0..7)
$$ 1 1 1 1 1 1 1 1
$$ ##$CFASMUL= (0..7)
$$ 1 1 1 1 1 1 1 1
$$ ##$CNFTXDR= (0..7)
$$ 6 6 6 0 0 0 0 0
$$ ##$COMDIG2= 0
$$ ##$CPDBTY= <no>
$$ ##$CRCOTY= <no>
$$ ##$CSW1= (0..31)
$$ 2 2 2 4 0 0 0 0 0 0 0 0 0 0 0 0 0 0 0 0 0 0 0 0 0 0 0 0 0 0 0 0
$$ ##$CSW2= (0..31)
$$ 1 1 1 0 0 0 0 0 0 0 0 0 0 0 0 0 0 0 0 0 0 0 0 0 0 0 0 0 0 0 0 0
$$ ##$CSWNUM= (0..7)
$$ 4 1 0 0 0 0 0 0
$$ ##$ConsolePnSn= <>
$$ ##$CryoProAccPnSn= <>
$$ ##$Ctb1Eth= <no>
$$ ##$CubeEth= (0..7)
$$ <no> <no> <no> <no> <no> <no> <no> <no>
$$ ##$CustRegisterNo= <>
$$ ##$DATSTAT= no
$$ ##$DIGI140= (0..7)
$$ 0 0 0 0 0 0 0 0
$$ ##$DIGIB12= (0..7)
$$ 0 0 0 0 0 0 0 0
$$ ##$DIGIB16= (0..7)
$$ 0 0 0 0 0 0 0 0
$$ ##$DIGIFA= (0..7)
$$ 0 0 0 0 0 0 0 0
$$ ##$DIGIFOURIER= 0
$$ ##$DIGIHA= (0..7)
$$ 0 0 0 0 0 0 0 0
$$ ##$DIGIHAF= (0..7)
$$ 0 0 0 0 0 0 0 0
$$ ##$DIGIHRD= (0..7)
$$ 0 0 0 0 0 0 0 0
$$ ##$DIGIIA= (0..7)
$$ 0 0 0 0 0 0 0 0
$$ ##$DIGIO16= (0..7)
$$ 0 0 0 0 0 0 0 0
$$ ##$DIGISA= (0..7)
$$ 0 0 0 0 0 0 0 0
$$ ##$DIGISAF= (0..7)
$$ 0 0 0 0 0 0 0 0
$$ ##$DIGISL= (0..7)
$$ 0 0 0 0 0 0 0 0
$$ ##$DIGITYI= (0..7)
$$ 0 0 0 0 0 0 0 0
$$ ##$DIGITYP= (0..7)
$$ 0 0 0 0 0 0 0 0
$$ ##$DIGITZ= 0
$$ ##$DPPFAC= 1
$$ ##$DRMSETH= <no>
$$ ##$DRU= yes
$$ ##$DRUETH= (0..33)
$$ <no> <149.236.99.89> <no> <no> <no> <no> <no> <no> <no> <no> <no> <no>
$$ <no> <no> <no> <no> <no> <no> <no> <no> <no> <no> <no> <no> <no> <no> <no>
$$ <no> <no> <no> <no> <no> <no> <>
$$ ##$Description= <AVHD500>
$$ ##$DppType= 0
$$ ##$FCUMEM= (0..7)
$$ 16777208 16777208 16777208 0 0 0 0 0
$$ ##$FCUPAL= (0..7)
$$ 0 0 0 0 0 0 0 0
$$ ##$FGSVTY= <no>
$$ ##$FQMIX= 0
$$ ##$FUNCMOD= <>
$$ ##$FourPeriBdEth= <no>
$$ ##$FourShimBdEth= <no>
$$ ##$FourierPicsCon= no
$$ ##$GCUTYPE= 10
$$ ##$GCUTYPE2= 0
$$ ##$GPREDEL= 0
$$ ##$GPSCUTY= <no>
$$ ##$GRADRES= 5
$$ ##$GTUTY= <no>
$$ ##$GcConn= (0..1)
$$ 1 0
$$ ##$GradAmpGain= (0..7)
$$ 0 0 0 0 0 0 0 0
$$ ##$GradAmpMaxCurX= (0..7)
$$ 0 0 0 0 0 0 0 0
$$ ##$GradAmpMaxCurY= (0..7)
$$ 0 0 0 0 0 0 0 0
$$ ##$GradAmpMaxCurZ= (0..7)
$$ 9.99999904632568 0 0 0 0 0 0 0
$$ ##$GradAmpName= (0..7)
$$ <GAB in BSMS> <> <> <> <> <> <> <>
$$ ##$GradAmpPN= (0..7)
$$ <> <> <> <> <> <> <> <>
$$ ##$GradAmpSN= (0..7)
$$ <> <> <> <> <> <> <> <>
$$ ##$GradAmpType= (0..7)
$$ 2 0 0 0 0 0 0 0
$$ ##$GradPowClkCtrl= 0
$$ ##$GradPowClkTime= 0
$$ ##$GradPowImax= 0
$$ ##$GradPowType= 0
$$ ##$GradPowVmax= 0
$$ ##$HDIETH= (0..5)
$$ <> <no> <no> <no> <no> <>
$$ ##$HFAC= 3
$$ ##$HPCU= 0
$$ ##$HPCUTY= <no>
$$ ##$HPTXLP= (0..3)
$$ -1 -1 -1 -1
$$ ##$HPTXPI= (0..3)
$$ 0 0 0 0
$$ ##$HPTXPO= (0..3)
$$ 0 0 0 0
$$ ##$HPTXTY= (0..3)
$$ 0 0 0 0
$$ ##$HpprCoverType= 2
$$ ##$IF451= 0
$$ ##$IFREQ= 1
$$ ##$INJPTY= <no>
$$ ##$INTFPR= 0
$$ ##$IPSOETH= <149.236.99.253>
$$ ##$IPSOTYPE= 1
$$ ##$LDUETH= (0..0)
$$ <no>
$$ ##$LOCKCONF= <DLM>
$$ ##$LOCKTY= <no>
$$ ##$LOCSWID= 0
$$ ##$LOCSWIF= 0
$$ ##$LVDSSPLITETH= (0..5)
$$ <> <no> <no> <no> <no> <>
$$ ##$Location= <Universitaet Zuerich Irchel>
$$ ##$M2FAC= 0
$$ ##$MAS= 2
$$ ##$MASETIME= 10
$$ ##$MASITIME= 10
$$ ##$MASTY= <tty01>
$$ ##$MAS_CT= 10
$$ ##$MAS_SG= 0
$$ ##$MAS_TO= 0
$$ ##$MEMPRM= 0
$$ ##$MHFAC= 0
$$ ##$MXFAC= 0
$$ ##$MagnCoilPnSn= <>
$$ ##$MagnDewarPnSn= <>
$$ ##$MasEth= <no>
$$ ##$NAMPD= (0..17)
$$ <> <HPLNA 19F1H> <2H> <XBB19F 2HP> <> <> <> <> <> <> <> <> <> <> <> <>
$$ <> <>
$$ ##$NFCU= 3
$$ ##$NFRED= 0
$$ ##$NMRCH= 2
$$ ##$NMRMEM= 16384
$$ ##$NPSGU= 0
$$ ##$NRCU= 1
$$ ##$NROUT= 0
$$ ##$NSGU= 4
$$ ##$OrderNo= <10088890>
$$ ##$PAMPF1= (0..15)
$$ 75 56 96 64 0 0 0 0 0 0 0 0 0 0 0 0
$$ ##$PAMPF2= (0..15)
$$ 0 0 0 0 0 0 0 0 0 0 0 0 0 0 0 0
$$ ##$PAMPF3= (0..15)
$$ 0 0 0 0 0 0 0 0 0 0 0 0 0 0 0 0
$$ ##$PAMPF4= (0..15)
$$ 0 0 0 0 0 0 0 0 0 0 0 0 0 0 0 0
$$ ##$PAMPF5= (0..15)
$$ 0 0 0 0 0 0 0 0 0 0 0 0 0 0 0 0
$$ ##$PAMPF6= (0..15)
$$ 0 0 0 0 0 0 0 0 0 0 0 0 0 0 0 0
$$ ##$PAMPF7= (0..15)
$$ 0 0 0 0 0 0 0 0 0 0 0 0 0 0 0 0
$$ ##$PAMPF8= (0..15)
$$ 0 0 0 0 0 0 0 0 0 0 0 0 0 0 0 0
$$ ##$PH4= 0
$$ ##$PHF4TY= <no>
$$ ##$POWCHK= yes
$$ ##$PRAMD1= (0..7)
$$ 6 0 0 1610612736 0 0 0 0
$$ ##$PRAMD10= (0..7)
$$ 0 0 0 0 0 0 0 0
$$ ##$PRAMD11= (0..7)
$$ 0 0 0 0 0 0 0 0
$$ ##$PRAMD12= (0..7)
$$ 0 0 0 0 0 0 0 0
$$ ##$PRAMD13= (0..7)
$$ 0 0 0 0 0 0 0 0
$$ ##$PRAMD14= (0..7)
$$ 0 0 0 0 0 0 0 0
$$ ##$PRAMD15= (0..7)
$$ 0 0 0 0 0 0 0 0
$$ ##$PRAMD16= (0..7)
$$ 0 0 0 0 0 0 0 0
$$ ##$PRAMD17= (0..7)
$$ 0 0 0 0 0 0 0 0
$$ ##$PRAMD18= (0..7)
$$ 0 0 0 0 0 0 0 0
$$ ##$PRAMD19= (0..7)
$$ 0 0 0 0 0 0 0 0
$$ ##$PRAMD2= (0..7)
$$ 0 1048576 0 536870912 0 1048576 0 536870912
$$ ##$PRAMD20= (0..7)
$$ 0 0 0 0 0 0 0 0
$$ ##$PRAMD21= (0..7)
$$ 0 0 0 0 0 0 0 0
$$ ##$PRAMD3= (0..7)
$$ 2147483644 2147483647 2147483647 603979775 0 0 0 0
$$ ##$PRAMD4= (0..7)
$$ 0 0 0 0 0 0 0 0
$$ ##$PRAMD5= (0..7)
$$ 0 0 0 0 0 0 0 0
$$ ##$PRAMD6= (0..7)
$$ 0 0 0 0 0 0 0 0
$$ ##$PRAMD7= (0..7)
$$ 0 0 0 0 0 0 0 0
$$ ##$PRAMD8= (0..7)
$$ 0 0 0 0 0 0 0 0
$$ ##$PRAMD9= (0..7)
$$ 0 0 0 0 0 0 0 0
$$ ##$PRAMLED= (0..1)
$$ 0 0
$$ ##$PRAMP= (0..9)
$$ <> <tty10> <no> <no> <no> <no> <no> <no> <no> <>
$$ ##$PRAMPTP= 1
$$ ##$PREEMPTYPE= 0
$$ ##$PREPTY= <no>
$$ ##$PREREC= (0..15)
$$ 0 1 1 1 0 0 0 0 0 0 0 0 0 0 0 0
$$ ##$PRESHLD= 0
$$ ##$PTS160= -1
$$ ##$PTSA2X= (0..7)
$$ 0 0 0 0 0 0 0 0
$$ ##$PTSF2X= (0..7)
$$ 0 0 0 0 0 0 0 0
$$ ##$PTSFMX= (0..19)
$$ 649.9 649.9 649.9 649.9 0 0 0 0 0 0 0 0 0 0 0 0 0 0 0 0
$$ ##$PULCHK= no
$$ ##$PerMagATempSens= no
$$ ##$PerMagEth= <no>
$$ ##$PerMagFluxSens= no
$$ ##$PerMagMTempSens= no
$$ ##$PramDutyCycPerc= (0..15)
$$ 4 2 2 0 0 0 0 0 0 0 0 0 0 0 0 0
$$ ##$PramPeakPowerW= (0..15)
$$ 4000 500 500 0 0 0 0 0 0 0 0 0 0 0 0 0
$$ ##$PramPowerSwitch= (0..15)
$$ 0 0 0 0 0 0 0 0 0 0 0 0 0 0 0 0
$$ ##$PramPulWidthMs= (0..15)
$$ 10 0.1 0.1 0 0 0 0 0 0 0 0 0 0 0 0 0
$$ ##$PreampMod01PN= <Z103204>
$$ ##$PreampMod01SN= <00273>
$$ ##$PreampMod02PN= <Z003472>
$$ ##$PreampMod02SN= <01157>
$$ ##$PreampMod03PN= <Z102026>
$$ ##$PreampMod03SN= <00013>
$$ ##$PreampMod04PN= <>
$$ ##$PreampMod04SN= <>
$$ ##$PreampMod05PN= <>
$$ ##$PreampMod05SN= <>
$$ ##$PreampMod06PN= <>
$$ ##$PreampMod06SN= <>
$$ ##$PreampMod07PN= <>
$$ ##$PreampMod07SN= <>
$$ ##$PreampMod08PN= <>
$$ ##$PreampMod08SN= <>
$$ ##$PreampMod09PN= <>
$$ ##$PreampMod09SN= <>
$$ ##$PreampMod10PN= <>
$$ ##$PreampMod10SN= <>
$$ ##$PreampMod11PN= <>
$$ ##$PreampMod11SN= <>
$$ ##$PreampMod12PN= <>
$$ ##$PreampMod12SN= <>
$$ ##$PreampMod13PN= <>
$$ ##$PreampMod13SN= <>
$$ ##$PreampMod14PN= <>
$$ ##$PreampMod14SN= <>
$$ ##$PreampMod15PN= <>
$$ ##$PreampMod15SN= <>
$$ ##$PreampMod16PN= <>
$$ ##$PreampMod16SN= <>
$$ ##$PreampModBisDat= (0..15)
$$ 20130502 20130412 20130626 0 0 0 0 0 0 0 0 0 0 0 0 0
$$ ##$PreampModPN= (0..17)
$$ <Z103204> <Z003472> <Z102026> <> <> <> <> <> <> <> <> <> <> <> <> <> <>
$$ <>
$$ ##$PreampModSN= (0..17)
$$ <00273> <01157> <00013> <> <> <> <> <> <> <> <> <> <> <> <> <> <> <>
$$ ##$ProdigyEth= <no>
$$ ##$RCUCDS= (0..7)
$$ 0 0 0 0 0 0 0 0
$$ ##$RCUCFS= (0..7)
$$ 0 0 0 0 0 0 0 0
$$ ##$RCUCSS= (0..7)
$$ 0 0 0 0 0 0 0 0
$$ ##$RCUI2C1= (0..7)
$$ 0 0 0 0 0 0 0 0
$$ ##$RCUI2C2= (0..7)
$$ 0 0 0 0 0 0 0 0
$$ ##$RCUI2C3= (0..7)
$$ 0 0 0 0 0 0 0 0
$$ ##$RCUI2C4= (0..7)
$$ 0 0 0 0 0 0 0 0
$$ ##$RCUI2C5= (0..7)
$$ 0 0 0 0 0 0 0 0
$$ ##$RCUI2C6= (0..7)
$$ 0 0 0 0 0 0 0 0
$$ ##$RCUI2C7= (0..7)
$$ 0 0 0 0 0 0 0 0
$$ ##$RCUI2C8= (0..7)
$$ 0 0 0 0 0 0 0 0
$$ ##$RDCU= 0
$$ ##$RFSINPUT= (0..1)
$$ 0 0
$$ ##$RFSVTY= <no>
$$ ##$RGTYPE= (0..31)
$$ 9 0 0 0 0 0 0 0 0 0 0 0 0 0 0 0 0 0 0 0 0 0 0 0 0 0 0 0 0 0 0 0
$$ ##$RG_max= (0..31)
$$ 203 -1 -1 -1 -1 -1 -1 -1 -1 -1 -1 -1 -1 -1 -1 -1 -1 -1 -1 -1 -1 -1 -1 -1
$$ -1 -1 -1 -1 -1 -1 -1 -1
$$ ##$RG_min= (0..31)
$$ 0.25 -1 -1 -1 -1 -1 -1 -1 -1 -1 -1 -1 -1 -1 -1 -1 -1 -1 -1 -1 -1 -1 -1
$$ -1 -1 -1 -1 -1 -1 -1 -1 -1
$$ ##$RG_tab1= (0..255)
$$ 0.25 0.28 0.32 0.35 0.4 0.44 0.5 0.56 0.64 0.7 0.8 0.89 1 1.12 1.28 1.4
$$ 1.6 1.78 2 2.25 2.56 2.8 3.2 3.56 4 4.5 5 5.6 6.35 7.12 8 9 10 11.3 12.7
$$ 14.2 16 18 20.2 22.6 25.4 28.5 32 36 40.3 45.2 50.8 57 64 71.8 80.6 90.5
$$ 101 114 128 144 161 181 203 -1 -1 -1 -1 -1 -1 -1 -1 -1 -1 -1 -1 -1 -1 -1
$$ -1 -1 -1 -1 -1 -1 -1 -1 -1 -1 -1 -1 -1 -1 -1 -1 -1 -1 -1 -1 -1 -1 -1 -1
$$ -1 -1 -1 -1 -1 -1 -1 -1 -1 -1 -1 -1 -1 -1 -1 -1 -1 -1 -1 -1 -1 -1 -1 -1
$$ -1 -1 -1 -1 -1 -1 -1 -1 -1 -1 -1 -1 -1 -1 -1 -1 -1 -1 -1 -1 -1 -1 -1 -1
$$ -1 -1 -1 -1 -1 -1 -1 -1 -1 -1 -1 -1 -1 -1 -1 -1 -1 -1 -1 -1 -1 -1 -1 -1
$$ -1 -1 -1 -1 -1 -1 -1 -1 -1 -1 -1 -1 -1 -1 -1 -1 -1 -1 -1 -1 -1 -1 -1 -1
$$ -1 -1 -1 -1 -1 -1 -1 -1 -1 -1 -1 -1 -1 -1 -1 -1 -1 -1 -1 -1 -1 -1 -1 -1
$$ -1 -1 -1 -1 -1 -1 -1 -1 -1 -1 -1 -1 -1 -1 -1 -1 -1 -1 -1 -1 -1 -1 -1 -1
$$ -1 -1 -1 -1 -1 -1 -1 -1 -1 -1 -1 -1 -1 -1
$$ ##$RG_tab2= (0..255)
$$ -1 -1 -1 -1 -1 -1 -1 -1 -1 -1 -1 -1 -1 -1 -1 -1 -1 -1 -1 -1 -1 -1 -1 -1
$$ -1 -1 -1 -1 -1 -1 -1 -1 -1 -1 -1 -1 -1 -1 -1 -1 -1 -1 -1 -1 -1 -1 -1 -1
$$ -1 -1 -1 -1 -1 -1 -1 -1 -1 -1 -1 -1 -1 -1 -1 -1 -1 -1 -1 -1 -1 -1 -1 -1
$$ -1 -1 -1 -1 -1 -1 -1 -1 -1 -1 -1 -1 -1 -1 -1 -1 -1 -1 -1 -1 -1 -1 -1 -1
$$ -1 -1 -1 -1 -1 -1 -1 -1 -1 -1 -1 -1 -1 -1 -1 -1 -1 -1 -1 -1 -1 -1 -1 -1
$$ -1 -1 -1 -1 -1 -1 -1 -1 -1 -1 -1 -1 -1 -1 -1 -1 -1 -1 -1 -1 -1 -1 -1 -1
$$ -1 -1 -1 -1 -1 -1 -1 -1 -1 -1 -1 -1 -1 -1 -1 -1 -1 -1 -1 -1 -1 -1 -1 -1
$$ -1 -1 -1 -1 -1 -1 -1 -1 -1 -1 -1 -1 -1 -1 -1 -1 -1 -1 -1 -1 -1 -1 -1 -1
$$ -1 -1 -1 -1 -1 -1 -1 -1 -1 -1 -1 -1 -1 -1 -1 -1 -1 -1 -1 -1 -1 -1 -1 -1
$$ -1 -1 -1 -1 -1 -1 -1 -1 -1 -1 -1 -1 -1 -1 -1 -1 -1 -1 -1 -1 -1 -1 -1 -1
$$ -1 -1 -1 -1 -1 -1 -1 -1 -1 -1 -1 -1 -1 -1 -1 -1
$$ ##$RG_tab3= (0..255)
$$ -1 -1 -1 -1 -1 -1 -1 -1 -1 -1 -1 -1 -1 -1 -1 -1 -1 -1 -1 -1 -1 -1 -1 -1
$$ -1 -1 -1 -1 -1 -1 -1 -1 -1 -1 -1 -1 -1 -1 -1 -1 -1 -1 -1 -1 -1 -1 -1 -1
$$ -1 -1 -1 -1 -1 -1 -1 -1 -1 -1 -1 -1 -1 -1 -1 -1 -1 -1 -1 -1 -1 -1 -1 -1
$$ -1 -1 -1 -1 -1 -1 -1 -1 -1 -1 -1 -1 -1 -1 -1 -1 -1 -1 -1 -1 -1 -1 -1 -1
$$ -1 -1 -1 -1 -1 -1 -1 -1 -1 -1 -1 -1 -1 -1 -1 -1 -1 -1 -1 -1 -1 -1 -1 -1
$$ -1 -1 -1 -1 -1 -1 -1 -1 -1 -1 -1 -1 -1 -1 -1 -1 -1 -1 -1 -1 -1 -1 -1 -1
$$ -1 -1 -1 -1 -1 -1 -1 -1 -1 -1 -1 -1 -1 -1 -1 -1 -1 -1 -1 -1 -1 -1 -1 -1
$$ -1 -1 -1 -1 -1 -1 -1 -1 -1 -1 -1 -1 -1 -1 -1 -1 -1 -1 -1 -1 -1 -1 -1 -1
$$ -1 -1 -1 -1 -1 -1 -1 -1 -1 -1 -1 -1 -1 -1 -1 -1 -1 -1 -1 -1 -1 -1 -1 -1
$$ -1 -1 -1 -1 -1 -1 -1 -1 -1 -1 -1 -1 -1 -1 -1 -1 -1 -1 -1 -1 -1 -1 -1 -1
$$ -1 -1 -1 -1 -1 -1 -1 -1 -1 -1 -1 -1 -1 -1 -1 -1
$$ ##$RG_tab4= (0..255)
$$ -1 -1 -1 -1 -1 -1 -1 -1 -1 -1 -1 -1 -1 -1 -1 -1 -1 -1 -1 -1 -1 -1 -1 -1
$$ -1 -1 -1 -1 -1 -1 -1 -1 -1 -1 -1 -1 -1 -1 -1 -1 -1 -1 -1 -1 -1 -1 -1 -1
$$ -1 -1 -1 -1 -1 -1 -1 -1 -1 -1 -1 -1 -1 -1 -1 -1 -1 -1 -1 -1 -1 -1 -1 -1
$$ -1 -1 -1 -1 -1 -1 -1 -1 -1 -1 -1 -1 -1 -1 -1 -1 -1 -1 -1 -1 -1 -1 -1 -1
$$ -1 -1 -1 -1 -1 -1 -1 -1 -1 -1 -1 -1 -1 -1 -1 -1 -1 -1 -1 -1 -1 -1 -1 -1
$$ -1 -1 -1 -1 -1 -1 -1 -1 -1 -1 -1 -1 -1 -1 -1 -1 -1 -1 -1 -1 -1 -1 -1 -1
$$ -1 -1 -1 -1 -1 -1 -1 -1 -1 -1 -1 -1 -1 -1 -1 -1 -1 -1 -1 -1 -1 -1 -1 -1
$$ -1 -1 -1 -1 -1 -1 -1 -1 -1 -1 -1 -1 -1 -1 -1 -1 -1 -1 -1 -1 -1 -1 -1 -1
$$ -1 -1 -1 -1 -1 -1 -1 -1 -1 -1 -1 -1 -1 -1 -1 -1 -1 -1 -1 -1 -1 -1 -1 -1
$$ -1 -1 -1 -1 -1 -1 -1 -1 -1 -1 -1 -1 -1 -1 -1 -1 -1 -1 -1 -1 -1 -1 -1 -1
$$ -1 -1 -1 -1 -1 -1 -1 -1 -1 -1 -1 -1 -1 -1 -1 -1
$$ ##$RG_tab5= (0..255)
$$ -1 -1 -1 -1 -1 -1 -1 -1 -1 -1 -1 -1 -1 -1 -1 -1 -1 -1 -1 -1 -1 -1 -1 -1
$$ -1 -1 -1 -1 -1 -1 -1 -1 -1 -1 -1 -1 -1 -1 -1 -1 -1 -1 -1 -1 -1 -1 -1 -1
$$ -1 -1 -1 -1 -1 -1 -1 -1 -1 -1 -1 -1 -1 -1 -1 -1 -1 -1 -1 -1 -1 -1 -1 -1
$$ -1 -1 -1 -1 -1 -1 -1 -1 -1 -1 -1 -1 -1 -1 -1 -1 -1 -1 -1 -1 -1 -1 -1 -1
$$ -1 -1 -1 -1 -1 -1 -1 -1 -1 -1 -1 -1 -1 -1 -1 -1 -1 -1 -1 -1 -1 -1 -1 -1
$$ -1 -1 -1 -1 -1 -1 -1 -1 -1 -1 -1 -1 -1 -1 -1 -1 -1 -1 -1 -1 -1 -1 -1 -1
$$ -1 -1 -1 -1 -1 -1 -1 -1 -1 -1 -1 -1 -1 -1 -1 -1 -1 -1 -1 -1 -1 -1 -1 -1
$$ -1 -1 -1 -1 -1 -1 -1 -1 -1 -1 -1 -1 -1 -1 -1 -1 -1 -1 -1 -1 -1 -1 -1 -1
$$ -1 -1 -1 -1 -1 -1 -1 -1 -1 -1 -1 -1 -1 -1 -1 -1 -1 -1 -1 -1 -1 -1 -1 -1
$$ -1 -1 -1 -1 -1 -1 -1 -1 -1 -1 -1 -1 -1 -1 -1 -1 -1 -1 -1 -1 -1 -1 -1 -1
$$ -1 -1 -1 -1 -1 -1 -1 -1 -1 -1 -1 -1 -1 -1 -1 -1
$$ ##$RG_tab6= (0..255)
$$ -1 -1 -1 -1 -1 -1 -1 -1 -1 -1 -1 -1 -1 -1 -1 -1 -1 -1 -1 -1 -1 -1 -1 -1
$$ -1 -1 -1 -1 -1 -1 -1 -1 -1 -1 -1 -1 -1 -1 -1 -1 -1 -1 -1 -1 -1 -1 -1 -1
$$ -1 -1 -1 -1 -1 -1 -1 -1 -1 -1 -1 -1 -1 -1 -1 -1 -1 -1 -1 -1 -1 -1 -1 -1
$$ -1 -1 -1 -1 -1 -1 -1 -1 -1 -1 -1 -1 -1 -1 -1 -1 -1 -1 -1 -1 -1 -1 -1 -1
$$ -1 -1 -1 -1 -1 -1 -1 -1 -1 -1 -1 -1 -1 -1 -1 -1 -1 -1 -1 -1 -1 -1 -1 -1
$$ -1 -1 -1 -1 -1 -1 -1 -1 -1 -1 -1 -1 -1 -1 -1 -1 -1 -1 -1 -1 -1 -1 -1 -1
$$ -1 -1 -1 -1 -1 -1 -1 -1 -1 -1 -1 -1 -1 -1 -1 -1 -1 -1 -1 -1 -1 -1 -1 -1
$$ -1 -1 -1 -1 -1 -1 -1 -1 -1 -1 -1 -1 -1 -1 -1 -1 -1 -1 -1 -1 -1 -1 -1 -1
$$ -1 -1 -1 -1 -1 -1 -1 -1 -1 -1 -1 -1 -1 -1 -1 -1 -1 -1 -1 -1 -1 -1 -1 -1
$$ -1 -1 -1 -1 -1 -1 -1 -1 -1 -1 -1 -1 -1 -1 -1 -1 -1 -1 -1 -1 -1 -1 -1 -1
$$ -1 -1 -1 -1 -1 -1 -1 -1 -1 -1 -1 -1 -1 -1 -1 -1
$$ ##$RG_tab7= (0..255)
$$ -1 -1 -1 -1 -1 -1 -1 -1 -1 -1 -1 -1 -1 -1 -1 -1 -1 -1 -1 -1 -1 -1 -1 -1
$$ -1 -1 -1 -1 -1 -1 -1 -1 -1 -1 -1 -1 -1 -1 -1 -1 -1 -1 -1 -1 -1 -1 -1 -1
$$ -1 -1 -1 -1 -1 -1 -1 -1 -1 -1 -1 -1 -1 -1 -1 -1 -1 -1 -1 -1 -1 -1 -1 -1
$$ -1 -1 -1 -1 -1 -1 -1 -1 -1 -1 -1 -1 -1 -1 -1 -1 -1 -1 -1 -1 -1 -1 -1 -1
$$ -1 -1 -1 -1 -1 -1 -1 -1 -1 -1 -1 -1 -1 -1 -1 -1 -1 -1 -1 -1 -1 -1 -1 -1
$$ -1 -1 -1 -1 -1 -1 -1 -1 -1 -1 -1 -1 -1 -1 -1 -1 -1 -1 -1 -1 -1 -1 -1 -1
$$ -1 -1 -1 -1 -1 -1 -1 -1 -1 -1 -1 -1 -1 -1 -1 -1 -1 -1 -1 -1 -1 -1 -1 -1
$$ -1 -1 -1 -1 -1 -1 -1 -1 -1 -1 -1 -1 -1 -1 -1 -1 -1 -1 -1 -1 -1 -1 -1 -1
$$ -1 -1 -1 -1 -1 -1 -1 -1 -1 -1 -1 -1 -1 -1 -1 -1 -1 -1 -1 -1 -1 -1 -1 -1
$$ -1 -1 -1 -1 -1 -1 -1 -1 -1 -1 -1 -1 -1 -1 -1 -1 -1 -1 -1 -1 -1 -1 -1 -1
$$ -1 -1 -1 -1 -1 -1 -1 -1 -1 -1 -1 -1 -1 -1 -1 -1
$$ ##$RG_tab8= (0..255)
$$ -1 -1 -1 -1 -1 -1 -1 -1 -1 -1 -1 -1 -1 -1 -1 -1 -1 -1 -1 -1 -1 -1 -1 -1
$$ -1 -1 -1 -1 -1 -1 -1 -1 -1 -1 -1 -1 -1 -1 -1 -1 -1 -1 -1 -1 -1 -1 -1 -1
$$ -1 -1 -1 -1 -1 -1 -1 -1 -1 -1 -1 -1 -1 -1 -1 -1 -1 -1 -1 -1 -1 -1 -1 -1
$$ -1 -1 -1 -1 -1 -1 -1 -1 -1 -1 -1 -1 -1 -1 -1 -1 -1 -1 -1 -1 -1 -1 -1 -1
$$ -1 -1 -1 -1 -1 -1 -1 -1 -1 -1 -1 -1 -1 -1 -1 -1 -1 -1 -1 -1 -1 -1 -1 -1
$$ -1 -1 -1 -1 -1 -1 -1 -1 -1 -1 -1 -1 -1 -1 -1 -1 -1 -1 -1 -1 -1 -1 -1 -1
$$ -1 -1 -1 -1 -1 -1 -1 -1 -1 -1 -1 -1 -1 -1 -1 -1 -1 -1 -1 -1 -1 -1 -1 -1
$$ -1 -1 -1 -1 -1 -1 -1 -1 -1 -1 -1 -1 -1 -1 -1 -1 -1 -1 -1 -1 -1 -1 -1 -1
$$ -1 -1 -1 -1 -1 -1 -1 -1 -1 -1 -1 -1 -1 -1 -1 -1 -1 -1 -1 -1 -1 -1 -1 -1
$$ -1 -1 -1 -1 -1 -1 -1 -1 -1 -1 -1 -1 -1 -1 -1 -1 -1 -1 -1 -1 -1 -1 -1 -1
$$ -1 -1 -1 -1 -1 -1 -1 -1 -1 -1 -1 -1 -1 -1 -1 -1
$$ ##$RG_tabA= (0..255)
$$ 0.25 0.28 0.32 0.35 0.4 0.44 0.5 0.56 0.64 0.7 0.8 0.89 1 1.12 1.28 1.4
$$ 1.6 1.78 2 2.25 2.56 2.8 3.2 3.56 4 4.5 5 5.6 6.35 7.12 8 9 10 11.3 12.7
$$ 14.2 16 18 20.2 22.6 25.4 28.5 32 36 40.3 45.2 50.8 57 64 71.8 80.6 90.5
$$ 101 114 128 144 161 181 203 -1 -1 -1 -1 -1 -1 -1 -1 -1 -1 -1 -1 -1 -1 -1
$$ -1 -1 -1 -1 -1 -1 -1 -1 -1 -1 -1 -1 -1 -1 -1 -1 -1 -1 -1 -1 -1 -1 -1 -1
$$ -1 -1 -1 -1 -1 -1 -1 -1 -1 -1 -1 -1 -1 -1 -1 -1 -1 -1 -1 -1 -1 -1 -1 -1
$$ -1 -1 -1 -1 -1 -1 -1 -1 -1 -1 -1 -1 -1 -1 -1 -1 -1 -1 -1 -1 -1 -1 -1 -1
$$ -1 -1 -1 -1 -1 -1 -1 -1 -1 -1 -1 -1 -1 -1 -1 -1 -1 -1 -1 -1 -1 -1 -1 -1
$$ -1 -1 -1 -1 -1 -1 -1 -1 -1 -1 -1 -1 -1 -1 -1 -1 -1 -1 -1 -1 -1 -1 -1 -1
$$ -1 -1 -1 -1 -1 -1 -1 -1 -1 -1 -1 -1 -1 -1 -1 -1 -1 -1 -1 -1 -1 -1 -1 -1
$$ -1 -1 -1 -1 -1 -1 -1 -1 -1 -1 -1 -1 -1 -1 -1 -1 -1 -1 -1 -1 -1 -1 -1 -1
$$ -1 -1 -1 -1 -1 -1 -1 -1 -1 -1 -1 -1 -1 -1
$$ ##$ROBOTTY= <no>
$$ ##$ROUT14= (0..7)
$$ 0 0 0 0 0 0 0 0
$$ ##$ROUTER= -1
$$ ##$RX22TY= <no>
$$ ##$RXFMAX= (0..7)
$$ 647.5 -1 -1 -1 -1 -1 -1 -1
$$ ##$RXFMIN= (0..7)
$$ 5 -1 -1 -1 -1 -1 -1 -1
$$ ##$RXINTLV= (0..7)
$$ 1 0 0 0 0 0 0 0
$$ ##$RXMSTY= <no>
$$ ##$RockSwitchEth= <no>
$$ ##$SCMTY= <no>
$$ ##$SGUC1= (0..15)
$$ 17 20 19 0 0 0 0 0 0 0 0 0 0 0 0 0
$$ ##$SGUC2= (0..15)
$$ 0 256 18 0 0 0 0 0 0 0 0 0 0 0 0 0
$$ ##$SLCBCONF= <SHNV>
$$ ##$SPECTR= 10
$$ ##$SY2FLAG= 0
$$ ##$SYNCTRIG= 11
$$ ##$SamChgEth= (0..3)
$$ <no> <no> <no> <no>
$$ ##$ServiceNo= <>
$$ ##$Sgu1PowerLevels= (0..7)
$$ 90 74 58 42 26 10 0 0
$$ ##$Sgu2PowerLevels= (0..7)
$$ 90 74 58 42 26 10 0 0
$$ ##$Sgu3PowerLevels= (0..7)
$$ 90 74 58 42 26 10 0 0
$$ ##$Sgu4PowerLevels= (0..7)
$$ 90 74 58 42 26 10 0 0
$$ ##$Sgu5PowerLevels= (0..7)
$$ 0 0 0 0 0 0 0 0
$$ ##$Sgu6PowerLevels= (0..7)
$$ 0 0 0 0 0 0 0 0
$$ ##$Sgu7PowerLevels= (0..7)
$$ 0 0 0 0 0 0 0 0
$$ ##$Sgu8PowerLevels= (0..7)
$$ 0 0 0 0 0 0 0 0
$$ ##$SguType= 3
$$ ##$ShimMaxVal= 32760
$$ ##$ShimPow1Ch2Sh= (0..38)
$$ 0 0 0 0 0 0 0 0 0 0 0 0 0 0 0 0 0 0 0 0 0 0 0 0 0 0 0 0 0 0 0 0 0 0 0 0
$$ 0 0 0
$$ ##$ShimPow1Imax= (0..38)
$$ 0 0 0 0 0 0 0 0 0 0 0 0 0 0 0 0 0 0 0 0 0 0 0 0 0 0 0 0 0 0 0 0 0 0 0 0
$$ 0 0 0
$$ ##$ShimPow1NChan= 0
$$ ##$ShimPow1TotIMax= 0
$$ ##$ShimPow1Vmax= (0..38)
$$ 0 0 0 0 0 0 0 0 0 0 0 0 0 0 0 0 0 0 0 0 0 0 0 0 0 0 0 0 0 0 0 0 0 0 0 0
$$ 0 0 0
$$ ##$ShimPow2Ch2Sh= (0..38)
$$ 0 0 0 0 0 0 0 0 0 0 0 0 0 0 0 0 0 0 0 0 0 0 0 0 0 0 0 0 0 0 0 0 0 0 0 0
$$ 0 0 0
$$ ##$ShimPow2Imax= (0..38)
$$ 0 0 0 0 0 0 0 0 0 0 0 0 0 0 0 0 0 0 0 0 0 0 0 0 0 0 0 0 0 0 0 0 0 0 0 0
$$ 0 0 0
$$ ##$ShimPow2NChan= 0
$$ ##$ShimPow2TotIMax= 0
$$ ##$ShimPow2Vmax= (0..38)
$$ 0 0 0 0 0 0 0 0 0 0 0 0 0 0 0 0 0 0 0 0 0 0 0 0 0 0 0 0 0 0 0 0 0 0 0 0
$$ 0 0 0
$$ ##$ShimPow3Ch2Sh= (0..38)
$$ 0 0 0 0 0 0 0 0 0 0 0 0 0 0 0 0 0 0 0 0 0 0 0 0 0 0 0 0 0 0 0 0 0 0 0 0
$$ 0 0 0
$$ ##$ShimPow3Imax= (0..38)
$$ 0 0 0 0 0 0 0 0 0 0 0 0 0 0 0 0 0 0 0 0 0 0 0 0 0 0 0 0 0 0 0 0 0 0 0 0
$$ 0 0 0
$$ ##$ShimPow3NChan= 0
$$ ##$ShimPow3TotIMax= 0
$$ ##$ShimPow3Vmax= (0..38)
$$ 0 0 0 0 0 0 0 0 0 0 0 0 0 0 0 0 0 0 0 0 0 0 0 0 0 0 0 0 0 0 0 0 0 0 0 0
$$ 0 0 0
$$ ##$ShimPow4Ch2Sh= (0..38)
$$ 0 0 0 0 0 0 0 0 0 0 0 0 0 0 0 0 0 0 0 0 0 0 0 0 0 0 0 0 0 0 0 0 0 0 0 0
$$ 0 0 0
$$ ##$ShimPow4Imax= (0..38)
$$ 0 0 0 0 0 0 0 0 0 0 0 0 0 0 0 0 0 0 0 0 0 0 0 0 0 0 0 0 0 0 0 0 0 0 0 0
$$ 0 0 0
$$ ##$ShimPow4NChan= 0
$$ ##$ShimPow4TotIMax= 0
$$ ##$ShimPow4Vmax= (0..38)
$$ 0 0 0 0 0 0 0 0 0 0 0 0 0 0 0 0 0 0 0 0 0 0 0 0 0 0 0 0 0 0 0 0 0 0 0 0
$$ 0 0 0
$$ ##$ShimPowMaxUA= (0..63)
$$ 130000 130000 130000 130000 130000 130000 130000 130000 130000 130000 130000
$$ 130000 130000 130000 130000 130000 130000 130000 130000 130000 130000 130000
$$ 130000 130000 130000 130000 130000 130000 130000 130000 130000 130000 130000
$$ 130000 130000 130000 130000 130000 130000 130000 0 0 0 0 0 0 0 0 0 0 0
$$ 0 0 0 0 0 0 0 0 0 0 0 0 0
$$ ##$ShimPowMaxUC= (0..63)
$$ 130000 130000 130000 130000 130000 130000 130000 130000 130000 130000 130000
$$ 130000 130000 130000 130000 130000 130000 130000 130000 130000 130000 130000
$$ 130000 130000 130000 130000 130000 130000 130000 130000 130000 130000 130000
$$ 130000 130000 130000 130000 130000 130000 130000 0 0 0 0 0 0 0 0 0 0 0
$$ 0 0 0 0 0 0 0 0 0 0 0 0 0
$$ ##$ShimPowMaxUG= (0..63)
$$ 1000000 1000000 1000000 1000000 1000000 1000000 1000000 1000000 1000000
$$ 1000000 1000000 1000000 1000000 1000000 1000000 1000000 1000000 1000000
$$ 1000000 1000000 1000000 1000000 1000000 1000000 1000000 1000000 1000000
$$ 1000000 1000000 1000000 1000000 1000000 1000000 1000000 1000000 1000000
$$ 1000000 1000000 1000000 0 0 0 0 0 0 0 0 0 0 0 0 0 0 0 0 0 0 0 0 0 0 0 0
$$ 0
$$ ##$ShimPowNum= 0
$$ ##$ShimPowRcbType= 3
$$ ##$ShimPowRes= (0..63)
$$ 1e-20 1e-20 1e-20 1e-20 1e-20 1e-20 1e-20 1e-20 1e-20 1e-20 1e-20 1e-20
$$ 1e-20 1e-20 1e-20 1e-20 1e-20 1e-20 1e-20 1e-20 1e-20 1e-20 1e-20 1e-20
$$ 1e-20 1e-20 1e-20 1e-20 1e-20 1e-20 1e-20 1e-20 1e-20 1e-20 1e-20 1e-20
$$ 1e-20 1e-20 1e-20 1e-20 0 0 0 0 0 0 0 0 0 0 0 0 0 0 0 0 0 0 0 0 0 0 0 0
$$ ##$ShimPowRng0= (0..63)
$$ 1 1 1 1 1 1 1 1 1 1 1 1 1 1 1 1 1 1 1 1 1 1 1 1 1 1 1 1 1 1 1 1 1 1 1 1
$$ 1 1 1 1 0 0 0 0 0 0 0 0 0 0 0 0 0 0 0 0 0 0 0 0 0 0 0 0
$$ ##$ShimPowRng1= (0..63)
$$ 1 1 1 1 1 1 1 1 1 1 1 1 1 1 1 1 1 1 1 1 1 1 1 1 1 1 1 1 1 1 1 1 1 1 1 1
$$ 1 1 1 1 0 0 0 0 0 0 0 0 0 0 0 0 0 0 0 0 0 0 0 0 0 0 0 0
$$ ##$ShimPowRng2= (0..63)
$$ 1 1 1 1 1 1 1 1 1 1 1 1 1 1 1 1 1 1 1 1 1 1 1 1 1 1 1 1 1 1 1 1 1 1 1 1
$$ 1 1 1 1 0 0 0 0 0 0 0 0 0 0 0 0 0 0 0 0 0 0 0 0 0 0 0 0
$$ ##$ShimPowRng3= (0..63)
$$ 1 1 1 1 1 1 1 1 1 1 1 1 1 1 1 1 1 1 1 1 1 1 1 1 1 1 1 1 1 1 1 1 1 1 1 1
$$ 1 1 1 1 0 0 0 0 0 0 0 0 0 0 0 0 0 0 0 0 0 0 0 0 0 0 0 0
$$ ##$ShimPowType1= 0
$$ ##$ShimPowType2= 0
$$ ##$ShimPowType3= 0
$$ ##$ShimPowType4= 0
$$ ##$ShimSysAngle= <>
$$ ##$ShimSysFunc= (0..63)
$$ 1 2 3 4 5 6 7 8 9 10 0 37 38 35 16 15 14 13 12 11 28 27 26 25 24 23 36
$$ 22 30 29 20 21 34 33 32 31 17 18 19 0 0 0 0 0 0 0 0 0 0 0 0 0 0 0 0 0 0
$$ 0 0 0 0 0 0 0
$$ ##$ShimSysMatId= <no>
$$ ##$ShimSysMatrix= 1
$$ ##$ShimSysOffset= <56mm>
$$ ##$ShimSysType= 4
$$ ##$ShimUnit= 0
$$ ##$TFXNUM= 0
$$ ##$TOSITY= <no>
$$ ##$TRIPLO2= 0
$$ ##$VTU= 2
$$ ##$VTUETH= <149.236.99.20>
$$ ##$VTUTY= <no>
$$ ##$WBREFAM= (0..15)
$$ 100 100 100 100 100 100 100 100 100 100 100 100 100 100 100 100
$$ ##$WBREFLM= (0..15)
$$ 1 0 0 0 0 0 0 0 0 0 0 0 0 0 0 0
$$ ##$WBREFPH= (0..15)
$$ 0.07 0 0 0 0 0 0 0 0 0 0 0 0 0 0 0
$$ ##$WBSGU= (0..15)
$$ 0 0 0 0 0 0 0 0 0 0 0 0 0 0 0 0
$$ ##$XFAC= 2
$$ ##END=
##$RELAX= 
$$ Bruker specific parameters
$$ --------------------------
##$DATPATH= </Users/matthias/Documents/NMR/NMR Spectra/Data Stuff>
##$EXPNO= 13
##$NAME= <Guvacine>
##$PROCNO= 1
##$ACQT0= -6.36619772367581
##$AMP= (0..31)
100 100 100 100 100 100 100 100 100 100 100 100 100 100 100 100 100 100
100 100 100 100 100 100 100 100 100 100 100 100 100 100
##$AMPCOIL= (0..32)
-1 0 0 0 0 0 0 0 0 0 0 0 0 0 0 0 0 0 0 0 0 0 0 0 0 0 0 0 0 0 0 0 0
##$AQSEQ= 0
##$AQ_mod= 3
##$AUNM= <au_zg>
##$AUTOPOS= <>
##$BF1= 125.787963
##$BF2= 500.25
##$BF3= 500.25
##$BF4= 500.25
##$BF5= 500.25
##$BF6= 500.25
##$BF7= 500.25
##$BF8= 500.25
##$BWFAC= (0..63)
0 0 0 0 0 0 0 0 0 0 0 0 0 0 0 0 0 0 0 0 0 0 0 0 0 0 0 0 0 0 0 0 0 0 0 0
0 0 0 0 0 0 0 0 0 0 0 0 0 0 0 0 0 0 0 0 0 0 0 0 0 0 0 0
##$BYTORDA= 0
##$CHANFCU= (0..24)
0 0 0 0 0 0 0 0 0 0 0 0 0 0 0 0 0 0 0 0 0 0 0 0 0
##$CHANREC= (0..24)
0 0 0 0 0 0 0 0 0 0 0 0 0 0 0 0 0 0 0 0 0 0 0 0 0
##$CHEMSTR= <none>
##$CNST= (0..63)
1 1 145 1 1 1 1 1 1 1 1 1 1 1 1 1 1 1 1 1 1 1 1 1 1 1 1 1 1 1 1 1 1 1 1
1 1 1 1 1 1 1 1 1 1 1 1 1 1 1 1 1 1 1 1 1 1 1 1 1 1 1 1 1
##$CPDPRG= (0..8)
<> <> <waltz16> <> <> <> <> <> <>
##$D= (0..63)
0 2 0.003448276 0 0 0 0 0 0 0 0 0 2e-05 0 0 0 0.0002 0 0 0 0 0 0 0 0 0
0 0 0 0 0 0 0 0 0 0 0 0 0 0 0 0 0 0 0 0 0 0 0 0 0 0 0 0 0 0 0 0 0 0 0 0
0 0
##$DATE= 1747655523
##$DATE_START= 0
##$DE= 10
##$DECIM= 640
##$DIGMOD= 1
##$DIGTYP= 12
##$DR= 21
##$DS= 4
##$DSPFIRM= 0
##$DSPFVS= 20
##$DTYPA= 0
##$EXP= <1_IfC_DEPT135>
##$ExpStatus= 0
##$FCUCHAN= (0..9)
0 1 3 0 0 0 0 0 0 0
##$FILCOR= 0
##$FL1= 0
##$FL2= 0
##$FL3= 0
##$FL4= 0
##$FN_INDIRECT= (0..7)
0 0 0 0 0 0 0 0
##$FOV= 0
##$FQ1LIST= <>
##$FQ2LIST= <>
##$FQ3LIST= <>
##$FQ4LIST= <>
##$FQ5LIST= <>
##$FQ6LIST= <>
##$FQ7LIST= <>
##$FQ8LIST= <>
##$FS= (0..7)
83 83 83 83 83 83 83 83
##$FW= 4032000
##$FnILOOP= 0
##$FnMODE= 0
##$FnTYPE= 0
##$GPNAM= (0..31)
<> <> <> <> <> <> <> <> <> <> <> <> <> <> <> <> <> <> <> <> <> <> <> <>
<> <> <> <> <> <> <> <>
##$GPX= (0..31)
0 0 0 0 0 0 0 0 0 0 0 0 0 0 0 0 0 0 0 0 0 0 0 0 0 0 0 0 0 0 0 0
##$GPY= (0..31)
0 0 0 0 0 0 0 0 0 0 0 0 0 0 0 0 0 0 0 0 0 0 0 0 0 0 0 0 0 0 0 0
##$GPZ= (0..31)
0 0 0 0 0 0 0 0 0 0 0 0 0 0 0 0 0 0 0 0 0 0 0 0 0 0 0 0 0 0 0 0
##$GRPDLY= 67.9837951660156
##$GrpdlyHandling= 0
##$HDDUTY= 20
##$HDRATE= 1
##$HOLDER= 0
##$HPMOD= (0..32)
0 0 0 0 0 0 0 0 0 0 0 0 0 0 0 0 0 0 0 0 0 0 0 0 0 0 0 0 0 0 0 0 0
##$IN= (0..63)
0 0 0 0 0 0 0 0 0 0 0 0 0 0 0 0 0 0 0 0 0 0 0 0 0 0 0 0 0 0 0 0 0 0 0 0
0 0 0 0 0 0 0 0 0 0 0 0 0 0 0 0 0 0 0 0 0 0 0 0 0 0 0 0
##$INF= (0..7)
0 0 0 0 0 0 0 0
##$INP= (0..63)
0 0 0 0 0 0 0 0 0 0 0 0 0 0 0 0 0 0 0 0 0 0 0 0 0 0 0 0 0 0 0 0 0 0 0 0
0 0 0 0 0 0 0 0 0 0 0 0 0 0 0 0 0 0 0 0 0 0 0 0 0 0 0 0
##$INSTRUM= <spect>
##$INTEGFAC= (0..63)
0 0 0 0 0 0 0 0 0 0 0 0 0 0 0 0 0 0 0 0 0 0 0 0 0 0 0 0 0 0 0 0 0 0 0 0
0 0 0 0 0 0 0 0 0 0 0 0 0 0 0 0 0 0 0 0 0 0 0 0 0 0 0 0
##$L= (0..31)
1 1 1 1 1 1 1 1 1 1 1 1 1 1 1 1 1 1 1 1 1 1 1 1 1 1 1 1 1 1 1 1
##$LFILTER= 500
##$LGAIN= 5
##$LINPSTP= 0
##$LOCKED= yes
##$LOCKFLD= 5539
##$LOCKGN= 118.199996948242
##$LOCKPOW= -39
##$LOCKPPM= 4.69999980926514
##$LOCNUC= <2H>
##$LOCPHAS= 8.269753
##$LOCSHFT= yes
##$LOCSW= 0
##$LTIME= 0.25
##$MASR= 4200
##$MULEXPNO= (0..15)
0 0 0 0 0 0 0 0 0 0 0 0 0 0 0 0
##$NBL= 1
##$NC= -5
##$NLOGCH= 3
##$NOVFLW= 0
##$NS= 12
##$NUC1= <13C>
##$NUC2= <1H>
##$NUC3= <off>
##$NUC4= <off>
##$NUC5= <off>
##$NUC6= <off>
##$NUC7= <off>
##$NUC8= <off>
##$NUCLEUS= <off>
##$NUSLIST= <automatic>
##$NusAMOUNT= 25
##$NusFPNZ= no
##$NusJSP= 0
##$NusSEED= 54321
##$NusSPTYPE= 0
##$NusT2= 1
##$NusTD= 0
##$O1= 14015.7000000016
##$O2= 1599.86
##$O3= 10061.99
##$O4= 10061.99
##$O5= 10061.99
##$O6= 10061.99
##$O7= 10061.99
##$O8= 10061.99
##$OVERFLW= 0
##$P= (0..63)
10 10 20 15.5 31 16.5 25 50 420 30 60 40000 40000 2000 0 0 1000 2000 500
600 2500 0 0 0 1000 0 500 10 0.1 2000 0 0 4440 0 0 0 80000 0 0 2040 4000
0 0 10000 888 0 40000 1260 2400 0 40000 0 0 0 0 0 0 0 0 0 0 0 0 1680
##$PACOIL= (0..32)
0 0 0 0 0 0 0 0 0 0 0 0 0 0 0 0 0 0 0 0 0 0 0 0 0 0 0 0 0 0 0 0 0
##$PARMODE= 0
##$PCPD= (0..9)
0 70 80 0 0 0 0 0 0 0
##$PEXSEL= (0..9)
1 1 1 1 1 1 1 1 1 1
##$PHCOR= (0..31)
0 0 0 0 0 0 0 0 0 0 0 0 0 0 0 0 0 0 0 0 0 0 0 0 0 0 0 0 0 0 0 0
##$PHLIST= <>
##$PH_ref= 0
##$PL= (0..63)
120 120 120 120 120 120 120 120 120 120 120 120 120 120 120 120 120 120
120 120 120 120 120 120 120 120 120 120 120 120 120 120 120 120 120 120
120 120 120 120 120 120 120 120 120 120 120 120 120 120 120 120 120 120
120 120 120 120 120 120 120 120 120 120
##$PLSTEP= 0.1
##$PLSTRT= -6
##$PLW= (0..63)
0 50.927 13.91 0 0 0 0 0 0 0 8.1483 0.32593 0.48904 0.24559 0 3.4776 0
0 50.927 1.0393 0 0.00012519 0 0 0.0020031 0 0.12226 0 0 8.1483 0.48904
1.9562 0 0 0 0 0 0 0 0 0 0 0 0 0 0 0 0 0 0 0 0 0 0 0 0 0 0 0 0 0 0 0 0
##$PLWMAX= (0..7)
452.7 102.8 0 0 0 0 0 0
##$PR= 1
##$PRECHAN= (0..32)
-1 2 -1 0 -1 1 -1 -1 -1 -1 -1 -1 -1 -1 -1 -1 -1 -1 -1 -1 -1 -1 -1 -1 -1
-1 -1 -1 -1 -1 -1 -1 -1
##$PROBHD= <Z800701_0081 (PA BBO 500S2 BB-H-D-05 Z)>
##$PROBINPUTS= (0..15)
<> <> <> <> <> <> <> <> <> <> <> <> <> <> <> <>
##$PULPROG= <deptsp135>
##$PW= 0
##$PYNM= <>
##$ProbeDescription= <>
##$ProjAngle= 0
##$RECCHAN= (0..9)
0 1 0 0 0 0 0 0 0 0
##$RECPH= 0
##$RECPRE= (0..24)
-1 2 -1 -1 -1 -1 -1 -1 -1 -1 -1 -1 -1 -1 -1 -1 -1 -1 -1 -1 -1 -1 -1 -1
-1
##$RECPRFX= (0..32)
1 0 0 0 0 0 0 0 0 0 0 0 0 0 0 0 -1 -1 -1 -1 -1 -1 -1 -1 -1 -1 -1 -1 -1
-1 -1 -1 -1
##$RG= 203
##$RO= 0
##$RSEL= (0..24)
0 1 0 2 0 0 0 0 0 0 0 0 0 0 0 0 0 0 0 0 0 0 0 0 0
##$SAMPLEID= <>
##$SFO1= 125.8019787
##$SFO2= 500.25159986
##$SFO3= 500.26006199
##$SFO4= 500.26006199
##$SFO5= 500.26006199
##$SFO6= 500.26006199
##$SFO7= 500.26006199
##$SFO8= 500.26006199
##$SOLVENT= <D2O>
##$SOLVOLD= <off>
##$SP= (0..63)
120 120 120 120 120 120 120 120 120 120 120 120 120 120 120 120 120 120
120 120 120 120 120 120 120 120 120 120 120 120 120 120 120 120 120 120
120 120 120 120 120 120 120 120 120 120 120 120 120 120 120 120 120 120
120 120 120 120 120 120 120 120 120 120
##$SPECTR= 0
##$SPINCNT= 0
##$SPNAM= (0..63)
<> <Q5.1000> <Q3_surbop.1> <0.0> <Eburp2tr.1000> <Crp60comp.4> <Crp60,0.5,20.1>
<Sinc1.1000> <Crp60,0.5,20.1> <> <Crp60comp.4> <Crp60comp.4> <> <> <Eburp2.1000>
<> <> <> <0.0> <Q5tr_sebop.1> <Q5tr_sebop.1> <Q5tr_sebop.1> <Q5tr_sebop.1>
<> <> <> <Gaus1_180r.1000> <> <> <Q5tr.1000> <Q3_surbop.1> <Reburp.1000>
<Q3.1000> <> <Q3_surbop.1> <Q3_surbop.1> <Q5.1000> <> <> <> <Q3_surbop.1>
<Crp60,0.5,20.1> <> <> <> <> <> <> <> <> <> <> <> <> <> <> <> <> <> <>
<> <> <> <>
##$SPOAL= (0..63)
0.5 1 0.5 0.5 0 0.5 0.5 0.5 0.5 0.5 0.5 0.5 0.5 0.5 1 0.5 0.5 0.5 0.5 0
0 0 0 0.5 0.5 0.5 0.5 0.5 0.5 0 0.5 0.5 0.5 0.5 0.5 0.5 1 0.5 0.5 0.5 0.5
0.5 0.5 0.5 0.5 0.5 0.5 0.5 0.5 0.5 0.5 0.5 0.5 0.5 0.5 0.5 0.5 0.5 0.5
0.5 0.5 0.5 0.5 0.5
##$SPOFFS= (0..63)
0 0 0 0 0 0 0 0 0 0 0 0 0 0 0 0 0 0 0 0 0 0 0 0 0 0 0 0 0 0 0 0 0 0 0 0
0 0 0 0 0 0 0 0 0 0 0 0 0 0 0 0 0 0 0 0 0 0 0 0 0 0 0 0
##$SPPEX= (0..63)
0 0 0 0 0 0 0 0 0 0 0 0 0 0 0 0 0 0 0 0 0 0 0 0 0 0 0 0 0 0 0 0 0 0 0 0
0 0 0 0 0 0 0 0 0 0 0 0 0 0 0 0 0 0 0 0 0 0 0 0 0 0 0 0
##$SPW= (0..63)
0 0.0010712 0.00087704 0 0.20192 7.781 0 0.0090249 7.781 0 7.781 7.781
0 0 0.20192 0 0 0 0 10.5295 16.36776 7.642584 41.21582 0 0 0 1.1548e-05
0 0 0.086942 1.7796 0.69638 0.005456 0 0.88389 0.00087704 0.29756 0 0 0
0.00087704 7.781 0 0 0 0 0 0 0 0 0 0 0 0 0 0 0 0 0 0 0 0 0 0
##$SUBNAM= (0..9)
<> <> <> <> <> <> <> <> <> <>
##$SW= 248.40626771477
##$SWIBOX= (0..32)
0 1 3 0 0 0 0 0 0 0 0 0 0 0 0 0 0 0 0 0 0 0 0 0 0 0 0 0 0 0 0 0 0
##$SW_h= 31250
##$SWfinal= 0
##$SigLockShift= 0
##$TD= 87496
##$TD0= 1
##$TD_INDIRECT= (0..7)
0 0 0 0 0 0 0 0
##$TDav= 1
##$TE= 298.0276
##$TE1= 298.0276
##$TE2= 0
##$TE3= 0
##$TE4= 0
##$TEG= 300
##$TE_MAGNET= 0
##$TE_PIDX= 1
##$TE_RAW= 300
##$TE_STAB= (0..9)
2 2 0 0 0 0 0 0 0 0
##$TOTROT= (0..63)
0 0 0 0 0 0 0 0 0 0 0 0 0 0 0 0 0 0 0 0 0 0 0 0 0 0 0 0 0 0 0 0 0 0 0 0
0 0 0 0 0 0 0 0 0 0 0 0 0 0 0 0 0 0 0 0 0 0 0 0 0 0 0 0
##$TUBE_TYPE= <>
##$USERA1= <>
##$USERA10= <>
##$USERA2= <>
##$USERA3= <>
##$USERA4= <>
##$USERA5= <>
##$USERA6= <>
##$USERA7= <>
##$USERA8= <>
##$USERA9= <>
##$UUID= <>
##$VALIDCODE= -1
##$VALIST= <>
##$VCLIST= <>
##$VDLIST= <>
##$VPLIST= <>
##$VTLIST= <>
##$VtChillPowType= 0
##$VtChillPowVal= 0
##$VtChillType= 0
##$VtGasFlow= 0
##$WAVEMAKER= (0..7)
<> <> <> <> <> <> <> <>
##$WBST= 1024
##$WBSW= (0..7)
4 10 10 10 10 10 10 10
##$XL= 0
##$YL= 0
##$YMAX_a= 5522
##$YMIN_a= -5539
##$ZGOPTNS= <>
##$scaledByNS= no
##$scaledByRG= no
##$shimCoilTempK= 300
##$ABSF1= 235.640193966744
##$ABSF2= -12.7937519744904
##$ABSG= 5
##$ABSL= 3
##$ALPHA= 0
##$AQORDER= 0
##$ASSFAC= 0
##$ASSFACI= 0
##$ASSFACX= 0
##$ASSWID= 0
##$AUNMP= <proc_1d>
##$AXLEFT= 0
##$AXNAME= <>
##$AXNUC= <13C>
##$AXRIGHT= 0
##$AXTYPE= 0
##$AXUNIT= <>
##$AZFE= 0.1
##$AZFW= 0.5
##$BCFW= 0
##$BC_mod= 0
##$BYTORDP= 0
##$COROFFS= 0
##$CY= 15
##$DATMOD= 1
##$DC= 0
##$DFILT= <>
##$DTYPP= 0
##$ERETIC= no
##$F1P= 240
##$F2P= -10
##$FCOR= 1
##$FTSIZE= 65536
##$FT_mod= 6
##$GAMMA= 0
##$GB= 0
##$INTBC= 1
##$INTSCL= 1
##$ISEN= 30
##$LB= 1
##$LEV0= 0
##$LPBIN= 0
##$MAXI= 10000
##$MC2= 0
##$MEAN= 0
##$ME_mod= 0
##$MI= 0
##$MddCEXP= no
##$MddCT_SP= no
##$MddF180= no
##$MddLAMBDA= 0
##$MddMEMORY= 0
##$MddMERGE= 0
##$MddNCOMP= 0
##$MddNITER= 0
##$MddNOISE= 0
##$MddPHASE= 0
##$MddSEED= 0
##$MddSRSIZE= 0
##$Mdd_CsALG= 0
##$Mdd_CsLAMBDA= 0
##$Mdd_CsNITER= 0
##$Mdd_CsNORM= 0
##$Mdd_CsVE= no
##$Mdd_CsZF= 0
##$Mdd_LrLAMBDA= 0
##$Mdd_LrNITER= 0
##$Mdd_LrRANK= 0
##$Mdd_LrZF= 0
##$Mdd_mod= 0
##$NCOEF= 0
##$NC_proc= -11
##$NLEV= 6
##$NOISF1= 0
##$NOISF2= 0
##$NSP= 0
##$NTH_PI= 0
##$NZP= 0
##$OFFSET= 235.640193966744
##$PC= 1.4
##$PHC0= 117.930401990738
##$PHC1= -190.785405181863
##$PH_mod= 1
##$PKNL= yes
##$PPARMOD= 0
##$PPDIAG= 0
##$PPIPTYP= 0
##$PPMPNUM= 2147483647
##$PPRESOL= 1
##$PSCAL= 4
##$PSIGN= 2
##$PYNMP= <proc.py>
##$RDF1= 0
##$RDF2= 0
##$RDFWHM= 0
##$RDINT= 0
##$RDPOS= 0
##$REVERSE= no
##$SF= 125.787963
##$SI= 65536
##$SIGF1= 0
##$SIGF2= 0
##$SINO= 0
##$SIOLD= 65536
##$SPECTYP= <>
##$SREF_mod= 1
##$SREGLST= <13C.CDCl3>
##$SSB= 0
##$STSI= 65536
##$STSR= 0
##$SW_p= 31250
##$SYMM= 0
##$S_DEV= 0
##$TDeff= 87496
##$TDoff= 0
##$TI= <>
##$TILT= no
##$TM1= 0
##$TM2= 0
##$TOPLEV= 0
##$USERP1= <>
##$USERP10= <>
##$USERP2= <>
##$USERP3= <>
##$USERP4= <>
##$USERP5= <>
##$USERP6= <>
##$USERP7= <>
##$USERP8= <>
##$USERP9= <>
##$WDW= 1
##$XDIM= 65536
##$YMAX_p= 573039749
##$YMIN_p= -455634017
##$CURPLOT= <C280>
##$CURPRIN= <$C280>
##$DFORMAT= <normdp>
##$LAYOUT= <+/1D_X.xwp>
##$LFORMAT= <normlp>
##$PFORMAT= <normpl>
$$ End of Bruker specific parameters
$$ ---------------------------------
##XUNITS= HZ
##YUNITS= ARBITRARY UNITS
##XFACTOR= 0.476837158203125
##YFACTOR= 1
##DELTAX= -0.476837158203125
##NPOINTS= 65536
##FIRSTX= 31249.5231628418
##FIRSTY= -210361
##LASTX= 0
##MAXY= 573039749
##MINY= -455634017
##XYDATA= (X++(Y..Y))
65535b10361B030611q85951k72809K37201m95449a478737k912247J99522J986520
65526b204942g33944j721677N01501j561044k243971b253705b46429j336767A685122
65516D338582j001655j025932k12944K54404D87035f50139D70935N70849d02583
65506H47449K06103J526929k8945G41696k64118q857N64244b02226j531840c4142
65495e31230j171805P65131j96587l26335M47687A495624l65426f85894j184747
65486a870641j344491J572892l16852j09216a018361p21199q13206o2358L08937
65477b306187i24414a48509j844224L52219M62241o51776j33367f5836D32570
65467b220788o79062h62140A554280K136901j11845n27643A491398h78166M17650
65458d60516j331632g03012E59364a235764j136912N84396j135076R00100Q76630
65449a146626k134183J192417j156581k408384l21727J598112a927384M05524
65441a521860j819348N27217a042979M87307G3968M28832a41465j560017j116884
65432b818366J101754j91233O20397G34652J58633a051885B5063N17685J8053
65423E60801g23781E65724a590740p73887N96399o41273j355821K13696a216776
65413A26423K943996N69583F49860c94998A31497g11913r69776j950063j41366
65404c773118n20536R70652p02478j006304N29453K136663d50524A195853R64370
65395B160223a379502j47749L27139j31575r33648Q04226e32228B408777N74042
65386B982819j031396m17971r4193E90701Q70427P6448J257820k02154D08160
65376f93345b524j12247j056298j226218d65118A983652Q53836H33095a165588
65366b251521j884797j112455O69854J463596j29528q36283Q75316J487152G2009
65356E79574Q4009P67718o90376a592150j060667K24386I62472K995491r30771
65347C027192r14119l45926J569951K6098p46554r68541N57061p40219e51516
65337b312298L75215p48744n01121L17114R47895h72076j017870M13306N36099
65328i40541H71774g47819j686238K27162K62655m74442P80451a50234C1918a197579
65317c76090A412988O85311l57520F03898a316294L18381E08963R60685G17568
65307a421928j591371J135416C70766R99542C95194e0618j698597o65818j719552
65298d134585a871156F51122J465416a498548j76239j64093j462348o78781J267605
65289b712404a288705A126105K817612p54915n53015G53288h91972j543208j928514
65280d363694k117680J910341a366166k66514R2964c65089q10511A698298N96255
65271B294553m21041J77602L59094m13295l26707l81844c56633R2612l46352j542436
65261b152809Q58847D56460J421354l97057k13686c477229p51771a787472I6548
65251A095805B83880F1807J20031Q0965N75325J010739A4566a555478j60724j122660
65241b838862m50461o47826K50382P61085N70505j01930M24897r13735j226345
65232d172290p49358b392344a06076j101178j004097O05698G8927M66147M58823
65223A003897I427a218089p52694n65519J014423J45063j327852O70330L05674
65214a728664j653287r67259j160467J661062a608745K61660l70926f3097A90303
65204A616317m96240j10010L004375j65057A526852n44162J190372Q0927H59904
65194B36139a787834k47088Q02964H98493K671083L28971q29212J071035j515055
65185B625315b37822k10746B3214f10885n26742j314197p67858J578526g9865
65175d6094j284399P6269o47311A045393J427809i44146j69136n9709j806934
65166b979925P05296m44841b45881A183863J668531j40469I55122k91094b608834
65156b176187O89044M39738j780863P8692c58190A505319J139848E00091a467045
65146c595201f18972B643771p32311K95820L160229N17753j932014A892170a680816
65136d675882J637338p11364j099775P63616J814735k311966j234209K773069
65128c044438a99314A505569c14467p44734j799626k615897M70754J308201R13547
65119b782222k240221k71654K382715a392678q15752N03838L826P52233I92554
65109A843610J8424J802750o30107p58482C19981K25772J863612M20516Q66636
65100C696517m42924G76247a249822k891281R4279j259920L04751a042930H18114
65090b49558k012405F15248K450598b13786j307930q43072J160517G50160b56418
65080B77477K251221n58614p40810j94298k72107r5937O48344K005069p73286
65071B547059N27789p11654b324630k048967a586693c46720C051051L214034l37258
65062E927827B101383b717540P32213d18038j60071o86158m00464h09977A274717
65052A558163N40053h7702j241313O55094A117615C62443a795285E75551J690532
65043B266083n84412a17670H1196J383142L35603d71607l230335k88240k68045
65034d258227b061534a67926O3932k21464l096680n51805a283121c30525l85384
65025g15909j067611d02168o03964A157758l90254C6255b979608m208568N85795
65016f602381K602304L2639m20191J586296j000397L57222j60317p69005j186537
65007e560367J22137n72404j739631K368812b169507M95663B00936J190325E64050
64997D13546h70771k538084o51688k00643J086194J44119p55122k371000j411010
64988g568005L83613R85215J540934k98883K31414N41774a792160R1765C58450
64978C525351j506545o21638b061750l956547O73401P37406a920527f00781k149623
64969b750404q96387e48924B156628J643228n25062J797931r46940j643859I89387
64959h70260A244586J181637a177482e50520B33664J463768k27142n98111O17436
64950A489615J265149J732403L19923B186579E20899L66849h17488k389798L02924
64941b904362b00015D98994Q30517K677134A790670a49318k177765k27743g86924
64931b195283O90935B76713Q33232J391720J106516M81195j331872C48133b056837
64921b152451l04370l7094J227264A666617R51065a682877k001630J193488E66448
64911C375019J650336K30014m16454j58684j113684H2456c388150o26227P31732
64902c282645J46661J338834G40848Q26921A04660L82106J668060I77764c05371
64892a286240m283783k192235j0668K05930J618787K627040P12730k144143l06644
64883e059226J615473R94217l5821D34514M92374Q18993J0855n58044c15857k222064
64873b537921O46125M21927L42354k955804R56767J269839J20965L05271o27794
64864b058271b37532J14525j896878i93649A648968q2062a555957j754266N09693
64855b800530j539401N55172h41360A229591K0582m3798R2895M50988o97019l57390
64845F95849J069441G96672a828349j083865M81963a076800j815703r79098a535220
64835a772094l339058a887447g2485A365835N98276r03030j16212l70533G3749
64825D18885d93827A341622e46911o67554D11566a048392c94502j239722e72908
64815I21244K991107K662686j322804j396138j863072J363843M47216J105564
64807D909646R72793k61793j748710j573630Q39856j304744H85419A33260K654014
64798B787274K958925k83791q57991j741571q9249n81206o53082l63628C003M364154
64788D367157J989893k105379b87260k171162k12193h20270A942759J321998p71504
64779B493253o07958e6850j922848N8686q52380N1107J330863q72337i73114A659821
64768D747068j876386k75910J366025j916309g76070j130659q78424l76786J036892
64759b125047K97519e24803B63717L78515J03414R25451R27513j183089J116939
64750B532460J373124J111990j762k082358A161743N26250o61697n4817b758829
64740d654171J561143a022776l18211o40962k154226j492099O34193K87061n81588
64731e288608P45285g23134I08454a848961k281207J877353D0572L271794M71385
64722C783751j019511r91324H74747Q09485J065592a853135m039352a887413G98462
64712E91643f58302l594958j070200N00445K018226J141365Q21136B212535K938007
64703E150542j800401f52889j523653J1916i57586a21984l13678B475115P20706
64694C195821B68681M3067j43279J844813j64025d21970l36658b41730Q7357A089514
64683e9567C33368a084400L63808k47510A062782J173414k32113O45635P76003
64674C425721m19429c638535j076034a979720B054970J154790G30258Q38637G71501
64664b5440E2013b038374m44549j379299P17027J268962b31245A008471P76955
64655A785426o56995b05437q20181o40028k343739O03860A003085m67107c23251
64645a880014k454423j126101m0466K154919A91929M65313j77143c13214D55011
64635c98798l164646o78005k25689P58426J073703j74264q04806Q09165l88458
64626c193372k033444K41958K065075o50573L59509k837498k283637L650474a240015
64616G35145P34146K384774j158315h61789j66723K7826F52162K987946N79225
64607D219333m43153A681914o36037K656023J478721Q895j178114A576242p2905
64598A503337p37704N81777J146000F98507b615371k287378Q42315Q3827K34131
64589c742476R80835g63501A277413a050868j405789N81739k27889n56103H71689
64579D03112a777568A53345J753790l25019g32399j426319R59120L81896B901548
64569F180356B288810a590193M55415A881159o3555C19515N16750g31480b64696
64559D08079a16375r06109d94350A590274n48380D03776J813438a128614p53125
64550a881739k221562l059899K041091K378500I19202L204190J557948k478694
64542C202646A357609P27840J577569J223875p59624a765982k62459Q73591p39551
64533a894401q68363r12071G60396K610337A243369a208173j15227p03682J54294
64524a872788n67468K57050j238613J199365p3837o891174k177779L693902K601200
64515e070142J739896d7419l6590C7456K086043K230095J558200o94905m363n23419
64505D689107j335114H63993H1202a396068O51494A063623Q87844A83001d89116
64495d75883j312393j53672A19346g51539j757900a70345B48906O62878O93125
64486A604909J18121e86138j708055j020724a138110A520148g12133k666790K76273
64477c102650P64370j081809J434479m02443P34900e51653m46092j67544q88485
64468b053774j216859J53932J545323A083747R81760a532560n262451J311655
64460e483356j161075k32080b878995a135933k55177q21616q12436g48054j179430
64451a927484p3831M04826a72417n38064j252562g09355C29675i81382j21712
64442a103094r98706n04933p40601R72552P51108o31535A770864K012023c73700
64432d435814j911842K774132D89938L741380P09158K37084J145716o7560B768608
64422A195304l08268J726910A021262g59369J44533p81653r61915E5560J456159
64413A511719P514K831614O96134B309613P64140N99743l51082A524387m52196
64404A072191b21292j844004j915471j44270a615224e73213I3116J122021J457140
64395B672277O94578O41667M19815j775982j29859l78461m53062f83110l625735
64386d308845j837620J311087Q66217J741710P81077j510364j423338J242640
64378c137436a185068o07295g57535p66116j56661G51704K529340n9282F15447
64368B787J064563k59223B64215a093365j490745n47761J146515e95663I04095
64358a010981M07458m09471D77211b08151l019560j09610a662433K33476j44774
64349a573731j87018j147656l429852k483783R95223K573653K059871a136847
64340F0804J871329R5056a01268k93495C86476J041813j3676a140805k20894O50386
64330g11313j462972q37523a067998j72705j220606g10726l0110j88763j338473
64321b268072j786739E26320N083753k342963a414060j771126l008768k357214
64313h551168r31029P52108J644927L237557a746344N02583A321685C26008c238008
64303a199157H15586K45622d87459F64836a356136l259119j349083K31711J675384
64294d057243a152054f8344D571565L331609l846254B002343J549673K497662
64286F049678k52913B562787j139495a842839p25833j512129N5468k325833J423058
64277d928108a080517E09738c04505B640752K066896J869646j073151B027892
64268a107395C97789a967759m88984j74393d55947D260841Q68304j446014k22969
64259C460162A554782G21932J09492h55913j179219k083406J250058g76886A640764
64249D762268A569845E31177J649868E98858c171085j881211j45927K363423K19717
64240b615083k617282n05544b571359I93552l57417i2907k297504j078896a660306
64230a74830o42487j29747m67564j744738J197253C83997J598463c64761j508672
64221a873433j356535j599868a909464h55225A303451J26344i30700k80206l05038
64212a515944b59865H05091J222359b633650l509415O35880J726547a619009e88550
64202h05884j782471J9640n19244a503367C021111G51474a207562E20803O12534
64193A133337O55442a99092n059677j847479q13614J278677K710738h07924K42441
64184e65483B36493J813472J671210A362876h98288E34230J123315R64983J84433
64175B806961r04801k48614K830818J679303j682130j293238B51354B3413J724177
64166A747590J455575j352810H17155J47904c657055q92693b247044C53216Q44533
64157A197749c831215k920710K61222J600568M26838J463416G58248J407775K605268
64148D771291r39867M22040J563733q52118l79480A135338h87609j459586Q01834
64139a545361c68422k591771L93641B01707J869333K904125J846951k007567c92117
64129b21580E66924J060163j49585F58193J095338O0130c65161k573430O53909
64120b284682O81692r46431k52326O12581h21954K47682i7630k439129j070194
64111c606953J176243c35462B295913A064080J023875D87969c302824p82607p33186
64102d818617j288333b720008P57027o29784j551420P94959a129913l18530l30658
64093a779101B8718J758894K229725J067632J11113j806643L64612o19040j230498
64084A904513j01823c2142B07914M235427j406622K469317j405B535333d49564
64074c50715C057242N97509Q33687L369277n67337j75443j019558j849338j030699
64065C215340r72236P55950L77450r85651l21222L80394J354156q75432q88718
64056B040031J484420O63409j079509b242752R22334C550414M078860L65771l49633
64047G645412p20204K587708n91347k347692B628832b033688n99307k213778j736888
64038f583661K651083J658824R24451A64919J244172b261338j325605A795371
64029C413733A660065R13355b04888j486803j089968n5178i22291G83549d82848
64019c065108P60375C078641K459800j313232d17099m716234M59615K303020A846081
64009A785171p19118b801569l534352L45595i46273H38011a436497A278776N37173
64000A815949C72474b409335k012172o5878b149240A222740c00889j767169a018989
63990b150636l075067j776160b933362R40454Q60535K38641G59562Q94257o47631
63981A006188J121011b581661m945287k98279J370298k23639J512227O94758e34096
63971C382579L006368j108a439781k836434e52196A203827J70220E08351K336301
63962B844652l26655F94851e94738g511F75330e15636p19191i8390C620126J079012
63952D699138J049413J126491B555004c611597O69639D92606L648720J360640
63944E501966r96680H96486a840050l46158N23513L27579G00373L452407j248052
63935B904728C93111J291939K875733A725205g11227L1499B20500a536377O15359
63926i21018j597758l998571j666104J739837K816832n44329q64726b043830A536156
63916A585409Q91390a172208l399627k694132K87626J757299J435119L66380Q72625
63907b546918j516976O97947B246237K124139l51333j311007H11098b179455j351660
63898c531115M64878Q98943l586664j336332b775808A069153e0875l128494j75862
63889c355231R68225j538026h26054A078041J866527L84828A635871J265090A099174
63879a072089L23027A79557e86412B77733a001916F29741J634378L4285L37122
63870B635526k97878F56944O66018J593854D43535a457604H90152K035041j186187
63861A739006n3910M534351J741304j891098j553939j081845a28926F13327K58960
63852H72287a207477G2793L343816Q03225A983986c73794j628734p22511A314417
63842D200535A612248A53020K420239K698819R2366n35160r08597n13412C5606
63832F88220P46926J228995K55799C71381J085752L026177j558990I89251N96892
63823A586143l35033a050825A27767I848M58098b009239j492389a727670A511645
63813A539619J012625M045455j630734H68305P05314J287174K416746E08746a942602
63803a878696O67207B387620J982523A482773N98462F21656c616016k615923K202377
63794d029562a619473c99167B789820j20256h75348n53203A006215A81797h0506
63784F08634D5601L703187Q12643k085008N62028c6611o404362K213582J847046
63775b380345p65498j541138J894906k02J266554B944449J618808L34853P53700
63766E651810J083085j982446P12648r173j039768j965070k3418n33856h00754
63756c590672k401173r96556j674213j686319J375507L978386K260212L6716m13210
63747c111322f66725A955417A47582b003431O27117B93344g65978B643826O39106
63738C282932l75459G07087b051066k036858a162513B752063F90073a81388o68105
63729h49493K55946I04701h16233m534685O0504a592975N42626n006044K072409
63720c983984A349756O14826r48528O65189Q88912Q13393K46321A773845a111269
63710c07692B306514J122521m40789K241383B576955c46239j316848k487390K37359
63701c913118J535381A195026L055518J326353p67314G72998d531358J365741
63693c165617J552965k050490O66981J124349Q61319c00567B107656J194266A66571
63683a562136l55321f30934l520293k000245r74811O21043b915136Q86830Q07332
63674a220974C549209K560972j445637l14783e0331k575807k07885c72443C396046
63664A160625d63016l73808j609632j095106M22953m23331k598176J13388b184627
63654b431142p94485j619379K43886J626565Q8416J345g65331E39253O56626O50037
63644A845916K928980k200851b493844P50538C20767f27295L12067A014937l2631
63635I82306O72226O8498a185776m144686J242056n8910k25101n94514K298024
63626b668907D62269Q33219a379809p66173H84368L164292J581215j388738A721892
63616B359627l38245Q95790k43647M763437M174031n27358l615060A376604a077924
63606G56758M18321D48892i49213j897831d50466B635926L627025J3377A864334
63596b104737o50612A7264L871919A882734g19843k522553k567664k65712J847491
63587d228281e01372A694655h71265j478948l67309P55946F15210h17955d6593
63577A012637K13759C98094L319584J160660j463754o14071K540967j601923j82687
63568C556870R73854J487661k23644p18586B116324i29822k040336j379715a220359
63558H19958C61437J231511O63453o55486J576926M09108j117976A072932d20986
63548d330963M21092B522975K415771j496068j666850a094834j058482A63079
63539E74499L061634M349651O07123k395956A167602i42768q29677j168917j217366
63530d158728j471593N20794K009303m70223a31827H03697a856875k233030j36392
63521d226297K5269l37201J923446M06785M18173Q57025F63344Q11628J907744
63512C382716d6672l199358L62067J092452C03313e42032P811n86740o31147f44893
63501B297329o04876d66783k863403J010075A636705M166284K343268N47105C054474
63491A508337K041713o75507M57692c77491j545002k429466J144577a14470o79587
63482g94057L75002L1398F24182K413480J47289j555533C53700a902291k980623
63473d882914l155805L802208I06670J117075D61742J664381A30046i19606p9331
63464i98937m08778l321920k517359J544803J459253P32052a702993P98554j73778
63455a078217D50143a910974r10781n30865a279767m23987j384260j333326k022186
63446f443526b403806A107775L021134A296785d527768J069869J174325j859671
63438d143245O08542J568010k671503l212755j117743K614194b061993d8583k315632
63429b364215J6670J085368p25618j0651O77298B033945j9998j93923q51833f88451
63418a650553b4358j166552k584998J069298c22363l906584j796748n51123j217194
63409g794012J257398b690796B506068l13370c843314l281060J644096J857335
63401c622943N10821k714710l475298l63012K82937K487814j05280K91108K046401
63392d662162P33475J214416B99491P93084f85124l708389k246652K860114i63198
63382c660238k455847J132954K235288j232833j993372Q25820J011193R70913
63374c166122j168092J702170b37038H63029J954661J625069j287838A293380
63365A599616G25169J41126L286338k81921F3758L82962N73223j92653Q92778
63356A720068l26468J185760A021281f95281a85540A717738j54501J290678k87623
63347B566292l82793p65799K20799J213058K859755Q55648C270438h58297q08386
63338a666683P16297k72026j653822N89905j773403O54351p35771p99599a673611
63328H41098c75029l09276K17722A238303J013079A095336f48033j988960J144009
63319a492984b92757j27410C005368J196477I35883a700601Q15617L71536B011417
63309C608453r92012p57474C42719J537480n53189J977800N56916m62150l74860
63300C024716K93451L54959J249797M39072k562008l20917J315244p88164J28026
63291C134176G71796a134139F32267K995045A527880a77804e8879G19493r7053
63282F22440F5830b391977k281230o19169P95926P77727j184704J149325C906338
63272I68528d030518K83913a515018N96720j272903R77205A61894a273727l8967
63263a312694j038697o04003l005408K203778g78246L60604l19249r71937k488657
63254d197485n88815k85874J419805J690202A296189J863304r88360c65378j594741
63245a960119g38307q47607O36152B009450J935483J934613k47714j129037N91935
63236E094730j06691j193895I09652B00496P58204j49242j73821J770249j162822
63227A243064c606787l67282B43527J729420p87229j99243K248564L70114l86007
63218C219146J476575A476047P2662K824835k30133j666165j102360L88210H77958
63208A950188L39771a578564g06194D72499a068746n67298A020509L882649j896762
63199C006396g27888E19192R4644a640777n29901d74449k049915r23527n49850
63190c997741k519381j189108K672342J951986j792975m39613Q59418J788823
63182b666249C432439K300277j173171A768432a04340n8375j233019n78468j221875
63173c196077m34032a568820A440480J799185p73271c62926a74464B22479K8219
63164B50698a621708j692170C38299J844209M04402j054773F25683k81925K259319
63155B603077r4516C52050b362094M61237o91584J17402B538861J082195h09305
63145b857395m50417l080179L130618A805159A02667a125768b49977n69014A148953
63135a042098r3873B045062o23209J096928J576239j502976F39493K75514C82625
63125I62574l17918a582606c44987A588979m75077g00554k074304n141168R81348
63116f934678a70675C881063l34057J346981Q54038j876245q72657A93746O17806
63107H11552K31474l15440c54785l657187J341180o53026e07021D676966P61015
63098E437981j926261J726233k565939c014396o49588M99891M68221j991068J596538
63089c090402g91695k757877Q24314o60896K76200l42588k724178j150734j467187
63080h794641O00684L104820J483826F81959J765277b217276j402074B179201
63071F744312j017682k475023A609125A77102b919633k816387K803578i44559
63062b021897j26066E02354M711849O93096B755858A327295l06228N42392F18575
63052G99446j32935K501525K774873k011180n9748J76316J073264k504035c26324
63042c8193G37898K667793m72450L84280A020919L15233R09862l86272J016200
63033B875942G12475a455992n16874k571429k449170L040788a903398l73782P27339
63024a549841j179951k131465J382615j257184N13240k57098M58995a886460A567945
63014A532993o05278i44992A99759d19892m187703k16075b387567k208308J61227
63005d434648J204176j404097j271995K270192a247712B854490D84281d292086
62996c345628M8011j486912q30820K707158A994918J263200I40706a914422j461746
62987c376168R32774B139205M10085F22525b543037l802481N92822P89272J327304
62978c636120m31521K005325i88713A972656b006148k662189k14777K50535j291249
62969e923828j207265P31504J185631R96950F52624L344690J779055j088342K6740
62960D714767L304876n70680C632372A177506Q26649J841297R05201N74420N00795
62951E825868j817086j654664d289511l625033K881039a664164N55604j223918
62943b332478i68073b02299j055518d77021E17017R46375b228738n19957b58380
62933F03741N53979J96643b180845l45649p97220J439937L65154m25575A734335
62923A316741o48441N02075D91737a842342o49491A228038L848286A878512b01814
62913a043985b98931A301663R96084q0366M10539r69483O40067J253401J679706
62904E231611j633076n89323J738010B186021g55187A209386L49285o30481J959274
62895B887464J669686K814359M98223L29534J685096l272539k635684J907939
62887E884078k343059A160928a529947k58495f67213j764075n13823K21695N51385
62878b172031j864158J151740a420423J5747a8116k592216R81494k85749j254450
62869c169037d90749F088196Q13161C000699j257331e59541k762664r43185J27588
62860d137802J015179a550635j73208j258074l988030R60972M78552K111835h93527
62850f08735a18754C502772J978754L426351j584990r42773k605358j90291a20070
62840b298546j55768p14492j23475J610391j119312N41629A551180C81909J104768
62831A486677K551179j062759q56321r1593j05291J087097K83289J57045j039401
62822B409922G6211b600213l68772P75837N73883j04561r273j180138F78380B84367
62811a047574p7225k516252j417670K266727P74751A70518J454841K07878q16010
62802A017227P64351H74050J443720Q1436J380220p64872a055208a42522B087051
62792F002247q70248B117177d1488I15494J901227J929543j944481P20307J164303
62783D686393j045627n69394j036058b1550k514634k270914n56251J180500a809840
62773a888373k68010k8446a062947j184931a083145C976580l4807j360364P23766
62764C305175j366538o43022R88099j099825G0078R24047b267768p42994h77082
62754A372025K444535D46270a943781l56312A67598R08863l72951g66218E17932
62744i40699b92299a0654j030458o53049g12726B462681Q99552n11114c02371
62734a504992A105766J838413a281831m119551j14470b233232h7960B859071Q42949
62725C702020J093833K55866n32363j169645j571153a40319j801215a30162G66994
62715b588365l444175l638923k013339L219228d121170a444395C173038J550441
62707D723479A015575a769512o3194D12660M5621a855483j541508k057633J787929
62698c666695J689094P96596l69685d80824B475285j105847b147018l103568p46864
62689e997450r0889N39896L77138b050481M28507E28421L484229k43810A260494
62679A61114a768623F93630K650962L156638m00008k191549J869456J407948q9347
62670G097730B383317f5750k433782m004212P03410K361558f14859E71686R44794
62661A516480a45197q08388q82638i00078A09618M94230K100712j009349d05416
62651a731400A805136K943238J95729A271844b070850d17065G30258P95210D65891
62641B14709K214371J002098J303073j430374G16957L62525L55368k52053M175612
62632E358409K188648l496057n05488r689K82100L721380K577259k076587l987084
62623D052891r46823Q3997C3980b714332k119228k48354K333485A770388K088148
62614C858536J343613B275329b834515k583003P99045b12570B795978j334371
62606A461607A48217a363765N72606k543112j307149n17348J330858a883817H76720
62596f29430j987271L29849N07066P17505B242035K759673j566828E42412a913779
62586b150067g26385B302871F25295d219369K68612a170582c10985l73399l843032
62577d527416l671680J717597K777310J347461l048760o74446K171133j637329
62569e546130O09143J022109a070288a87507k059378n017078J450296J572267
62561d241400A780952J915023a132337A090713N4829k37168A34509c66576j284692
62552a651268C244704L267028k611980A449277J91399J019890K145149j818206
62544B987509C67191K828384K955459J244295k343504E87699a908129j088020
62536b996149d24177I40737J515255J710190j171487E05591J289548o63919K206132
62527C337352L345677l103131m16967j38035G98821c825650j514927K022617a462199
62517c20334B448064J144792Q3565r21721K886921o76153R01344K543643J0169
62508H420624N32349l331703A565824J940842M70464J859015o99439j029503G37145
62498A109787K338184J282552J148452j163095J521730R09097j031198j884221
62490D231288e32638m87171D284009J189632B164018a165619k467426j400955
62482e034000b408454C114407M99796j329513J035122j113557p36984J19377c05385
62472A645946J554362n75769B03261h0185C719187J748057L95006A107426e428665
62462g168940J459845J830670M2843o07978a244394m06026q4230j434873J91740
62453b977783b65307k043586k091544O23676a595641G86702p19p3479O29027d33513
62442i17262l877968j167242J385103c45401A9615b621062j921145J182202A069783
62432B749575M7635j65280M6060Q15616j443426F67310h74376j474637A492401
62422D263914j560806E19865Q0699J855119K305943B072702a011052k398491j53472
62413c563015j444393j795679l50481J794712J247347J251523F67152L871714
62405D538866K982648l666066e91186k312583l22990p21074K99969J2658P59550
62396b875656R62876c88205B24236i17977E28141J622700l25089a059896B587601
62386F000990j134928j209272A517641d72180A304406K323995D9757d775604N51982
62377d223622Q8815Q76800j312204k044196m74158J438659j48112b164544A890885
62367B512930p58500j92407N60915L153882j361474o79051A215260b227531k081953
62358d309484J346795R13158L38177N59816m84330C33973J47716a501258n70394
62349b071652Q57588K26980A979270M869K350046R36918A395018K098403N043390
62340H536811N97093j520039k791335j465375q72824K041719j297009J602396
62332D831437K749803J884520j869872l242154k082186q01158d11278j492615
62324a903893l577540M70174K032531A755075M465505M55393j213752J239842
62316F702063l345331b42137l398598a759472d48505E38635P83644M56007K37646
62307B015932J872208k95693E36345J806779K020036L56906j36406Q16145j287024
62298D112781j784888L43545J27018K05945J280686P59443A887786a147323H09005
62288g00030l53340E24096J61874a517454a12215B935802J940443M10323k256029
62279C030539A075357C08559J021332e25086j773104J043326C254029J112001
62271D366030K48631r07624K785247J616183J27805j035710k865134j613510K658915
62262E380833J141502k028387A126711c2629B532330M063165j045392j813531
62254C736572J589091K44873k740755b241375k213575n64800a997693C662340
62245C918709j28548A120617D13615p3153a871040P49379o35744j201908j017641
62236c976954a389210C638172K110730A277429a027501k54360o01309N55600b47060
62226A721230L49448P43536a875821r69547h79538E7776c32834a45148B528224
62216C068900j423411p83704a942904j733121k50503a439313C428863K190611
62208E619474p1461A564182J188604J177289p61716J000244N21881j791706K592785
62199E491563k539224a381194n1716b1468j739174j274737o90078k463370L39258
62190e849569J819868K45915J683898P13893k80608l04820k523475m18942J781896
62181c131944r69990p07516J488679J134777R18503F17425L67803c34666l203479
62172c538145j097918Q01045C93742R97883O3690J092151J036823K140445j496827
62163D227907k45544J905497j024944k18957j292137G37837C10910M16145f19296
62153b561824m35777o4282o5189b59516k258661J137178b86955I93803K311048
62144C304851Q0408j172637J59531J148160A395608e69265C977616J681432j007641
62135D651407M4640N77279N23114j863576f4029l723332k85731m41674p04437
62126e219203J235136n32097j022885J349139J642649P64534j139057J338489
62118a583295f02574B49164b577715m13690N0101B83848J634354c76719m373025
62109d749744r16951J633361B418073J933583p52732o65719P10795J03594j295858
62100B451736A74434J338928K614826J14535j00291J262109j608540j92188G57649
62090I43012l06322b076295b30297A399194g45721k628391j541761n98859k20537
62081e735269j09525K722252A590007j5427a386889B541137H78947a887497J69043
62072a718454A45710R66269a894965p79093K39248A106006J226763J620388P48745
62063D701902k2882j806157J193922n32123f37570i3643p0285G52313K327375
62054C079688A81441b59101q53240j931613m41482l139711k364774K123190K690441
62045d176290a629117I16144k38978K26703R44146N98117p40708F53674J26308
62036G79982Q90011M68854K521267j733121F33603k06302J928004l4545D8092
62026a789290k37053e12068A390108K210091N6690q65647n15016O0878q75597
62017A461507F25845J138221R3123N0872p83374e55593H43638J389828j61519
62008B071947L43585l15969I64753K08593a632903l256452K93476j648007K259267
61999c984619e93180B961913o96003C22452f61033k03547C57958J412036K252667
61990D022661j609438D70746K123183J59098A014525d64015A675324E74743a454714
61980a903776r52073k57369k89278k435051k24881N29570K021307e85450q45687
61971a431137N55203k120698p97997j445838j289456j696980K83242L914359G59159
61961B107430P6802j039747a572926L76983k17140j048016k898892l63570q58592
61952f582153O52163O43213J468677h81863j81251d70737H71594J419107G36349
61942h91884j590646o60278K60224o49704g19154A115827b9101j913072N44944
61933a397229o59060p98809m35898a182444A769016L222893R49446j746802A223437
61923g47626A725853O42824f92509k67158k140724r59866a003030B521655Q85557
61914C407212q75436b075147n901621m0319L786318J385450K59114J274994j431739
61905b742950f36701k04202C95518M49846a86748k290464N62761A761616n89987
61896A171629q1312M41972G3123f03794A965516L310498J311900l290704Q20606
61887D117816K027710j370491j004757J842212o80817C3122b935697m07004l657747
61878g000448K564578a730498e96229C00402b073455Q66721D44645J071071b76226
61868d098414k556440K842574P09229j337070J622398f48198j41223j222984q70642
61859b883047E60575O28771j05662N11851a232082l178029a706106L59780k15061
61850a561387k27528l477543n86551a086862n50369j655499k102443j33433J48889
61841e379717K01098b64264B016178O34004A294697i26117H33277K357066J574121
61832D764464r90164Q37103p55790A583403o97822M37524B01147b642884j507078
61823d149962a071251B792986J030366A044846a848048k273435q23043J969509
61815b975017f14973m03760F03960L638016l33218O62589J093105j710674n84149
61806C369629J546328L89075J620290L168322r12792l591145j583542A625314
61797b158557k388827J547627h5931I48357n2793J474004o70281b50927l012472
61788c263399p51922o73884K242622a148045E55958h91787j436378a79803G42811
61778e26408k42964j007398p25855B217237K301650J860316O82698C462278p73905
61769B688373J041686B38994N4165J207288l40039a910978j758631J047354a039335
61759B074039Q83903j105095k42021F7488c24387k673862Q93346m66819h61847
61749a968437R01797I62688m50021a943645k95429n88286a413481A774996K309101
61740D084097H54695a547320a35719r12250c0383j179412q17781O85682M66607
61731h75287k709011k040136K262963e00012A692538J74093B5541J316795J569099
61722B911435f8981q58108A863367J285726Q19350R21996l95914k79811j798561
61713B416153e67630q78666b63885q104j135716J46127B61378f91668j345466
61704b037134r1449o66356o41070L32843a457129n72202b36061m61935I62156
61694A411195j31962D15122e34987b12835D3603f57395r54428j037233k763314
61685e412370k930061n18208K052700a585184A851752K53105h33080k534465a612840
61675B031920J704308J029991A074559c314355j525942Q91410R86956a376412
61666c56342n58507j719916k557338q50115J037252Q44424K75872J483558f75459
61656A044790J672793n09775e74688l911339j642584J186132J9341R4158Q76380
61647c952600q41135d59034H37228M27745J17905F59092a32347A967993j56665
61638A811328q50727J47519M97470O73520j022608J663141K94322G34171b124497
61628d292195l0532J824135c56769B678354L11716c68793j097727C251137J515847
61619D766984k41895j422665F67632c502534d08426B965498A201913a074460j115874
61610b190334j467023j202323m66427J714544a249661j353975P90127A440219
61601B908962q2589q90521f19730j836869l775622k268887K931235j96252n55498
61592f321623Q23190b82684A452349a542716r00588O93001o66595n7385m05563
61583b879846a000331B442644J687284j41202b00484m613098l548773J510080
61575f852275J938388R29188a589859A226331j15386f71033j060261j813818q01980
61566d347092J481540E9943J787451h77980k000753f95601I11540L747744K684953
61557G344237j98559l567152A220621i29721L60608F38927b206786j77392C15480
61547f70656E33089L341926J105097k429548A186897C30959d49108A423819O99875
61538B123694h43415l855036K045155K01303k313731l137146k081365J467749
61530h516486K528713n92888R08858J173981K96515J376591g60398B438285j124243
61521A314042B38068b217500M4368C59612J284291a292716J48247A361861n72095
61512G89766B34694a710649k375601l7087J647369A324038J055968b04229j486453
61503a690682i6635j728025q64628a005564A330214L238316J633252j273949B418160
61493h96760M16388D974058N26121I54837b789757O92198c66837A878222D77534
61483b829409J360601J05362B737946L121157j634652B039350c35856l136666
61475c472522k475871K4791K259885a751932f46019A099098K205622J249780k252608
61466B301892e15034k723529J14718A718573L54240N85575K0127j043396K028342
61457C663461m37019d64580m113918J58638C69123K947980n95055d4474j986938
61448b031412j06110A603800N36821R9082c28424o81035j353345J52838d73226
61438a628966P49681E553183j055901A875761K067318J615070L462232K009226
61430A1029607j062013k629968k143634j822491J762046N91634B786429a234447
61421b400762A649023K777771A807573a318021p55613J023269r42683P26461C580999
61411F962279l50530A963575D23893f86310j879187j353027n26136l948747K0041
61402h373366K54655K260884R45788K059868h82141B62676e34137j017481n88214
61393b139832j047915n35479a816624C6409N557J179874E40041b25411k292364
61384b517775n63966Q30698l164082j045117i08703K99762a59969A192178J525961
61375B718139k16152h67785l591466k185786K275394K99246J342591A289272Q2840
61366A372112J554095F83804K148687K274540k66885j793285G46591c866405l08987
61357d175392P37732O24964D45551J061750J210439R23841j816341b984541j990727
61348d975268a483087P4520j507458K58558c19413l717826k071195J605387Q97674
61339c605373i5097A724797A91492f47109m09926l480306j403157J748938a763677
61329b3135C5822P90928A05250a359902m45719k35117R46087d03247o59744M29383
61319f33608C260192J808030j805448A276909K41467N068117B654028I53408Q61211
61310A814619f7693j641905D69766J216717j08171c23233j688542k30616m07497
61301b649888j1042J036070j333920k366092e99727C360839L202038j747677j344725
61292C470475j49684e02624l085832m15723j177371j05371K454317K88987r63736
61283c507353k354108Q97199a164379e22634R2600A421559n22287i63979k646989
61274c610968j703117k60512J874899B473099N2946a433460j477769A105377M014530
61265E119907N12522J842151k286729j388465K297463Q11682j628832q23857j979624
61256B476218O27001L76132Q20562A671174H24012J388114j96475L69834P50007
61247C135492J012498j18641r36389j463828o0685g88766o6728q06209f2351B268873
61236H98059a76677p45000j000144K85499e00132j013481j474328J270928c94467
61226a812515k093266k629112j389944c745158a525925H41193L69896o0818b809063
61216c674716J506927Q20776E87258g74445C164986J967812m89649j424644G53220
61206f21927k006652a200247L1818j451491Q16691j273175k019573Q98043J644890
61197b553044j194966q10389a986245M15279k591331j68828J167132L07784j65212
61188c021421n27894J676347g86396h0968k239400J152068k20832k71668j418085
61179c078885i96649A188787Q76165a597184k022502J517777K72699n77245i49445
61169G23282l52059K94624a144851k103645O73206M05495m76021L78194o25849
61160b893471n6247Q18285A035977J58332b565244k536090K207170j315530r09021
61151e118715J547368a538564r12243q98571E7767a0617l381504L20580i93941
61141a659388p67143L05865P07737A74935J824714F38064Q02344L621950K105916
61132G168274r0546n68779k199940j810173j02899m10428L72220H57294J124346
61123A981640P31082J931899J38007B076350J654307M097322n36792j055783B911463
61113A20804b647304k154834p05871b653935A760650L016111j387023f69561k541941
61104c211502J484447l76033h16708c08817A091672K931905n19091A145575K666767
61095C812342k02116A736143a368435M4182B714584C11231h06770A059255R2168
61086A151423a668425k675743J385790a092061E57410i57915A48941b10275q55199
61077a065474M09894G76723l50287l3880M62156m18226b867799l194905l7487
61068f100191J678711J919703k31955J76039M07738Q89093A746658K682781j208492
61059C220947n04882O27681o94672k93591M830230L355157J871526l057603l326611
61050F028182j667318O62291n4351j728078f31167k068320N88941r4943j194499
61041c399988a274682A417143l9230K255313J459023R82924j657782j907569d74561
61031I34698O77093M48926J264388J935161n19658A208955a041746j576003c61704
61021B057545K167599r07278j06592j298520H39141a043800k132573R31398h65410
61011g85366a11797I1842L55423D8459J257782J99955J36386l80268k57672a303866
61000B03783K475482E13652a982765A10317D8624b167569m307539L83492b974861
60990i63678k14694m027693N98860C06291J692764p49413J717525j43035J307502
60981D131634j251660A57377d132844J94739J468390N50641M25062b63068B964803
60971E634600P93462J002493p77764A991228i16370K81634a05307A119625J409549
60962B529174p58623f154542n433664m94456K824937J258453J483746K486772
60954d028754J551229B078228P59760a870277j346758q70989n73586l240535r00573
60945h802718J042679J256885K505519a932595l53178r53755e39637c7444I7411
60935I97023K173483J549707n04874A102634a473922A180687J557357P9681J102101
60926C919826J271277n30655j209391j034290E71142b079535L80678A032763L56892
60917A389655H6721b712558k398454q94862q35339L85389b458006a133548j311894
60908b445442E72730M742670M46944B242978j77174j031902Q20715J572360M47289
60899C874266J47151J976781K96494j657132j353154A393886b876963P87697d37087
60889d49605C803298o29670A361968E60466J307372L199618I55063c428268J388915
60880b039353I85098f17363m46246C31392a205658r04316d36049k327618h69120
60870H57641h46124j561171m25146N76289h55955D197202K834038M23407j449484
60861F005163k072375A746590J086494j098277m50615J614741j374269k69222
60853A255442K482745k15424H52221e52014g754B366903M47749j026967c82369
60843a08568A742691a490058l083304J127506h58880h0379B017904l12346K29060
60834A934618J008642k42382k97402f25281K55569A017673b433649l88191j869969
60825d691809p68840a272522N37908B33181J384529N50844K416452q59078j100707
60816B625221L124138J899643M62822j161069j713091B251242r28903J916241
60808C238580K009659j258161j717195Q48357K21409J60413a688296k372328k08165
60799d268789a408983d12078p81423A475860N14115K040526J254200j429979j211659
60790B643063a153043n05274E35323K953990q84059j152367a53496f721q78754
60781h85475k26304d83392j190953g52026G36912k07826P40566K425178J555324
60772E250154k341685k60657o94183Q92812K790530p31730p19978j3628N42777
60763D714412K91518j55477J994918J591326k677565k289212j543137A63463d22766
60753B238072K292767J52840A929692c90432A398750K73626L73254F32483R35626
60744A568109m67800D34981d88553A704152i11279l392265J886271D65951g95158
60734b270315i96571a72778L0935H05310i98253l019035J059049h78279j862236
60725b740515R72999j70125O13572j386044g50137j607554j78875C14176P918045
60716H232221J3509B244814E20247k30474a0590k6455j740662p11454h86359q865
60706h95224j187812b3754k34600j903564J049565B162131J382321Q25963j444083
60697B926332a545884J3838G877J501114R63016J16803J456109L90680J123992
60688E559591j79564A677618b23837j032934n34139d96836E54403P67860n76449
60679G45814a669341k287459J176121l11662J054612B709693J394842j79259l04161
60670C621115r0590j24692K15229j129671A159412Q35364N70119B55956c166319
60660e375129K638571g50182E94623J143869M6483o85357D72763J694710f71001
60650D65056J001370J500257d06855m899413k012369O94607K090300j119995K32834
60641e420891k213369j88169L608703a706878G09229K661904K721457L173232
60633I265822k161275n07219o55735j354956k234192a911255l328974k197640
60625g437869J876775b081317I28400a213587k233558j149463J010896A595164
60616C653627J66670J776618M20599o29008p15206m30915j041326j404608J442177
60607C238628l66518a616202m125388l91542b168240f56768k262640c09773B640458
60597C797433D53267r9886P23494B56963a932915m34208L35870n3885R61263l63541
60587a487416n536059o76404L484297h30202C416027j589652b521135j791522
60579d312657Q08865a431197C39307K125623K05401b117820k702311b386312E06513
60569B504345J6968D93520a626846f15996A591466J787534J630209j937568C36894
60559a518764J59777A115927c61897j452953M94173A119688N238824k50496K47647
60550F355663K07984k711312D34347a772142l20609R43508G73881L96234n26825
60541F43290e3926A31524a575824l417999j027535b723777J250167a85522m259030
60532d444552j791248J441713K196714j550109a340295B432225L230891L79846
60524F042962A055140b89801j638059j785896m55538N12339a93990A486965K76668
60515A763633D50297J454580P42167c0905k50607k133232j354607N68916j825903
60506e026338j397371L05545P00818J915186m96024j727124M02287a980416m86709
60497b467125p79697a363459c89808H08295J479207m4606Q6667L187581P29184
60488F246328j44276j283177J397414k175143G22074a842509N5419A789819J667849
60479C457668K04867K898281j876720A666220j70427e17659B4401J366571a505017
60469e94726A779428K200217b49393n103968q80448b455026G69808i20235l074191
60460c994426J966887C28109c2762j706765j027224k024616a877502A542700F32658
60450c93663l95501k86104c20423j226961a58361A603479J386965O84472L21622
60441C996538A940873B05643R71484J864059n69569k80611A24635J153972a501759
60431f846285J313532o89498K797305J411316G05335J100014J323720J92198G73028
60421f42048j080282k32261j935076q66180l000231b941623g26527A42273K496912
60412B639185p32006b473851D58424Q0814B23878K324907C67194J835242L829801
60403F032237j759445A969670J017903A445448B43364J378229J291869q28835
60395B084627b876969k292533K37183J587421J361299N59045j101367J047450
60387a478471M01996j023110o36371J311144A002733N057931j560759J222674
60379E722579K356478l391795k279374l27701I26622a945659m662872J456091
60371e152440Q14860P95157D3954J734864K909364j664687q44830K415437O2070
60362D656172j911555I64010b064388J13988G55896k87738A30259B6629K161931
60353B188560j69980A41436J506220K026387H33182a61634B696469M055201m02168
60344F349502j948354A985638f35197k263609r99414n90534a804331N53055C8597
60334e06203m98012j269468j00809k36229P77403j065240n14806b66390F178882
60324C263907B63015n5600b342387k780341p67736J570512O58315h71243A538297
60314A989830F51957d395874j555424b963167H5769K059131J138571A464841R84516
60305B449357n13132J352548j169006N25988L080475j484682j106649q77543J220584
60296C477940O067728K194682m437687j991498j63502M08190B274968j108081
60288A166887N6658k34833b56776j624679f85000A710863r6574g26994j602181
60279b329175r83153B29368K811637n02853A124785c224863l27148a368480c76270
60269a120277C20124J287999K874438j102952A009035h07760n08865M10601Q6268
60260h19756N1672A993868K214229j3167j900720d77520l514232J03002c19755
60250b32992r36704M73752k076275J059010M60425l748887p5103K077177J057258
60241a942339C91021L563994M098808j015897G99631F0597J826271Q73181D72475
60231a58766n12428k557437j161856a558246R4030n96177I57690L085806A815101
60221H36965P23271N57211K924016j345366F0984a356159o708988m358178L943066
60212h480259b435919F64924B39276L313719K94651j844637m70083O52841B45131
60202b442075r45416a91466C449272P57486n09056e31195l772871l806822K505727
60193e605161R10582R87751d595k142562l170662b642412R23422m217951j793955
60184g730896R42745K160303b022271O07020k865906l41766d51606Q6210m76549
60175h41945P5629a38356k99742j888329A938950Q14940d59831j83919G0903M310832
60165D381735K517184j276636K428644J361021k52218j316933j463905j643825
60157D735067B282481o93423p12881C37094O70740J06426L50282J680824A560816
60147c54823H65316J995406A192726b925038a079719B755250L644705C187940
60138a776060L51116J34783j868346A541061K672189A731075l30630J174887m37535
60129B137797J062818K413609B583486G60496C24188M76755d15194C7869J000524
60120A038393K027750I33370A31423J509759a114006j221551n49870j666779o44912
60111e197118J151765i13201B104955J509610j730187E46775i78403j236144J50357
60102b064190d05092j13350a2361k62369A853111M219367R63804J322081r04354
60093G454009j861709j036219l38349K135832j750717B253647c62020j915912
60085b277932f03467j807775j272348a327888G69446L18014J113047J190456K024405
60076E415368l52231j136155H50133i14924k201058g36178D619923J998040k217298
60067D400665A698124A78575O15978L339264K772068r21451B128289b636852j928800
60058d565652J796558c35261l50288k984504l316447q32492K548645a950635d20945
60048F00752K348332j247649J016129N186552j259458A934336J207228M487098
60040G628662K396105J15367n82808D381746A103733a69854k436900q41033j6170
60031c463957i15209d33609o48966I80020J710445G91151K52378K582696J92601
60022C818826d05089p69100B99211R858J138493J508954j146915J157543A209979
60012b43255D25157a275331O29341k100266p08777B06371M05632G7324a185630
60002g6989A824084R6983A2149c661811k013842J348910J55704N50074a634816
59992C88489K695791K009331p09717k048498F41575O62619a700054k244695N77757
59983c366992J561942o91379N75546m76795l193249q16926K441739f95689F17401
59973A441963K84656q56811G1397K254771J089378c62575m043820J590857E19815
59963C564490K680417M137252n26k983311k630455E30673i52639C74039L629403
59954D003442J747007B408232e11012K20297j534591J22892q3534e56088A690482
59944H39677J215572l94050D0105L93820b17758k824645l33935h63131A695313
59934f82396H69571R12169R5507K159737r91123o77534A004757c34215a02765
59924c65597m844642M8460b240080c07516A247509l10979f80535A29377Q60103
59915I89480a696698j431435D29868Q81842a650182l20271k607645J812208r00147
59906c666037j00773e28810H92835Q81028Q45902j014925E00537b03845l21561
59897e25406j124618O26740H11732f49504j923167f25364p66284r90300F90414
59887H28329M37063B07788a446823C213033J400831B284577I0499a488304p62807
59878b251111j144792J336257N91450d41778I51135j25035a828494l522896k458356
59869g809746P73466b286831D013196G78798a119527L69218A012538l36620J3593
59860F89511J275871f35651o48727F82000O8164k12049f4707p75444M11648j990775
59850b419278i71955A762244J460538A381146J991045K023225j764287j087203
59842B543926q42348A64635O42177j15769a490283l91829F24759Q2718D2491J919856
59832A962347l42539h37278p20263D90710K664131j436348d840608j883505b884033
59822F64688O40181a167782k036351L42364L70118k34975q59079a570843A468490
59812B48203c448448J641q85041N93310p43007a421283n08266j795929J007817
59803b717661a231734d42112l213266N23267C68932e47663A459501J383611j158082
59794A685030L41431J217855J430053r90582K24446m20775b0879k158731J065535
59785a114075A66706a15856A798443k84414g06157j908699j764086k53935K270199
59776b362678l72335j080010a510197B98715a108327q63025n72755j99778j783196
59767d527081O66395a606064e34008A902971L229626J593578B652550b14570B37635
59757B584001J198650K006068j662893k18882j358043o01561A64126a241527j464233
59748b705760m624300L55639K672639p57365K377121e8685r69476k161378a561925
59738b50161B774026K547701k295765F85253a099857I17740K573190J733224K84659
59729E508813o67734J328283j308199B393174m95837J249311N642167O20853l750383
59720E659285j698026j795986J375908L784782j322421k968543J11531l37903
59712B808627H99691M16146J623802G47522a280551j743007j817942P66883a385061
59702D304492A469517g73585j574371J100716m92054k203677k05432j5023r93134
59693e156560N58754P95398j117580k419025J538498a264527A469821L479350
59685D949171J144120j088054A483602d440607j022904K312551l1569j968983
59677e151512J633736C13831K524356R45839p65766D72654b487872j962122k081917
59668f531911k007861J44618K458102K054024L99562J065732A631902p51947K016374
59659B896329n9667j102744e31678H1379N52621J118476J214623j410285n02071
59650A054743M19046C65890a692851n10695j333689r11014j927163J265206M65171
59641d645035k547029j379918J303329L218845a527545f03779K93881n92946b43990
59631e49089H7602J955313J832913J626633J105116J374444j967459k118824o39614
59622C256124o95522H34002a915218g80630E68180J463629d18220l032694J66719
59613c284195N00533r27078J224290J202010p9861e93825k127975r10706a442941
59603a551906j118501j295214a570133H51075b053746l807924R83201J149476
59595c728993o13885j490886a711951B374379O57184N75034j266070a038282c71069
59585b181327j814261J08313a498900G56798P19466n36035c64926E48554L293789
59576C842343j675132F17749H509K06455J498460F40542J037941J89806J348263
59567C216552k02007I32476a566240m834002O90368J904137d32551A359136a087932
59557c342692O08222j66934j273867l07998J128258G3350J463752J58353F78901
59547B480911O76160j559643A68868R2784K204656L487569j79643A334356a706967
59537b777619l163228a846009N05967j464972k647292M58169d35836B511586a999816
59527f014138j988618J31443J713940q91558J113711J309747N2813h82709A709748
59517B656880A258250k66748a976696k399374J285356f2259B798250J516559j078414
59508C236395A458506L1504I3294i87003q6593j375891j707774J429969a119486
59498h55749j317758j183981i83012C693214J383674j48674j04311A151762D4884
59488B856295J839229Q81842q7698L61628J317722K15680J168428k712038k504445
59479C336643j349108K098466A648222a915439E53348k39042b140235j450748
59471c590983J718652P23190F76831g92380j470539M37546A350199J982848R72493
59462D305540Q99397k102521H44737M60015r000C88821b614973j308076j917016
59453e840065k609146L689963j70323J918567D07257L898651j282738J88216j282465
59444A928921j78249L715527J756552j736944j870788a787F33299P12668m09863
59435I36104J63996f18263L05639A614305K260721n274K434477k297775a089728
59425b528072k707556k653710K422342b010607e65811q47077j646814J18770J068187
59416a872745Q92445J30565A509620J607614K396206j106325r1594P83751q65189
59407D234083F70987b848014j001648J720221i46931D068801J173363B288530
59398A353957b658751i67247j398652k080884a847660M94225M32696A786288K453027
59389D239315Q79339J06775G72542a523471j688426j73312a022305O8262B16700
59379H56808p6805a939354j662281J215623j465588o48846M53720a582737r86477
59370b569214j523679P28042J504011b72074k47685Q0668D12180a328445l08983
59361a637428C251411L240404A935522b362798q04865o35701m03804a238930a31820
59351e26399e0800j208359p56060g66045K09913b12065B152340L937518N51381
59342F641239n07121q867K742514K185638l035425l932605p54209j393252Q69409
59333B807321K010572K443191O58671j566341B278309A039791J561068F12623
59324a687782D84215n3817d83070j442577f90037A342736O9691G05573A95911
59314A582233m21626N37043K078781L12389R23771o2344B001154F70084i94214
59304b303754k550345J413419A122847P87294q24071b325728r09035J500278L58907
59295a375578K82807A760762F66731q8183K232587J151749A414059i9961C835835
59285D047013m83501A746075P28178I63904e57911j055791B25316K961711J918333
59276E105360L50220B44413e067362j133686b206126D013263K223341A82862d764281
59266a997546g31447j157595j055879J307127A448182M604649k174352A523507
59257C969713O69236A384578d40124j913282j476994a381349B401010J571523
59249C972533j969858a734233l39285n29108a132364E28055e59018j276524k899389
59240d734931J350667a521066q36331j362122a307881A029115C9232K111133J458490
59231C608855L318801p15419C060804k06963n37962j094928n00473J68614a083420
59221a461453l51971Q2512q16717P70060B810057K154441k196778J336643j110814
59212B993549E33414h35436K44427D74572J955640N69069a846988m894029j790000
59203h531017P13626K876199K202427a127645a65790E04K111143o52281n21912
59194I37454e34297j232110A54088b789707m814283p5285J993684d13898D153963
59184A674724B22313i26041j200888j84289e49274C048511K616903k811953l1490
59175B821971f67107j397395k969079O87537C46924L968942J215300j598007j961792
59166A971367r04380N85583d77816m413413j75121K037864f08677A660190m92115
59157A168075b952214P60371n38317j071680h36725H38359b085961j691894m19499
59148d197354b090187M18783l92960J02104G48304O75964f78340F6444K58883
59139C25327h14392A155591M374866J167447k809918m98054A316714b675644k496370
59130e172014J868190i86136H96791l64885J321601L19483a636906j224683f37546
59120A019974G1859K904370J271923j942201G16887K553644A186724a405912p39981
59111b145893B512294M044917J826717K40216j023520J106592r71429k540616
59103E195171B367593F54606a497832j128776a22762B64652f31681j13818j174347
59094a919846r03668a22387k424483p1975K98400l133316o79678J735903K005719
59085b391817j861594k121186j526450O86075J007886a411835H60767M15554A03705
59075b903207J59961a151571A864016L373904k66956j938669A320582J134920
59067B455502o89263K45597K558249A488865D8726a826616E86694J464016B41102
59057i8592G54080I3836e39613o9267j98639k532138J290862d44890m25708E93153
59046H90900a409206E6250P88880h12820j930647o44889h80091B98096J615311
59037A913407I42293f82326A870131E11372g37813G26216J879562c87599l072895
59028c460494f13822C124040J865862N644O42765k064603A069158J36385a87467
59018A374659K050273b70958n859492K341510a087879o96203L59839A014909m54521
59009E60388j18249M053662L306229M02538m027674g54239k564625N04211J086218
59000a728435e11067B108671J557313J736880r44932J101740Q91153o84022k372099
58991C394704j471599c11421k83718g0564k241460l478832j227666J760803m436
58982e262155Q94755a484192j74687l60165l58667k116259k51479J747695f17867
58972a500460k501192r31113K42224a577224A275249a23416m53214l88026F03470
58962a631775k991983m13230J571285J92499J609799j112M04645e60669E59901
58952A529996e58k436641k313370J226592C96459L325265Q14687k213614m04046
58943A918751A44114b022664Q07645a42420G56494N79223j46944h38615k186210
58934c024825E1493J022351P18257J607869A436808L37534C88933a907257m17384
58925b324641Q60739c34710B081420c4786A986837K734937k00741A977005O04052
58916B581057N62737j544594c518818N36123c00582C465734J500018q28956N16738
58907D653534K539138k818412G64333J197078j66868m50220K304664J257366G24024
58897C6262J512204L40885J883949r34486m66287n06087F01207h67084j28379
58888i95463A967453J615973A030438C96418g2756A90645J862994L34590b365225
58878e733538O19327J461538a172047A256997J796021j067983J018147F09517
58869b028797k77652a117398k710965j507403a974180B634942M467407p88742
58861F313607k565165F00298A71079i11075j968841a193017H98095K146536p3228
58852B971403j432150E57094b427551M47642B211318J851122B022799J775978
58844C798777j029166C28645b587804R89512B779413p11841a661451j53989k14153
58835b029593D60959b837243j330458A21096K173432k45845I99373c022728R05875
58826b116853f63283k020797k565512m04613J135697a153711k000394j375644
58818d529749J791919C29732J592694p57302i3224l27202m231823q75891a693902
58808A696772L255445n81889B165952G05800J995732m29728O95992j092014J294283
58799C170065n05214A018214b305273n92428R93441H70299J979251J699394j173469
58790C375475q88605c652945J133122j173837n49932J154409j118082J07040J458702
58781b641523L29042k412976k607833r24121K630368a200208n144213k954508
58773i298929J196778P37163J002850j81184p4979P24983K222940e99458G79663
58763B490948o74830a13748l214341Q42378c00682A69199K823059J154693Q10706
58754D957657J947135N44758l033354f66569l076620J432312l232153J034260
58746d508770K206584o63825g17635B224277R23117A227720b572003p80714e958
58736C792707K821748k301680B135312a50150k046778j73703c16970a00901D053229
58726H606521Q06512k704724k286870q64137j196660e25696l843097j604764Q32328
58717e141229b367578k181523j27061L99974h04548r51410c43019m80188l73823
58708a197030B212765K74984J46885r46693R85054L185661k055658j594170n15003
58699A693825k40038K207783J303548j488313g80127j276395m12973n72669a480172
58689d71953A775252J780294R89507Q76630J891436j714929j650422i596k325093
58680b334689l47328K1566f16500j256693q32581N67934A17805b10904A075376
58670A900714N44377J409498K010490B765839A000772j35048K112920l66678b48164
58660a687615j350296e39062C359036j060078b09688l105123k18474F71566K184928
58651B856494P25876P00429Q81755k88530Q4328J373144J403941j554402l004026
58642C179009P70836j043j355512G01233f39948G33324L440836J778692j967699
58633C985153e71052j235856o30273c76345A839951d36106k505741E24571J280241
58624A804812b164020m701248K048770A548845L170801D69670d046223j932093
58616e978316K61998b423663b68292A505462j1024J744083l58793F98835J621254
58607B320089L921834A451533e396522Q2824b207860A728899o33396B47796K36210
58598D84006a120232B557673J917000B056289J97707J974216j854973a000206
58589b262233j36195p07641K56872j013378e41726A597712J040508J571913L587560
58580G797693M69484m99160j651780k553051j574695G30418c096729k61410i27218
58570a002274j44147J34562j741701O43843K3416j14966D99377K71042a892869
58560b331716C72441K587966J920694b50294p043642M00559b782151L39161O1607
58551b381383C40425J460399D86676c318782k659806K188450c09395A276930g92744
58541a449695l694894k997806J881078a162536A218163M47895M63663p06220G8963
58531a247664A735235M682288C176067j490336j28066j89860e07748J92331H76650
58521E52376J293865K001939q78436E8794h37275r57463j9506A116830j32283
58512I84547b555582l801218J733738Q150J080665J588651j237313l620090K788520
58503d014479c16463a4994B92471Q19542M700839k50049k240720n77335I56709
58493a589257l39006M11440o67447f78565A307078C49182e67050a46472B2232
58483a272163l635544k658049K348135a741752A17054Q59205a822988m01062j213613
58474c437663n31157J438129r2600f90808C558137L309690p87624k253455q44982
58465B981766J246407K13284K91936N97000l58757j39656j288232m88925j185738
58456A869085B73085d02228I72349O17311j77930K053806K231397m08283H88156
58446b95430j83109j519993j657741b15649E580422O37831B24848c285076j502377
58437d787453k806298O67612b862794K52481j217435k50184m09511a770546M84357
58428a286189d90619A253334m49420a047445A33266K905463R33544E29970b657146
58418b920837Q07809i1480G57350K245331j123198e65444j58975k597555G94380
58408B650070A028272b99546A771309K362738r16591E08500J020677J534569b6020
58398i4715C714110M324512J544088o19835k962562B885382A23063g31724l43182
58389a074906k646684J173397a070949k639960l263163j858475j084449c503338
58380a127658p95095n93720A81761K226384K133490P0108j629688Q73327j424049
58371B431333J17295J815907j775360j131724a987370Q34845a76126k035501l55789
58362b567416j41311q40252P8072a727687A58777b213685l868281R65362j157399
58353f274003J818091a63913A7799b346174l79186L21884n40498k112325J009647
58344d046652P73772k136688j282389r33085k353893L054811b74051C119838d6234
58334D87929J453453r02112C15897a069991j716949J348840m967210k652536j569209
58325a0627055J917859c406013A238420l74179a189428j171638l565833J564267
58317d362632b62696L657j073234o0609A102011K602857J47988n05315K72626
58308C620167j807976a268758l543444P58685J1281J155682C82610R70371i70763
58298a747976F91624i10327k345064a471284j126093h69774B589356A172903B13609
58288a353502j044997k474519k218352K392477C66361K769916A438002B31543
58279I71967J601994E99637a182470k673290Q66849J492687K35902m27507k63308
58270a951137j968160J530671f48338k81942C120382L639825K27576k842953o42545
58261C502285J800134J661782Q58886B937595a202275q86655i10420F6510P48805
58252H15315B23824K356705K209250K14261j430731j393956J859916R32703j253576
58243C718396j627435c23668l34164j991325m5315M78387h89224b46377A065059
58233F69465b606103j639308j55826J440975G75373K96662b418858k876478J169567
58224d125769P35629O88751J061055L12606J62148B244045K056973O45511j621276
58215C325253a167084p64868B9113L678798J737381m12211B444145l80950M36282
58206B499477J943382K9406l99488k49401j022898a114291R4694d21770m86764
58197i08534c00551l62679m235023J692832H03359J922777C58980P5004a970260
58187b416410j701492j41430a939797j540971j698480J016601b46277C477865
58178B792658P41703j565759I20587K025950J18955P40828j372284c010353k402659
58169e413012L58551a966977B20787J532216P74748A221394b679918j122300j791888
58160e594106L34852a840573O10240m21112O09262A6664f65005j292789k03507
58151b161301j065861J258856k83007n76059m55186P77960H50689q3358p6907
58142F90424J612288K065890k022824g5270m79383j394948j099564L50546j879563
58133d578182J478795a021517E63821a037167d84831j046481k925193L16145l891
58124d144251a420418O29431k75631K59598E30364j561k48744K7149i62102j877168
58114b839270a385267A529056R1369a182820a48416E56294c143458J92529g60752
58104G41288J362153G42875O9741J21090P03545j1662m68734K97394K502J376312
58094B833063O42040O37163m85825j522379K544245J742152n4278k149315A643053
58084G186O71652M97765b41846l967895a851159h46620M09818k00724k94138n8766
58074i90430A119699J3991d7316B65665R08738c73009I38661K162848L158777
58065F260286B267279p88680K368616A225274a175471R9022B286871P70827J994447
58056E052145L778094q04396l818956r63112A532905a383238R758p71463l61678
58047b506621L07874j232748j272285K97390P74936N74523a368141A301312n56510
58038G44802L505360K513977J576199p44769R04801J31937j356295p41766M55839
58029F990085o49697B893349G25262I3613J057112K625369A167797a04679j136743
58020a241422k250425j141799J355890l83746l92467k337307O00095b839058G20135
58010A263191l60038P86328F51558R66384O17462m25381i83298k466821P45899
58001b704220l14325k357462j60748K641021Q52832J03270R20764k92018l98127
57992a709013O42288j906245p12995k37103J504292b87655m26042o84936a66377
57982b85900c6513A677877a472003l131024q95736a973583A911099N7490C96245
57972A828216J506837j520278a542937l375236n70017M0402J340443a270866A10170
57962A554436K505744m70398N52006C75541c191793k742816p46234K786598a336906
57952a785910J85982A040255J04375J081075R97535K16363K71914A298208J810230
57943C108438L23812p66220j150908a39964k068500h37182B407040R38368J16643
57934C462051l36695J869591k263101f82580k26223b09261H39298P94755J533163
57925C167216J85238e6564k696600j117767J109855P41140B031347J715381j538516
57916B208212A09537b904547l92501j606430k276640J41007K087959b442567l30202
57907b772769j302145l30082K054239K84562Q03164n80052m766917k174l88812
57898g000986j199244L535241P05276f33716k34652m737365K53397K556131a188287
57888A239382d92324k369758j120700J16238J98393l99886J612991o76079a205749
57878c49753B68417N80036A82349L936630J915144J036170r35765B755981c010648
57868e116768J097892L18987K80373m95281q47812N86248J595041f63882n50806
57859a214688A133341J893477j372511g15304j414665J64032N75139o70335O67868
57850a393265o9751j94383j152035q32812g53337A767990o05308a721074n69931
57841b291005j26257K55788m600332m39946o33314N50545K596402a539263a35102
57831A188341a268944d18239I36299K149084K07916l82330J178178L49294A693470
57821B932512K132705j92710k245252l45999m56282A56052K6516N695463K51782
57812F129813k425291A733988b302678d28549A864001K557411k43389J21927L456982
57803G756932j712955k525912A084122R94328H97882h14950j7266d7881r35838
57794i83719Q3831C39188b91615R9108j13379k023624k926972l45508K684354
57785b917636j095989k629163p98764c348525I5073K425194J079455A322777J73181
57776A495958e11621o02300I77707a458263j226686F27185b75577k328873n31334
57767c135784j15188k152404a295628L36889j875366a157164A001308J437553
57759B438861R97094a027145k133346f25058C06118m6456f26908a79886E86490
57749C667490M080635J592949j148726C753740p66965J523659L96384A311895
57740a019781B12330g27677l459817j472628j032217K44033J955690j557875j675864
57731g726355J712060K570639J381316O82323O01748p38520k85003D51234f00651
57721c726623M63145a308571J35033F58385f33130m21276b30950j958578j648137
57712c837665a721165K13383o04639a018833k65922d20459A769444L583733n06411
57703D846766e23975p40976f15706B766965o55771J46178K373715j302951r15872
57694B412264c180016k415260r03121R69918L68494j18830p32408p01809O46491
57685f066541o0138J622131N26892p14533J237787J150544M69733j762071a775309
57675A43939P44964K683840K071587J034848C016923D92162R85398j4227L296309
57666D759642j223036n94788A147493b31308k215878b15878B97242J524598M669413
57657F491253j003702j139103e6135n827489g43181A975219J182050J937112J973493
57648G067874k676555j237428A539364a326203h1356C8823h11275B05093O41564
57639H46657J040958n47914a310185j47551j891985l857791N27453K724256g55217
57629D42542K078923K085103O3733j151859M4958p41288b4212m68264j461670
57620a954146O450L93354j167851M18874a09465n00267A801492K028941m72990
57611C357443r01005m90488j9702L544933M44735j788715A423500a021672L16848
57602g04824k67274j0106H14811b55668j996075j44599R30261f6803n4740k64846
57592c86389A049558K50976F855h15533G90261J643832n99990C86554F7778a644322
57581b784010a130654D78068a49272l005452L24783B210281G73618a546203j049286
57572b595489J111675A596951K841065j279423o42473K889551n99223j27633o88096
57563C990719A207063g81926k792560p50988j87345N53916a98566G48206b00560
57553h31564B35473c797206j859026J798071O03009J396674q53425j951093j392321
57544f055317K682349a572433I20105J94641n47165F3664J804245l46948b492079
57534d435663p11877m08490b321295l38357o09081o11708j879920j84096P87902
57525e156555d96183A684274Q11406J827489J89078A583050J446993J516606j56002
57516D390647n22373k76003M25798K81235j589221A315671b130367l112781j644606
57507f887754J648469K041104d83569j079566r51681Q31016e82668A688667n87756
57498A100911a750174K44539p25585O12740n38393k676648j119210l9952j70258
57489f162941J16466b650050Q46451k175410l65527o87918j95860O82635j114222
57480e659901K195269b08316k155832d91274l39964A005768R74689a78179k029926
57471b208105J23397f07437B512163E66979a821999b78797B399302J614980L80568
57462D394850j329215M06324p28613j69532A169275K44035J294579J841323J47647
57453D696859J721127r83324I84179b854096R91194j868061p35767K047165m68081
57444b887646l39625j766957J215476J000102l82778B084700M123184p30870r079
57435E467935P16061j14957J00622J215338o20135M37079J443298n25333j109455
57426G010453l495225a078143m177986J826221N2886a430245d718H82260j63731
57417G18529J359677J90544A063975R28870a97190k431903n115172J471746K775313
57408c497206J687268i8469C379959F87315b143196C05158P21976C92319f66869
57398d692352k11714a240438Q8764n55078l948128j274007J392803a734013n3585
57389a787598k192540J474892P76927M22337c86794r76162B137978K382417l43380
57380D177015I69415b292824o24132a365719j449657P6630k66412j97462J477270
57371a725350L29478a30328j76294m424575K49109o45881K444420J56635M39314
57362b087600j040534o65151R1758P60604O4360K67815j85247J291625q12285
57353b314655j283213o44052O02594N18008B97249L76454O38286D91211Q87586
57344A378797K628387K94699H57319b889610k43751j45343J577363A966401G01418
57334A410360K309725J90295j311430q44261a15186j437529M33581N59200j099549
57325a659483c08373j914369F8993O68420b665221J01778j25045k92680a290902
57315a663485p52151a067066F37846a676056L5966k58443f06000I8212b229342
57305e754078O35101k450643O38515b152511j631107q71954b237120p64594J358434
57296a643280G22940J116820h40006A44395J045241h3983r53165j409274O7079
57287b379343O96297n26844m212266k291494J630715J02001K283351Q21089J82407
57278c694087J659086K22500O58181d29263B620862b018372j941350a758189K57753
57269a500436K33122k571301l419221L95470K240097o4412f55691B041081E32284
57259a735926e95955B103882D43350J077708B84250d75603A653678J437910b21721
57249a522623d8131A741791N46119D0766K23801M87626B08896h62361j594911
57240b457272Q52618h7645A345039K099687M13043q42030Q91213j934668r68738
57231A003546b699920e66389A104196K48045N61331J327013A446530d316009k961464
57222g277473K523102b156237k86594l548581L43171Q24524K079169a57430p06226
57213h63656B613500F61004c177756N28877m42222k81517H45506L882296j27357
57204D600445B095797e27041B310419N03640k83841k10640b12273l70478B408668
57194I69322L36177P43100P19774I57636a792389k577354a600834B362268b27366
57184c356989M93792P9567q02839O75355j412176k648557k446603j511857L223870
57175g706437L260479p82281K047784A051762g72219l30124L56094j136644l24184
57166b207077c20086A976363L26724J927399P08812L39309h22485k370663o61709
57157c854857P01257c61307A611J33580J748845M01218A9606b625020k882383
57148e507403J359030I9347J779106L374897K49112k542134B67695J102597J950653
57139C320945j406436o97663B76463e47095H18091J179870K147579j86999H31211
57129b428504m07176N83517f3079A421351l02723a585531j961570a737458P05853
57120a031605F86968j86462B04113J301656k9053a710013Q34877H1847d38031
57110b590456l69727A12096M111155L719871J507899q15654m038886n14176L582431
57101G664736j411593k470103O33888j044687n59634K079629k6600j169680O51760
57092D347716R42803K73062j106266N63915B217271J416036R21468q77441A262583
57082e63597F87264J633879L74404m211K143518j454536R89512K381476J959727
57073H711033P69700j982262l043132j528798J047892J791080l75884A389789
57064b004885j064922j045413o55779b182283E63406M41903f20032p71858j048282
57055b440172n41867P0295j443491j205618a406750B823703n51645r22495J412840
57046B762403K132186B019115c46371B8077c70788k788088n94231J146980a6629
57036e77767p95649l441504j45421J414139M29600j967482J730386B010366M399950
57027F410316Q34700l492944j550319m43303D75998a248998A470733J510282A287600
57017H54303a501454M35351G55514k04890A27751J16881K558070D06617c518021
57007G52604K082038i78308j808712N25009b18771A293551l9019K443098K58649
56998C956279p77475K09540J595397k69256n46676L65996K039606l250810a213206
56988c615151K50938A172758L374121A874735J330170L319060M68337C210857
56979a779543k218527a778314f83520A050553D75413c047668n91839l31036J609023
56970b361520J077078C7986c907453l386740n67830j044597K414232a997687A549827
56960B063482J765532r71076N74212m47096a453664q00887m93363k95540M95010
56951b548444a099447I06682J230933K369086j576893I21380a419360n12073k314467
56942d245900J434979E20711J428394K54281D27957J240560J537967k75845I09836
56932i01709E3585J280348J1240a215579k765459J653618O62706P24699A860008
56922C124233B54625L62895R07102e96823m0505A019716K447632p11570q17107
56913A938671J112403o37584L57220j73230J155430J124565k052964h70589I01786
56903A640728a6845j409307e79889B07231J368138J178418q85434I10099c88995
56893A844723J625365l02889A109640E46562J040670J271998p28615J528594M55840
56884D115049J346334K06991j982441F60926a395363k206286J726859m15966K94834
56875a995922e09704C14772c61138p80354A776625j92781Q90687L216216n65082
56866E125665B515288A021499k05905a666312j326161L83798O41602E94470a93252
56856a346646p97475q95742O61280A400357L342714p09459H57135b812412l3992
56847b846404d28894l93897j815166p92568M45412p23865c00540F08699K485073
56838C093772m70014j105613p03175a428728d41710B801337j337252i3752A956638
56828D619575l21654G17916L49123J388925Q92101K889920k617677m69724J977961
56819E128545j668423b83849k760303i67824F82041b81889j328157r3613j218360
56810b922019O6152B67605L28530b078018j537484j031615j28806r30899j203696
56801f910518K770805c07766j978504l343203J463756I26526J994418J274517
56793D195461J507463j811294A405322K032440K418190A226459b086450j654226
56785c740676a545689Q4646J02066L79065H49284L44322e53080r99436p22614
56776b275130l24358J298238d92105A623810J284734C6381J604577J019093K484054
56767E144105J318544B580047b950991k924906K839396Q17258J7316k20224L38068
56758b084083k514017k571551R21303R01025K386086i7278C351202j508634M81623
56749B324191Q93260n69672H24680l34990d53938j88896K76734D04860a305840
56739b490253K31574n44606Q96641G18139J566103q88689l58807K318343K23820
56730C578909j373595J78975k93874a678819m454001K2618J49140P6822M22929
56721e461311b646317g02475K77509l677351j817718b924265i41215b0991j554402
56712a575393k56159o58778D00821Q83367l17774A57615K96339K53494a322422
56702a923363f81325A321801J055151A56409J395926O25205a174813k034795J568444
56693a641164L8680D83321K107726K208990L26850j374515A210190a263752j414303
56684b678055L31778A63813g73468L28343j373852j890316R28193f89035A130308
56674C351961A489917m60288Q29801D21740a531j385887M9380a71676k232103
56665b403779Q58713B62405d75929G36742K447511j378189e11697l797653R06566
56656c402784Q00588c12458A125832d40656l21362F60504J27881k71234a375067
56646b877281M06759G59027K488675r27718C18325d26286j35198I90771J558528
56637B549299E46436c416715J355335D44962b698944n35198j50694j454057k163261
56628g002154m54154j463449K74091L952834J026935P2697m69464Q90142k73775
56619c446297a711417m09354k115624o29335r83595j187285J625616j0735N65009
56610d856720K14744N77941J825806a02766A963008q69336j35037J176045O27426
56601B762106J648596a008279m130442K531074J131413L44586c49282B509620
56592E092466B111633p42038J724122J351130k077315d0637J0278q4715l449856
56583c564930k460330Q61162b266246A720197J954182j488589l18168N40309K536635
56574D944566l79967k19970j949785r65058b68335E01294Q41900L8352O0520j60594
56564A281472L25278i28506j534919j129767P43877K54970a73333I04505K073853
56555B978358Q45917N65361k100616G76635b324444o75226J206467C8399J980835
56546B019234K193852J173316r34143A915693K03861K31219D09713a401374l921587
56537e322961K105208E2604Q79455J912313J317088j853067o84424L131993L080297
56528G836259K162825l256570n69273k218328j509682m02541K391159j588929
56520B844920q40785B72130g64739j09410k216161o72920J735710i32435c09412
56510D107790J572053A094587a074917k993083j456757j265883K564094N47397
56502c679149k240089K588193J041524j154027L36313a482779B09477b74664q55379
56493a130043j056252j290357g01642k20597l949385J315293c74019f0106k74880
56484c34986j676477c29755k45106k949469m170283K369764g49885B390851d39262
56474b992250K4396N61670a1162C08438b84764l37962j225180c59202F23786Q95858
56464A519644i90149j132630K88387A39871L309112J470000j453048j581173q57467
56455A027295b51509m177296l89741a978721E54257J88378b378535m00563D43624
56445C059724J577685g94453k095278f74792H03868K332439r39849d39642l042687
56436c482329k036916j389250p93857K262119b498136B314314L314994j252766
56428D376542L45416B204766l50481K573501J895641m91315j849566C96645b161640
56418f889626J259204b423798R75101o457i6422D86641J79151K598548P09287
56409C973627A322205d96712p32612K00437A367626b767544m54598p60621p31044
56400d713807L26329j26914n7650K097452g72342o08314j926189J03670O74873
56391b528302B188128N325815K660362l595924D66659K072285J045173j151717
56383B432400o86277A90374J106799a630810n91820B63344K502152A137943b370869
56373c566375Q09028A80410L052241O5808j89117J358342A684367a184491n45045
56364a729536j252669n57389J549454J80160j974080j264745p3831a350791A638365
56354B649832A135877a114280j798492o57j295637j157425p01726K460333a752276
56344c632103j790211K137367L33593j318236M48585q4718d42276J57294j826923
56335b111905k811673j330723K597410J598346f47213m012026a903481a74078
56326g82257j234558k861474r48327J856866d86500A937304j3061K11570h27959
56316G39307J003683C74008f9499B453359L34475m38557j093351D14427f93354
56306f39175k23063A034007J844423Q64747P77852j066818d38967m89714M9348
56297h79333D48688J954884j066931b214185f66722C632311J990191B509912q6963
56288B422949J667350Q10040B384572K51739G57585K747767j45798Q86323o8777
56279D177100J424093k263015j42122J494505R16581j560265j809933g41594k100142
56270b841736E26687K228104J839883j471301j518547a07483n73456j044506m4060
56261a769505O95303l040771o390424O89697K939808c003829a382102o89869k44938
56252b316909d5994A9029N59049l2477Q2458K037207h15099k451249M63270l582588
56242f385666j834492K691871P31055b226694B705977J129601B46335K56994r1492
56233D11837C6684a230485d60435A553155L35365j9105l35865J542057q45082
56224B230525o64663F59966n7611B68192J200378L465209J497928j499244k418958
56215B513505J493451K788188J044750B227400g67828j554633P38455a50054k181206
56206b331260M2191Q7028j730201J872634A478787k03599L91411l50514n55877
56197G60208B96611a135430N16277r64271d25440A538480J180227J211326K056376
56188E986409B499181O14271Q61424n18442j66812c389888k703002K594753a38905
56178B438450R8475p85919q56183f33260q09491e65767A944692f47524p61510
56169a409034f70205j41489K71421l55521b15818A550403O02481K039632j092474
56160C100042M56221l7366A599104f77672D86294K698252J296488n37314m8752
56151C894968A849604a205266A780771N08116e47189n00621A945953K449111o96965
56142C698099N51393r33201q34908L577320R36157C093213d433814k161802K586253
56133d009363P67902f37863A750166M77796J986474J455351P13043j065202j830227
56124C487401j028980q30963F12374k10365j66902a55223H51190K104761E84623
56114B45853J786211L00875K40863O82686K751771j593273A493910g81053E22871
56104B262566L54191L409948J254518P62422j369527p25895N53372B528575a054732
56094b266455B269552K075972A623800a791604B32028N19996R53502J661719A681168
56084e02689B76349N18910K124331J257276O82668l62861r69754A9858i56084
56074c41447I47160b022325k201889l73392j241579p33151K076082P72231J615818
56065b108205k51668k078076j464003L11741o48160b633148Q69460j423482F37116
56055C20820L64553a053329A562363J650253K64060A665147B19635a630984j713144
56046c344128a187853A568543A00532O15585L944441Q54334A748973c9361A162901
56036B088393J811973J775241l19474j931465J88460c179l649903O51769J50835
56027b850478o48972j652405q46919L9846j043102K712870i72295A488152O77197
56018B165349O85286M62682a503253l935902N07275K322608J182409r00895L46796
56009a980962f28118q17462e34282B900532J091441j851497J804530O14957q64065
56000C695898A106094P2459Q60698M53010K005781m61511A325114M50569a10455
55990a661377P07641k403362j179679b244105A080236J29692O56480K377684J78604
55981D422696p59755q29369j034800M90294G18671h06444E8906L720826N20197
55972D299929I92077A14059b719268k326788p84265J615564c05407C294248J093429
55963D387677J784828Q67184j211473k551122j380635a132230J75545C560472
55954C723893B3657K206804q37381L91485l42893a925176r30999a180252G98316
55944B354431Q51247K408075m09077p705j953914j094998E50319J60122K970131
55935C680572j768229a596500j014235b18006A335191K93906J136785j80293D10402
55925B83598a370222R0543F58370h72907j49927A314985M178823j629459A592018
55915A424376E48294J631908K538948l93608r85383K979892N31332l011594N49105
55906D388894J529171J89047j055390k155735m73681c10277k547138O0837K33042
55897b563536j303583m79223m97612o14966J583089J360007M13510N79030L27443
55888a195841A656648L68629K043342j014038M23433K241045j418269G7027h53669
55878A135179J745122q57911f38864A436027J670851k10667c94137l042959k67139
55869c704235a141466M9039j440031Q23869a19287A602379P38029J07382L83707
55860B831497L019277K262933k09974k166897j231568E1200f314100j00117L099523
55851c314694B1950J478589g78687k695145o07131a606149e79826k282967n03740
55842c366533g68070j718101j616141k894865J64924P24008J340876f7789l12639
55833c80428n421654k241452c321527B11649J906883R64407M82096n42216L35422
55824C358241R87919L8997q60990J109114j452749k71278l50063J497833J889442
55815E946466J553081k057364k378205r46290L482706M53781p31202j954866j039323
55806B328784I37612B32813a529057N35208A821870J947006A598643F48279J718869
55797B367148K18824J479585A039589b535514P45553A244594K228936M061604
55789G535134K165713l74775m99816B639639a72743l40310j887949l124366l764664
55780i290032j334786J040664M414477a158827A599283K48409L81935L80194K199184
55771D809005K254162j240883k525624F65351f08373l30812l550765k10279L78200
55762d322029J890979f33455B48648J836504c70765q50610N30400n11845j813375
55753c016195j441020J189482H86602L460680J470945N03906B785950A281447
55744H07311K779766J774031j552545D93179R16648N390094r13788H30934a296035
55734c623319j347160J416403N08502M73618p76844p21830a481152A898744J980252
55725C878996P48728L68198B456888m23689G54076k57409L74900R112e99956C32154
55714g99663l077008Q75991a239163N99388A18228L924113l3231A755748l62138
55705A393610J79810a143582j886122a503334H77504L702270j75869q35483J97840
55696C766262A286627h81169A124378E37856b900001a329142F04350d05685A533976
55686B970300j329103c52853A651959J972955L71596b34676l084433J603550D69353
55676B227527q94652C76754d72896k253845Q0540Q67879j39643K59331G63017
55666d30898l101671h13547B297879a869017k523263J283427A064313K73497G4244
55656a426178n19188G09284L051070j147467D68888h89582o73025A686966K279608
55647C966574O08768A393097E58660J545456l74218a624800b85091m81883I36133
55637B777464O17528J880695M909932L79996k313102k286271k591173G02296a479690
55627f269157j206503K163107d30618A237077O49023n19465O87570E70155f5004
55617b364084j433850J772216A48352J633621J574366j43387O20639j215313m1518
55608B576760Q03659A330350N64883N82894p28764G02933f07140j308857N03525
55599a412472I42767b62844A251351J648600j159942A50882J127067K183084j030378
55590B430655H90393L674058K624863m94972C148205k43168L40505L86961J63063
55581C795566J876251o62607j22994J357120r29619B011772E88991b99969A115338
55571A092377b350797M23338N83536l48A219909e7670j195088J47396B72653J496617
55561A769270E97115G6533a906611l47092D08130K432015A086649k82332J370078
55552B174395d5857k496421D61698a42096k575483h13156B66986M77143k62777
55543D81352K65972P12407A99058a752057I9070J545587A62472a814952j58630
55534a973582d37787j996407j956462K024134a44935q5281q23687m65692b59696
55524H17052J164521N60785j149946l48222P28367H21817N7214c134951l268703
55515f403654J696541a653797E06132O8600L934310j0330A528106b122453O68670
55506a453783j051418l986705k00860c165557e24501D75117M13356K475571R96510
55497D360554j26253E26480d55490B401977K887055K258160l07397l320015A719705
55487E99502b728144j713739L78346J778850E70618b415A196775L379009k88717
55478D287067j620004P86733p00364a550519m137394K101229a415893A714225
55469E944605K323093m03752j802019k755595h35395j31785j65258j465051h62042
55459B546913L606142j555963L615770J398638o59883k004520k853438k017483
55451B076176R34211p04039J41145A05106a055355l82038j544761k703968K205583
55442c480539a697109N3045c4498k057603j240695k74907j725957J875487c688
55432A567242J174159J360774j602693b837078j411847b026264E53852L146016
55424C699868n73833j40310L09914l2902j205400j71553D45804a974317j262389
55415c236706O45821J34306p43225f1879B613357L17788k4957q03675L21610j77790
55405B246333J317904K395470m25013k466768P93971K88888J336795j204734n84290
55396C698556A617270a299059j098095N42695f24575K68905j422114K28504p28650
55387b277930I4476Q96810O17256D80616d53075F1288a056888q19144N85789E65803
55376D086815L41658o33832j685858j04197L279653O61642B409393M16122K669201
55367E494716m29726p72785a04187j727138p01697L6800J217798C39381P72057
55358A111438J373435J384954q58381A049222a018847M36191l620048k274217
55350f476921K440028e24166b2949j867340c34811C171300P60121A282104B8334
55340A090249L039740N38103A074392c99167j251419k92019a71336B607432J675236
55331D282668m50988E29136k62155K124905J852582o31832I66469G2241L368372
55322C440613Q46669j813749b015119j300051m82995a565665m87358j688415k60341
55313d001779P29777M66137I63858J476051J276339M38250j885932r76680k35032
55304A056854f34308k276577A206864J829837A160958G3662d03956B66167R30142
55295A196309K375988j176877a82193A401120L58901G41245C49427P58119a902207
55285c970951a340886H71857Q80835K246910J597359k707420d99828M7884j253626
55276a705570j815252c91715A645212a191326l87728j305589R17314P91671B93593
55266d93095B225709M369493J174379j87877P25471k336433a446756j447826c22100
55256a201563n27582K94444j711739g19412I12727a15453r02873k4151M75991
55247e66486k242351j407512r30845b083605J83363k616652L50874J605600b76951
55237A214598C84313j39178L00305B40382K19886K045073K810472J732442J65327
55228G213582j530350k249332g32440l89149A30185K78094b927328j927300a150523
55218A278181M03108e29699o10541k51092q0088R7876f06405a25835d4564E85704
55207h52016j201113h11109h6385o22132j044369A771746J937319P29533j627008
55198B811590J37441o40510a252692q07829B89882B9330a763871Q60556o82663
55189a585978j017466k806544j113289K92114j708812r11078K159505j4607L263201
55180c442954f55794j670403a108940A345125K458297A331152g72404A60599J644425
55171A805024J748585k28550j158153J041602K60809J082379j362430A117649
55162b679932j021363a641892g66768k191989l50626a011514A507099J849105
55154C356204J22694D40812J06219K033009k36307N42367J180346A847237b080493
55144a494567d57612m375618j391413b687254a137423j19459l96665m69996L04355
55135a819188b90429F17962R65517M474789k734757e46693k366674c73427B828204
55125B794386l21896A76498d570485j01036J725479J289636L07435b01325G56146
55115C616091m44255m03953K83846m85497j87648A001596a643164o34885Q65233
55106a412816A302370J645555M24729J296935k071352G51328h1050j038479m542396
55097e661925l346748J141978b989987c56184q46489k757114M51936d59926A78255
55087E28394a718748p6873A52659J85025c83434F63666J569309l15374q14548
55078A103053b405444l471249a388179H25130L25970b09385j857970A88527b723609
55068c432556n40685j103587O85737J778251m52960L60663f06874A166625K517736
55059C684361R55085J986221K81359A615328a779531o93984F8435M045814j650231
55050B464018A56388J369100E51183a460363A428953K696374O08380q00564G61869
55040A231345K013696j67433Q60449R01712Q03864c73662k853526k479937J84491
55031e522634J804054J627847r92375j609722J15905K275646G8819j0657a534416
55021a542235A09622M00944R77167o95703a268461p31812L63061B652331r26098
55012A726233b507084n03975B75199L563424j231587q21529j28663J201415j340311
55003A517948l06634J003217j055131b07947G869J447574F86970g03299H9080
54993B019596J599603K293167l30766q41285N85446J130558l01262l44150K065579
54984G876486l437039A714873c47695k626325M28044I18601K458446J839110m40618
54975D775539n57584K64002J064741j747546r73683c16543A930093L075985j61659
54966D844419j414341m37334L125712L144317j049231j323563C336758r39270
54958B397488J926473k110257e97055C03768P35575L60231d2412k047140b14841
54948f48296j808089M01012k217849r22452a679952c45180b8259k339587I36635
54938a065896L06679B08326b129070g65066j58500A511624K763223j109780A015403
54928a41781j267126o09986A108011j54012a991984Q84572A675013L204870N10178
54919E390061k036647A413379J306601j340896a789401k599387J521259D8851
54910e81770A253098J5577J440036N50644A468342D10585d67092H98301J116493
54901B014794J934663j005544J332640J941367J54768j307845G33348b006548
54892A481654O91509A075309a243975d84756B71852J013991k66136f03043B041664
54882D718126H93921K05116j29632e69319A372611M533278K4652j805626j192153
54873B932762a552907k146863a577771o50977j685119J75861d0733A668784K685279
54864D354063J980110k219718j842484A93861i22229k524752N67326P71271j309553
54855c417937k434115K403595B683479H54938a434463j655869k50924h32625n60479
54846a393104G47868c08615k835652l92157o12367k488852k852114J733641N28765
54837g227351r28422b969796B214678L120588M16170Q0044k115326B20754a362358
54827i24826A275431n54907L187046J616579B669660j218978J662491r50267m11835
54818A751071J161184J320252j359842r39366K96831J252664K131941k295680
54810C319055a523572H63489L397309J478095n30398B593877p25391j41022c118744
54800h204596k45942J871835R42067a825249J78063j388031g80585e3727G12366
54790A204570J216822O29134J90825p6971o87854k41490k38073o07873e30012
54780a225875j638336P40182a18313A627363J385726D33259R5464J932493m23194
54771B038022J458480J148801j209061J14125K19443n72402r78221o60770D45622
54761c203513L71919J74325i69999A621469R83416Q39224A697850L68917m01610
54752A665157J442823h92380j363289P5838r035D26601J269843c88871l334835
54743c723706l5871O96959a509720D88817J532179C68339J9977c681320m273519
54734g954839j569840O61372J303384b913566I58359J411626J51332G40747b680026
54724c515483J214401j578992j31936J957207j189342j667396L69325J727843
54716b814373O30443n30968a38945I38643J02379e4348l207629M91908C45321
54706B629713J278059D87423b715808J100537G09938e70469n79834j777336j567794
54697d495433J714321a173917j002080n52483m8193L21400a58023B66525J221142
54688A487667F59163d409896j324833b694704A559113K476381j636962a599507
54679c698597i22992A58668c475409j368157Q91784k992874j62110M93384p02624
54670g316006K7703c356453C180235n65180E48309Q31328O43290d48290j308478
54661a756768k308350p42427J835011O49605f63967E12056b084529k583684O42616
54652d025597J927392B289227G33910b435501f21801A873952K721337j083090
54644C512199g41071M9291r7997h5832H99467b95761p39295L03461D8436J185810
54634A234246b62364k345820j362400a565145j85494k288127a170994j08530p12903
54625a992427k92823n39368j946018J17307M47913J923317b94368k754962L91865
54616b657465N48715J07281R31324R3530k088850l428099q63166L171905b85684
54606c099j0920E693813n06053c9581k266669O84755K34572j181738o92332j674334
54596d935327L60410k50741Q30730k83854J686700A713995J477704B1446f99301
54586A390343J067604p34510g09995j976811k422160j138740J650665J353495
54578c243546Q93221G85137e1594j668149P28305q2538j179488j454885o65583
54569d373932q35800N61327a557001L80833j382990k235813m33325K003863P87099
54560b437334Q82352k65649j896671m64675L15723l286955j550346j8481K046725
54551f675311J169808a930573C20286b183035E54846A07046a469296a05125q84869
54542i89994l442332k68250A061967M206952I28216C26992f98132l257569m13595
54533d369296J870258l61005N46323k248751j132536Q82588J80042b121183j437439
54524c558622k395298R63297a756480D03981K95338a627073k485030j266086K574246
54515b803943A398905k75069l67704d87281B48296a607436N74862A293881K052510
54506C346391Q64451M71280j722832K49280j063566q91475c95866j358708j346988
54497c101562J023504a43275I75947b77387k964784j375562J796213e29213C08607
54487A804978L118f65398o43459b10034o63076A167636J602238E05374a205933
54477I94908B21133c43383A220625m85888q0691a566615A404809L358168P92803
54468E555780j186714J378547j766669g0412a1276A003533J961890J647907l28594
54459D284736B093986r68642C24561M96693B13539b507551j172235J545006N37004
54450a597776J67273N203j963031J44320i74908j465863J211745A393622J505728
54441B899350I62795J470974O33889j336986j49536J59237l94158J500388J452595
54432D299198R78145B184970c34895A356201L164831P19949k084224d5556k228019
54423b273575O62406R3748j892032l712356c265024B328498M614614p38728l36102
54414E868282j804041j448672p42452E54153a46280A581329J934011j645277g19593
54404g34197H03403L71878g75040m84342c16050r54713j951376J76864g54161
54394a022356j461353k233528n799165J339256L141753P5577b533605a03794n25243
54385f29037k136591l653363a265547C500502l27434k05488e59673k489439j2877
54376c061989k54720j377180O39092J892766m26418J254799p25372j642354Q20918
54367b880458J396573O37568p6408p1870A40127J229031a090947k721913j43769
54358c956629J506906J05186k77283O34051E07174l0392Q00264k20538O17014
54349A673522J711808P6793K122613J496102C276098c197031J279732C58181K295637
54340B653818o27456a94381k043381i56647B085385J701572j204721m43153A045893
54330I7689h4935j138486k47953A304494a495962q87647F8613K785353n49331
54321B304635D01867f76842H43340l02758H6319b610265O94458A237732L398059
54312D635791J218092K986114j473373l611107B07744a973767L84737e11465A565706
54302A973692c74872l137553n02467J258269d95983A816995R62620K219758J858340
54293F857713p49972j610012k025036a703395j014616j706154l048652J154664
54285f318153L023117N35053k139590J421733O87054K63472j02472J062148j326849
54276b894487N68051q28412A02433N181338L96812H43848a400965B525985j67420
54267B358565E20799R74772O65441b523513m4743K96619A716733J158118J342112
54258D216963r31452a837619n050741j352879J410967K484808m77005P14428f63259
54248C023135K068024j088796j630695G67199g27200k340764k118696J591990
54240c594670j55468d38007C305373j75088l46430j013603F873K294195A079443
54230C35935K0433L95758a014645G93009J633166g0999k543457J69602g87925
54220A40025J080631k99256a752356k394399k58665K77525k057191P89819N53552
54211d841715J456714j68333n863147k704961J918186d472353a060926A47348
54202A075011R4271J378503q33887b210805N1489A29917d10418k335497K44966
54193b500949B440308M827281J977439j507687j508087k320333j014557q24642
54185B069722J80830o9827O39136R40911j409140c007358K04973f83458A604231
54175B020694a948770L0142D13573a032562d80244C695553o87465A487687b71354
54165d603964j516259j10617J01531K544664Q61257l038276K501223a200477D1990
54155A624420p87626b609577j087279Q4071r61856R88212j632780J247598I73474
54145D313365K692839L5065j710328A70059b461834n48283J271953e73921j460697
54136b034618k925020l99340a698399B756006K177368j460336A274925F30404
54127a962070O20688l298157k720058J518647K159036J551360K96488j245202
54119c079268a144911D02219e62709j279702k20282A71992O18247a174830j441606
54110b616436h16702A103873D12008K37206K886808j368887p85157k15674c20344
54100c359052j28224c95572A371175a435620j805614J233949h44948A586537F16424
54090I77816B91560R72267m08687N60551K640348L146111l200852C85741R45505
54081A331246Q40014J801679l99108O87572R93595O49335j516900o39885J443959
54072E191507K358752O24419j923821A576648E62097a58515E31341J127182f47869
54062a273377D01241J638161r52553c43848E27949Q93378c63534C84210b396489
54052e213696b197042C471644J27016B77880f16161j879518A042092K228846m73811
54043B797127A028253e21413C814796Q25482A934267g89846j403514j04908E12929
54033A118213b191369b4699C271588j061160J625187o41125A282367c90207n24711
54024i14918b55112B219227J342368Q51034r4148j634647d61025m592599l484350
54015h537974R47971L140148n0319j011280K309950J15471j149015j67611F78790
54005B936041f73551k49422C46732M46437J276801l58821R68486L51704b177573
53995a833935B388818P64129E27297L48617o0577b66195k431155m373582Q15211
53986f255721J130342m78502b633107L38170i25487k7820A571004N72493P67253
53977B910750K944721J773079n48924o24092q81803L758304J230830k638654k580130
53968E344081j374287A745782b195640k741561b156688H14089N062002J653599
53960G529690j424838k807096j90685q54707n65312E67943a045085k662069j471417
53951e178571b035264A326805N25872l09687G3588K849998N41385r02968N88044
53942C150047M154780K624563j168302l675807B271129K593064K345999l34456
53934F875736q99064j883811A801563l66764J383299N40384o5651r77921J695737
53925D010647K298577j803171o38324j215827j076838R89071J057689j149716
53917B472108r14301o59399a542809j738250j246441q47478P4332a970346A029212
53907A613301K108998J752933l41594q93017J97393o53093R55045j4632Q62163
53898E587497j255372F58J062636k89824i85097B72812f97128l072122O88167
53889c081083D48250K318220j273961n79908J004415K883374M004717K233408
53881A1038515O1560o07973n25777C871958A085423K561331J329023j449880K724007
53872F249904J78591B967532r69745J040598a167753o44891L4860C376340J374230
53863D750570E51638e66692k265087k268686J963864d32856B735911J787772O12365
53854E136048j414773j311678J882410j440464A167045L014264L705467q07006
53846G079770K15439m18662j788341B450257I47823P38938J940506q89618G65932
53836b50377n08231L67377l180541j347273j799715J255765J006332Q55980a329459
53826A262592N140294l8682k359102m64536n44523j074726p80256a68006j154076
53817a322082B731152j055906h94966A661494F89282i76513b03592B478353J354646
53808C832999K85663A328339K54036P20753N76050J782115j732340k53K51442
53799C180142A468356J697806A465296b065392k252187c88322E48757k40094K170487
53790B479150p25203a984460l890822k755892K939847a532809C959273K317961
53782F277234j131276A567926e53668k38186j971830O90185F15449a126604p39215
53773a865819E01868K381265J376106o05409p80288Q55903n84262j314170G12006
53763i4564I92923N87459P92359K80062D01793i10662K18906B54653g13606r08868
53753a622474k624945J353039a414251j014441l1564J90995B03687L482957K245452
53744E932096q06128j285118J283331M1507k471401p87267J804820L70225K055958
53735F138023J933504p67240r69523B230452a171057N41408C66646J895350k4980
53726B237016A06042b409867j649636j561522l214981L378131a541697F83259
53717A924915q38066h14729o01451K0715m44417m3455j591862k525353J337188
53708d663364b268917d72982B684598q51064O85723K835295N45369A875221c53685
53698B191777L888629M16413k057475E64785b539295l35016B88755J627312h809
53688F67246L668869L106596K732019r95821l967537G26051a910426N26307a4802
53678c859353l810777J643474a075720C61919J434687l17540l31766B51707b32540
53668a34478C105256R58373G75901C57031P64439n56338i23122m83966J03339
53659a303749r80089l023a72753L3558n76811A350460J365112n21526J909527
53650D103573j58742N21046N66913K380347J518687k902540B391447c465921j164574
53641d630495N39239g22959A999353A53792g13885B491553M51143i62626j313391
53632b276017h33828n13939j177126H08300J275285L00251j45818e0926p07817
53623g58743c57080A680977J395487J132550r93830j586568B67211j17596J597303
53614A746918J319344J212140R59867l25137K612810J741271o54847j846165P5870
53605F842071D03959d562388J084118j326293a461451B199083J558648L337133
53597G094864J57992k967178J112224j859374a999113l312072J846400O11389
53589b853396j05357d55402j822537c14452D676957P16991j735887j000779n32422
53580B124860B74313g39772j242072A87081J616155J76546h25462j48607F25403
53570A071353D15286e584904l310554R49172b059272d95235l71477a03589B940968
53560C112430j048516K355481L450979Q68389R2006m19143C818416a363029j813253
53551c176282N15904k220497j168997K845813R16165P33088p91558f20702l53650
53542i74352j462233j739355k04647h35752C393125Q65847M94139J064724K012381
53533G830216j551845n16465j522134k01098j091373k7127M41425K00817A752003
53523i56201k91821A928715K36462J080146M05705q55707e2508o42676D21634
53513C089253J651443K521686q26322j754038j851114n27432D75760a13608m4415
53504a58023m52119B287747M8006J93521G84871b737688o43248k040741j41530
53495e563207b749294H31364l57123h15969L03915l52899A14622f73940k258587
53486b932527J390947H22091k60329b377659k8148h08886J17007j770421j437575
53477c899875n63202f54376C57402i17854j50812k060122k197291R24805J053668
53468c347606A74278J960933L129658k517786M86778A018892c019730j983902
53460e003632j113914K184842d61466F21093J429491q58576i65627j76769C190099
53450E485839j660342j673273k08984I43929g35811k331991j00531Q12325M19570
53441a936438o74577q91327P25125L24001K76430D93484L296526q9386I31410
53431e8339j142225r22439l58893K83170J23180m85732j348955m43923a619799
53421F03602J245792K599626A168722f98112m64630m574096r31530K570390K72998
53412c824980r95774n52950O63090Q68824R65639r56603q81773a071473B247645
53402C62800b909199j394565P9536J237219j203816M76972I49486j76154J740956
53393B514288R32163I50101c668946j715302K384889A268616J228154J354836
53385C851606R63435J25245N14671K57021j908411o40708K34922K748F82418B55510
53374A657426J487774P63613j864377B13137J276219J43564P23405b246818k553313
53365d800131O1236K158022J180534M86843p75921r66671N1978C51380O79096
53356A030476K261103K834142m69351j225842A729271a149542j678470j524021
53348d352033m82323J945571O36144c11121H14620D05635b352598j537407J504275
53339b385730l5030j166931J154771L83626H22433J886523J151474O52531J095504
53330E608465M186049j123348l754507B066705o43347b85387k025782m17981K73974
53321b455176J090025l070428o92474N06385l55909l236678K416794a102957A843260
53311B181097p00002A0095b242640m07873d77921r465A650279L243321q64360
53302D029240k011222H63164A14080a139442j464018k197859K52864K142928F43614
53292C256185j093121b786533n97193e74068A370631B43301I3330J091712K969368
53283D154410L904539j237987C207677n56009N84128l69982k05770j011654R45307
53274B593697G53485b057325O87837D7116b335344m032146J28166J190916J879914
53265c168494D02304j51979a948066h37708j156389m02833f34139B673617K24959
53256B898576j364901a474812O83970G8247b016301j240555J548763B015629g3999
53246a623231P74531j165762J68966j589732k752539Q33821a48856B112461K6191
53237B138652B76540a154561m69670I90124J499597J102161K460625K342041p28689
53228G665859k272250o66683m03541j098296j421016A84585a63984k025735D5541
53218A642195K738690Q34711J219880n01718k831543A375859K627528L22689F6777
53208F10574L02307f42028E52609J602991J938306J718990B858255o82531J853629
53199D029353J404080k242392c43496C25751K091708h25764j239032n5070l705540
53190e825406j069049j2868J528603J652391P22243J185242A746719M18045K27457
53181B392221H62148R08418J515101j209065J389275J779168R56270j87266q42890
53172E171159j147290j649989j59479N00735k83333P40219N3942e53735j707025
53163b260760O21100k653231q89983j816126K008451i03845B066633J186449O33286
53154C886368K793652k470792B56826a528856k023780k523295j773041P19520
53146g129452a629285A857007a105333q52354g38895J27849k82125j247821q47781
53137b988773k279118j625171J251611R2479J360752q51768j136767R54737K180321
53128c041697J373086q00366f31622A014018B25559c08608A026876N80858D42162
53118C64319P43787m39097a554339M24210B01747K088378r8074A086687B16856
53108B41958J283286o53577a434652d29609i2855E60116c378248j031185a828227
53098B177214K134160N9351G07099d203443k392673P04942K080924c85170B943820
53088C160563G30823c12155C94019J628533K44968p86913J128663J578162R11966
53079E099398r86418j304074n5114K149652K75456j176070p79957J238872m00222
53070D061523G24541g97707C511273K11379A511977O24145L264528A826849a544977
53060a726678B319171K502594A481505b307701m975940j818958M42123L936655
53052d723821P14083J388729O28022h37357c19705j228381B11852K574245A261025
53042b439404j68905j080050k416230J407100a465250c09143A103698B78346i76340
53032B618008Q53764A529434b924822O70107l2953j15990o54967q419D82722M612151
53022E094873J65244k58100j306864A672128O74503J927027N11234G61982b495050
53012B91367M286097J019852J42772j273038A907331g14661l647883J706238A32797
53002A425832i30895j475336j49161j536628a972426I95277a68194l59344A062270
52992D298902Q03558k72021j428654A678721K12969L63874L312782j600548d0548
52982c160949R86010i914C858734K942701j333747A270870c226651J440670D012485
52972D114254a46360j593878a28728e7057A28119b25397k568264j071162A61841
52962B318375q48539F1496a002215C58189h8354F483J499483K938901K301569
52953F746436q41L231145m251249F74026q8201L825845j586061c539502l925541
52944g465043J400645J090518k447023L08862J996766k08892J629875a407037
52935c188246k335879j154402K442317k017367k667351K803423a587400M36533
52927a150867k682692o37716R31070a000691I1280J039140Q65591J423616p9666
52918C339961j434870i71393j135038J73419G73429K807466a337606k107511a041941
52908b751742k252364J381042a246139B072894J495498j400979a878079a68762
52899A276781n13710b189154h10812E63710e0757E82820K380042A271935J237627
52890B509562j184173d19213j718275n4235f66515A729655a063889L08131A140472
52880d68932j384174A347957L70177J173557J03547j112994q9675J067934J536220
52871D396723k114683a238953j296239a185937G25696R09711l86717l14703l86713
52862E47274a043543d87038l35820k415168J596956D93656J989591N12671p60457
52853B235461J153236k47936a491316j857853n98810m08694P79398a322886A183469
52843A044546a007193l24363M11313C84190N290635j834762B01826a048883k323628
52834c372511n093873p89986c579506H79387D38375a144336E68217J226183p93722
52825A000678P77295J570584m66804j228156b249702l129855a783935h04733j712707
52816b517440m41231l033246J74588J597778K093206A077003A83001b349405k123649
52807d473054b183306g43382E35233D718J451710e79048j987456k166714n54228
52798e287446M93093M01084j124002a323987B147902D54484h82172l96750j358555
52789b637477l263824J061784J795385a451475l313984n02010j150623c105792
52780b427847m71908r2466j564873k42865J021909a02904l445967l183316j631342
52771h363529L112033a533532I51698A93050b74650m49630G1028a309470f26134
52761a714107L44024L7635k236557c83706a62380k096240l57235a077966c32578
52751b203686a083056j150026k181293n66514L95406k47523J575175M88754j293028
52742d062105K74934k05300n79604l74343K028217H48571R47670b12269q88114
52733a100383d53406k524461J164048D76788h65226k841589j164054a811694l46599
52724b158293a020620a94799B4177J583274M607666K104289k229040B365931j079774
52715A286157K312263R38235j227410L87699j289448b394368d84963n18917L71478
52706f32402A284941L07377b7365k857255O98774J19696m091356N06192K647390
52697c003924n4492k97933o3459j079859J27749A27943K328854K544485j093829
52688C907453j774547G35120K111138n16132b79863l5141H33742a419824m009429
52679e429253J027342a315417D7213J479862N35912k54136J261969J350981K99313
52670D721114N67287A548035K71731K685677j82472A59492a02241A170150L363389
52661D533539J790112O63094J391420k067398B760249N24007L663407j880475
52653E067188A188667K895256K705403J630770n67404j982332k394675A85825
52644d092346j739034b505948A819733K53621d07135j933423j498499j609778
52636e448835j119972k141206j406037L149689b697703J330947k172720l64483
52628c903959q71875b230815j998070m71606J284440M50692J342032b02202D83417
52618a96201j819021C37095O39426J117619K296998L130763C348211i91940j429826
52609b421766l584689J024768P13972a731849A594675L937090J640282m0286j485854
52600E645907l55168j577140A55729d14557A543691J832330j379591G95914h54829
52590b532953i98014N3315l076418p40809M44492J132199a484944b9387k868239
52581b897626O30113O40181H17822L838504r19586j531719J577722A543178a462204
52571a424650j73868d88147A696256F01556e76027F38234J212105L50034p75200
52562A425173F78598J306088l26069c976088r00361j14465l488007j800584O82791
52553i596714c973946a500081A057099a95955m105415K68574J022666d68402A743783
52543D02401b854508n57459j224958J650315d61606m10293D28183J325221l37694
52534A415710K1939h23546m9996A067234K878426j510543d49820k413154j392481
52525d255455J214636J260319K72274A080487J960067A472427c372351k054054
52517e426405K92133J226309J311248C23681K811478l20214m50730b36180k239368
52508b475548A41167K545084H93653j95366P33674G12547F1763Q23675J764566
52499B650004N30111R9913A357257b94343n445404M24140a613541j097469j262790
52490c973800a700103A139229f34309B81680e88802r68506P2113k657048J24776
52481d017467J322252r97905J385641I96523K830757Q91375B035984b62051j524977
52472a787028j026660J082165A62672f60098q46628g26824j17927l694793k412048
52463f951592J067964K13167k197432J840082K390071m56040k273443J820927
52455d546296m81203j486103J982546h21835C181719J045894k047738a108794
52446c224110a172630A210138K058166A044107b194968f19940A257741K082609
52438C340350M80801K54147a372606n932878K712c015299L96300k713271p88770
52429f121040K673475J439573A238161L495406k45501j600462k93929J838068
52421D431743J854950J558086C665888f26625D85327J464812j35455J836527J57315
52412C808526j644936a668148l689493j65158J705799k761242O50221a624899
52403A862317Q31701n42656q21151a252418j868507Q50194h04593F15190O45964
52394A261154J079504K408656M45296j866125Q12556K620441q61974A416582e25186
52384E35563a416628l12250Q53842E11330a101001j026868J3616B01602L61940
52375E63542B07273J198801m46088m79791J70025d32133I90202K651105p9207
52366C562100o62204Q52894k52694A128605a317824B933039Q03205q04233N88011
52357C520022c9018B275965K256693l29265j538073H10955K350324r33623c46765
52347b324980k305217b025256K75369k115985o40102a907268P85737a93825j54398
52338c48223k543589j66020D12455L012194C39734e61200B000590J2681b64298
52328a106616G32427R03035h57963q10725h19339L40536k15548b69910k4943E88788
52317C6753L273728K419738j211707A866057q55483B91955c35892l25284A137131
52307D85355b132911k72606P33221l61015N46773G09040g96824a29674C53335
52297a253166l66366q30644M5245n9160r62478K68572J270145j170816J013840
52288b044828j27497L01285f04121D30180J428676p84360b09575A643889R91343
52279B635232m90844J447488l61267d43800j846770q82837n78872Q25882O3590
52270b862807k833191J742444J303579K30872l76857n9121a190037B992001K153488
52261E145489J661146B802858F34142b280971n68733J91881a105914D31132c316716
52251d034950a897230G91181B34033l9194J401561K319115j893736l6204a111414
52241h60837m38453O37015K79450A262062J850070G0859f061817M40119J679437
52232c942261Q35422C41252L104747J351338I34100i45129r82998Q52736m07186
52223a482577O62280n0729k53449k154850n12972p60724J29463a860168C25608
52213d23224C2069M08444d8547o98773b29742C513925L55506j665192d27676k21375
52203f49051b08645I75533P61994H3983c357345p46401J98634a44971E335826
52193E208829J6278m67880B046982a446579o45327p30856j147688R58546j575494
52184d587398b080475i64437k865441k999831J165499J848272J24997a729538
52175A766208R900K04154L499797J10775o47926R2651Q10975j339340j589782
52166B917412J506481J51222O72005J837380K243667J227474k422112A440748
52157a866411b34455A086101O68492j42850J275078Q30421R21889p15912c97306
52147b247291J63262j40003j804093r22300K080266a121505r10917G10927c26595
52137E391983N563503l027628l659112o71808j05179K0828b7367m264644j067123
52128e359134m2125R88418M53896P58944b23068I54038b144758l292973J392984
52119d044747a354667G7066b525125j899328N42294j363378a294835H73410a135967
52109e8817j146572B11609O36712J276194O88341j000237N24960K814813O45377
52100E797769B096880J290415Q01192a267602j781109B85722K424189l6701q79637
52091A793573M65987g8602l110118j015348r1802j104960k122009j258483m90969
52082i272291J468093J297839K189097J109331J418287N73669k452695n2509f57858
52072i44496M04901A50169J551044k94035J246238K397453A061700a046721j212207
52063b258928f66887A802099J969869J022192q44951K855944C198811j534409
52055A664402a466006Q6488B836841L530656J803435n84111k906881k010989A324684
52045I67838a018003l12386n21527Q42477q90144G45167J525399j005266Q33053
52036B098353K953478j848280C51796L34813J360088j62083a039901k238536j2736
52027c291173r46217j662484J801687h26217B97523L85859b879163l102662o23009
52018f604834J561675j354046l5920J226863j211007J600018a224374M84653j430073
52009b169794A73080c18053k320990r31451a661607E83961b20597j148163N91423
52000g77337E21991M69473a47544E64357K926449J532247A631210n81253D72994
51990c15276A812986J549089I01993J124499N42963A3810h2663C382857F46661
51980a923063g42636p09245m58450B353794M60841j196943o43306L165352J577947
51971E717685k522817D77151L06280J077708n81184K909104M380178L26329m062200
51962D833366j865082o46905p18876L97210K718991n58445j975322e48762j543963
51953b092725f23634j446401a71423O2601A161979b497298m54817e34609A86216
51943a126682K46259j759054q91848a651924j484943P1790j14743J020637q54787
51934c013970D59012J622931c016897k651024N48945J332219J861270h56755H10847
51924A298535D59109J306976m84151j47541l81121J680985O65032j484609g08664
51914b449613R32129P339c84582j491312J85134D93997O59949J110273r9671J277887
51904C442435J736879q41384j848586H35804K51470a029395n10038C21502M16667
51895G38169J464171K67149N00932J92108q98492f76319E56759a627127p46063
51886b373190J069916p31513l249966j241649J771291K070896C91212J432977
51878A824189B8702a428434O40965C80891a659969j602021l8920j569258J411888
51869c458280d59731r56225k82841L37384c96434A475838J431802M58179b603149
51859g085548j06923L054431B33992L689473K82534l00734j701505b680959h95466
51849B88621a451440m88015o01162k339760K83331J083586J446971K41417o9856
51840a894928k208519a280880f1117k176350m07623a91462G25932J234024B70744
51830a089070j866449l16229a465149C055899K612459B630415a29576A267665
51821C038689o9631j335015F81295c42848j12274G69675K48486m84277J385936
51812A919820J666598n00848A243922J119636R32377k57935j341687c05055n95188
51803i00243A401078A85377f99629c44164D83171K30784L34037J015351D42370
51793a18495n303685K28345j571368k765394L533696b000115p86475k143679l585213
51784h515482k192163L988652K533674a364628a49970j502557q69947k020378
51776d542852k88211l739736r1801K733528b432849C79753j49571a3509F81279
51766f19064A509916J741670M56335K059416p67754D26753a331402C52931O16078
51757I69009J15612e66059j084693m89368k908644o56899a887451j05765o90730
51748b683946i06212r83199j421579m27681k863885m2114L024841Q44103b22719
51738A573604P89724N97657a68777m650412R9593J136631j137432M49715m3092
51729d313774K77519h88138j987086P72J175824b3755B025942J719828r64040
51720B781730e66329k226923O85635m22210k158738l60064m79759b172755G10383
51710A767966l84998e77691j286241H93770L311805j017923j363285Q06877K297808
51701D929052J837150M91631j112545a369425m182600J325061j45805K43532J077278
51692c051959i54677B824516K028870Q04168n40010B442114i03252D67249P4414
51683E41663a004669B537372j009088K75657J42754D40616b579080M41437A15168
51673C817137N63827J850087p28991A810565J124946q92148a858797p91146N11398
51664b138545D4752i78106j719654l99421k33753n86471a365634C465934L483723
51655F949657j259934B817180d63337k352887O08575B097875J545403Q27986q25671
51646C645593G01327P96628m13425L12912O95603F38635A07809h65131C479779
51636G713020l233730p06453j677029e33905k700475K61266a186889n57323k337841
51627d082053j780437j019515n96633J214932N00302D19010M003926J003987K187641
51618G614564k033414D24222b049707E65037J812395Q284m95235k3901a660407
51608d203536n68919n51894N40067K071852a236447k474686l96582l5555p92127
51599d935397a765298c7905F59377O87107l49247R10442K268439N28063k111422
51590B592759d132982k182625K688499l81718J022029M25246j515169L2456j627072
51581e671336K537438c63075j360003j060835J094000B26117a091167k200167
51573c291334K21398M1911f17134l08298m441342k791118J003092K448786L41251
51564d364763J21742j717571j6300q05631J003089a791303A03311J063960P19043
51555A886314B41755b963839J310516j76977C57044J495672G49363j65140c15473
51545i41794j367418k488406j875670M04733J857866J648177j309811a310408
51536I00940J132357Q62268Q29773j648031f41503J64756C374678J942456C29234
51526a482106B702604N283257J944761k457775l428918A828462p4005J109883
51518B864340M0620G10952b017094k410653a484269B074379B86592b856345g97303
51508d49711l79757o15711o23737Q40596j95432j416090j173505J07276J819676
51499b086395g50068p67375N87737A3958d73224j016342l29050q13420p0263i98191
51488h8919I95921g26888j126170Q77549n21098O27480j73808m82281B090706
51478C921698A891372a83604n1773o20410I31985B17538a111823b23193E33365
51468E38295M990361M23396q86923L059835r30405C539818b78320j136708J80553
51459a234475p26576l662406o1508a747492d96546j580157j210927h80960J84340
51450f96620B32317a749250C41451N210409k66409B079629m85301a270267k887669
51441d157936K69878k198572J380271h87156E71856O01245J780648Q70669R13557
51432D737975M91902d9524r69908J24103a44582n69179k382484k256500Q05675
51423d547070h96005D019982J240354N93374q74752K72381M30808K016286k366637
51414E331796j609230m88362L66587j192584a639331E47771M23332l67231e81865
51404E01621J396515c2343l629472j000150a217077l78099k217143a136905A218840
51394a410476k242571r26215L25164L87269k14306j58315k3347Q13560L30148
51385c119089r12581a629153g27923l75908k484529J293180H35661k65482d062938
51375e466669M485l42218b557074K0939f51026B194873O90804A401587C79874
51365E347724N60506A704234G28052b50475F05254N967377K06114l021688M41607
51356D198664N16130o67426j042347e18524E00394Q92998a190028A624474K818262
51347D442736L94606A698109a455057k718063Q58870j403851J428962J99952J419482
51338a669705G33943j72170b671393a133376B485067M67709q03581o35225a456941
51328d820486j019085j655273O32766J255765m98982K15421J03604a937197R49767
51319i87430k500382e43332A722369L03923a499702J1668D87440J864192K456612
51310D808244m00824o6094J093659k700069o8675A048203c611535l029047j607923
51301h248505K334639a744927A235824J434462L20893J457507A971905G44968
51292F6217a477551m42974j862800J588972O67517m72993h5779A522372N44735
51283B067107B43447J70968j53402d57331b06010p51954j76968A574138a379080
51273i9735B281565J11753j111057a121295j381683j424088n2251j736117k14480
51264e929914i11157B456472H86163K927449L437108k271826k173240j311653
51256A494001a732646j678519j124017j751739k52794J919019e8256B852390R39891
51247C792281l71960F13201J161402L434384L85392q95149j864303J27915K131571
51238E094413M97548j477833A303757P36111K452228L439467J657019k223734
51230G364848k489542K63944n64375j202498J603694o60781I00404a665172A36
51220C144267L01267K28216J236168l476M17455p08372k075654j126189F70525
51210E57517a050616r39615i48084F19539M598148J609485k37235L47732o36121
51201F301548j665992m90453P1037r49681m88312K642484n17102J572079p76320
51192E699288k827936r17002C02714J33527P86765m14251b294892D87084L337429
51183C824513K231958k433147I39866J448094M88274F43527g72215k185312K8117
51174b929410j206261J621642K49348n37762J127239p85044j989960K174371b94954
51164C42313N62748K382582j456389C73914a57035O0961B596172N03457m77200
51155B622429A074129l77115B43886b697553n51500l72914K6722q52145O92887
51146c754503R20694A67939f93997K94976B229407M35109A260059M13317K670976
51137D344352Q00125j320409j666617c901042k219736K446125o75737a753136
51128a733967k132357n05575m50660a214459N83756m053336J469072c77588B947493
51118B805983A303120k12252e77921l296937m53009Q53450j493129L74729M39911
51109d152906m8772J450600a366562A503055J124906m66622E56304k31300f45308
51099a198191l338318j299405P78326b143170i007n37910n28243A411136K427120
51090C838256p37413L457264n82558A419523a149327A016920N309574K452434
51082H778928j202971j904049B313937b92865B31132a6172j856463j917756a476059
51072e68875I75898c4458o49609k423040n32052l96103m80765a400026A59696
51062H9011h98460j975401n45872O6542J363918J28056q34796j356249L37344
51053c714918R16031R07781m50068j24283j026755o66391a979160i35938A865171
51043a689283O62644a94073k966981R36298K87827L89945k100089m85862a780905
51033I50337N118060o72440q46966O18307n08224R51839k071735j459824A96735
51023F53704h6561A027594M66809D04844b420656l881548Q90689b638477E49365
51013i54237k243763E36753J592769i94257d30302r56261M37825F16230k10006
51004D06224K102427b57217j815951R13650A568928L8309J024386K088413R46210
50995E666246j166726j244767A596421j88798B683d15267A553189J372956A163085
50985B13475N76118K134108G62641h69242m82665L67359G29250L06827C73017
50975a998177J71191A341999J997935k37122l58534Q2012J108988j471867A058824
50965A096308f07244j205535l84838a014297L69308E74362K658421F27442a571617
50955a856029b87158o8630A43442l9371J157909K611395j784A915242r02420k3568
50945I89254J283284J06876a803240p366385J73440c402710A66344J042276a476186
50935C55477d50976m346790n40822K040045k26875J66890c46886B79486J584064
50926A863550Q41409D37938b742669O9291J086792f13689b60228j642758l132307
50917e035293j156329c036496a166835k242510k795374K011321i40591j709947
50909b650538j413821Q66323K9683J504603e12326m00118a81636E80962J331134
50900A912096o27546K384039k30650A504958o44274J89443B94600L82663O41566
50891A318829Q13786c12936j908771p64600E41277J79544a561190k800063j320551
50882e681804K614111p78385j761874J599512a530135C81761J438965k47159b30740
50872E73964M97037B91391i1987M0495B90687Q92241R27128R92735K831570n12136
50862E422225R236K154751J032431k710450A699822h53426e6366k49404C50905
50852C671788K363055l24706n45741P1642j521376k94422K72519A428686h20736
50842c122879J100041A188278J826925N61673a00847k629442j251274O00442M74328
50833b906793d39375C78921g91718F89287J096114P56039A099711j43350J648981
50824B605342J403615R29672J229507N73480k263090A519118J994596L76105d90488
50814b032059O26132A207159J728268j277679a092742j620754L04131Q91213L08002
50805a210150A321175M296891J51880A923455b885416B12220K39126M45527a047796
50795f92542m1016m48766k389682j269843j948083m86076J515635M75024J293216
50786c992133R2532j258994P66513J872271R70170g37568b08903k963000j676719
50777d848622c33437A906165M6037c77561j465150G69000K225289K24629L11135
50768C530053k71519o00529l10758Q86032j434869j92159a888800p81702j291106
50759c961608J678066a119207A451760L172880R82399B784830A069414M9425H88
50749g54001j493258O55965j88089L56394A34266J943199l6099o90022J259805
50740B611149a18535A462250L8372E31324J717408L288102q96545j976781n44051
50731B119457K98761P61457I70749c02721g1197q75048B505880L054450k541112
50722C019218d147472l796270J881879b617437g9737C959495L606125B114190
50713e377148k283154K014919b279549A929472K205883L48874j146435A638680
50704B213518F81426b280453h97456r86153k544623j851146Q49821J504744J30977
50695c793836a275078c96840o89705a62491B711142L347932k06562O10460j589023
50686D873949A623435a53227k110546p12157H3223J960553p88428E52650J620401
50677B173051J76307Q33963o66144n86148D61550a201636j294683o51164J296617
50668a850866L70855A322334O77035p57037H5524Q96250K844825K163931k380807
50659C609723A164414g97047A792048K678672C39801b369940a184717G69326L055517
50650C824843m74117k34728K022984B548791I34309Q0811J226867K346486A311316
50640a599177C166996N9542i57752k804726J804428B549236L768524p83385j332317
50631D202058Q70770m28001J060974l36429B414211H06096l60103n1781M92615
50622H86827L573490j86632j251996a750077j477170a051182m78199r96409f82285
50612b745908k275263M2733l95065J525951r30819m94937k50583J21953k337077
50603g739015J675779K180348O63992e69113o19203j689333L66736q32703q48312
50594d191928p57382a332502a02515j906874j396725k864767J962359J077115
50586c231407K57838J63697j125249j632420n19669J054302J364652a236139e2484
50576B45896a269448K56667k42180m60678j134849q47186j663390K464161A28566
50566A879655O33189f16354j132473j027524a362947B99875a568678d17673E7507
50556h3443C640993j046530r44362K089745j069468G73561A07809J944706J5104
50547B067619J673055A777851e790651J963155r65830l91382h31777A581780J43771
50538A725551o94985h99074L16151h984C002626I99573c44660r5404m91312K13589
50528g17787k19486n04164k018077J156005A221893J174132P81626A312346M90524
50519A802870J3130K24752P9883a370827k764638K39513a041547A879352K760349
50510D639701j584631j355682a02157k807911l933760K139065a839500e60607
50501D57721J267756L81817i13108k036828J25613J41851I31179J583627Q96698
50492C411504J522970k118950b285463m599319j900473Q32210Q00786b628141
50483b760556j429443j295376o66682L037641M86599j826104J8089a599889e19584
50473a9680G28071L79988a823052j841473a505692B189267J845716j58566A167885
50463f23138j404641j034392J184962B101257l8034i52313A931375J272595K011316
50454E215286J69635n56719j632972F40041b922213k422402k476674K841712b169397
50444D48240J801948j069420a224878n008348j208540J983717j952229k305526
50436i715804d453003A259309K633883Q78442B165929r98175O518A21246b804672
50426a211100C77907L13327g46958r44540j993052M82485J220963N67279F15304
50416a89865r44116j443684O98563i4273A679230a127112l81603B270077I49552
50406a371266f9501B668921r35891J073716J544298O00074J06346A818354b240407
50396e523821J16642b528200A617855K469937A935272b29125j121066k074779
50388c424970m63285a717177C30007J419498E35862a925637m28310n66344j986829
50379d907120K255579E08653c60115j217823j263751a089736F75991A10774b724346
50369e447384j540525R5475Q43292K758539B566407L636193k525550b277737j384305
50360c662042R52736M80371i58734a15400l3323k726455j048793k58161O67395
50351c514737e10318J94847D70641M00987b17108l45309A9355a255103A35275
50341b620143m422738j81517J145929K929643e6893j852909k089968q47101a230212
50331D031885P26966j935334b152857m509328L048559P46045l509267J461966
50323d914882n41247O55103J180613J77792o25822N78469A26012K607536O8411
50314B801959K16088J105103B059869a078015l915106L28406O01785j68148k549103
50305f780181K311658g83346o59501g11153A562202K242982Q74239r56869J119420
50296D841974K095326P18885r2899j355425L125948j543777C819477n62137J969270
50287E226610B159273i88860B554891K246014N91796l10841M99977k163565D99125
50277g99742a08922q89659l05492a5246H00935J838860o64086j84317n93560J5930
50267A213762m99768B37243J754094b18268j244277B679773K581290l33609J148111
50258F075565r59872j025487J28818K21100A446130B71232c066911j379384m21878
50249d868173J561191a079013H27003a292612m67838C85071L114815J897838j373135
50240D024589j377843a318533j796867j100711P14142J662320l505152m962219
50232a0307020J480727M389358R94813J590538g94932C161301k94111q12581q39479
50223A215130b02302m9242l92690q42344a20539I83691J020916J091699J306669
50214D402975p33323A359937A54541J955757O510688j520954k493927A272816
50205d1754A92876a253706k810745j676095j229496J270480O26569b043579d32937
50195H37487M36091a239119P8754J20475L41155K15580A660465K179754A539119
50185a256116j21521A137598K668441r28426g60093A718820J456172K117951B376304
50175A659316Q61222c1087j714581J51402j396384m219575q7301L305709f32062
50165a886622N59530r08027j293731J533995j65627q01403O96780B448470N258045
50156G706515j016996j656284a039185k884456J658112G10231K3379f94848B278186
50146E332436K76518m46418K57397k679189q22760h71567k105858n02922a44238
50136B143529K305313Q63216n26376j830199F91464L2018M29061a162628j473146
50127b635774a070779K45744l55552N46095E47856J54369c55849a62040B084677
50117C023146a054820j51605b08095l58918A813372K659456K29882K41391l41554
50108D602547H09333l65867i70364p24027E42666J967190M42742J42628A386897
50098A863105B87725J678579K244146j519119q65774D68279i51748k095482g44316
50088E02056b815597J384254F43968b42785k393742j128387a393164n13779c45192
50078a30378B76746J674010J394207A465201J26753K23153j51115j65946P59067
50069B257113o05779b309334o56271J155482f75210j305251k93297c88983k702094
50060c091077n098623P19683J521285J271525J942767f08814p03408J95156A760003
50050D093224J546549j171409q10359A181489b5172C301835J982558k103683A003101
50040a054727k334138J455343F72313L765231K471582j480068C60600J510054
50032A870654L78947j02404H5339c650497m800666p14563K345802K461474K152260
50023b206190B265128J843331K26100G19054e63298j670473l150083J141451M69359
50014c773044a231236q38259l30856J095937q7078c10427k74363l68562j889237
50005b842589k544050k496799j210606J223362L171594J087377l641792k082476
49997i335979J735377c758925A98677O8901a077281k05463k47696k448907m31503
49988d410850i1627F73007d684647j238606b106362p10325k359478K279221g60412
49978B284428q2851a42991j219417M79897j962678L1423a361729N74775A12961
49968A709806J0481J105894J682233j241438d44573A222970J709682m78543J996399
49959D450508L14018i29068j500920E72083a585988m619806j917791J081830P8454
49950f963301K834961J259008a432424B41303M946641R97974j734971M59473J613473
49941F523893j031179I45283c198132R92308M56570q16475j8890n62930N13148
49932b634401J266831I74941b37341A132199k26310d69496j047834n51479b26816
49922C285148K957460R28323k299827k173202j95374m22027a584460j461233C94789
49912g96181k634076l511114Q15116b335670A644291C26359a073652B35605J884836
49903B120441J675149p36652j079952a837651l502428J176585r10581l74769R34339
49894d514505K017537J172319A722559J690429J003789J097675k710443a066686
49885F45391L25572J304484K90292F64994a277346K7725R8355M58432C596412
49875G010624j95696B262088f9626E02536d3407o36309B35491Q56138i71811j360571
49865b332382e66420D608051K919744j674151A524613K40846m87882R2712a922145
49855d001973j579870m01308k18527J50196J374161d97038C619004m49737b007575
49845c905057J337180d65140m04177k24105K88777r89636k40300N12452O67915
49836h54214I66480L45175J540173q91268o75414j99745a475852a00122q14558
49827i14680j39766c92017j095790O16373G27408K076594K043315J207576j563684
49818D491209A370641c203498j667644j152361J707399J462338M12959j573730
49810d014537J756487b60005A609194n82214b569258N71045K48623A459831K710032
49801D169863j069382r75027d54568j32342o06943M68346k16398D0846c866879
49791d171590h85727D70115a776206l618714k712621J448853b249058J123905
49783a125153k802635k551763J857683b072672j29616m28710J199556e54680l86529
49774i41209M64292m41688o63842j698298L29770o83358O24156I65837D3468K670702
49764B714170N739480m72748l765518a730789g20759f6668A103492J148611k42310
49755B009793L24267L654373J270707k792731j489529N08220N95993A706083J21375
49746A827458N3782J814312J981577B128416H24998a34698J3477D17814M10153
49737H27967I4886g7374C228343J417351k155618a994902k198469R30400A7102
49727A449689K799241J167343p65894B177859q36214g76492k096114p5034A28648
49717B132279J63248K08905J72592I68306q2880J755067K692844M15612E51090
49707b596863j79797L02628k97510q56772h1411B565285b60801l296105a127752
49697H42657Q93192R42033l07984P64344M57920j45542j51879j641555a093544
49687b095378i80195b696j972572k611343K045942A909426M860950j899745A145670
49677C31417O05527D4756a744143p05838g64408n64877C00050b20323j280670
49668a500993A430436J347693o55590b77992A77688J200383O68241G42064c083994
49658c544964r5483k367825J238778a264891n1846L92682r5414E99926K831585
49649C431511j500719B38947A15012K570687J405010j442715l43953L97606b912379
49639f904621j217961K745881c49692H7561a193184A60929K044255Q67222E48625
49629b579186m12505G57347J676842J309732q97161F16558a862682k124892j629425
49620e616999j320233L143537f08045G48509M28843J85795R90341a221235m657820
49611e879055K227799B252125J890216J336654j144860n41506K84370A962494
49602E99717O03595O94832a821324k625485a069356A178472b290678k403222J127363
49593c566537E59610d9442B392890R73248j395638r38999B56170Q3850A68447
49583B166241J151638j572459a435791j73074j237875m47812J303305P73136J43909
49574a074202k18553k685695J09252a240990B930576J479287n95317P73850j848291
49565B740105H14293b435834R54294M14741d08255E34432c2089k644039M72747
49556b203381j398575A398474L248578B174948j010358b768266k577005R05307
49548d439964J201710o58547j97654K029665e26455N6928B036085a50832k421899
49539b572731J088907l79795k656016J56944P07034r50297M14402J953847a22777
49529A200807J515281j00601K62157J454440k0499K4775A899668h30764r48308
49520a779072H46055K799220q9203A25449a256788B27499K680722p82670a322827
49510c300360N02440c58821A332289a122714q9595p02979B79714d0971n38295
49501e79266A731242H20681c14300l215301j297610b243423A185005K144951J00167
49492C430123p84624J573559Q89056k94144j370687J912442P43242k92442B826038
49482A161829P55849h12905B22483R08119j88198a166553d06658j550838f24162
49472I35471B78641N43121A04359b27651B617036L108760A721313a383175a40966
49462C87162c033232l554568R00681b598396K21877O26513j808910j328184R51216
49453c935884k503890m92990m23222b613238A389016b04600A213841a505910K19482
49444a286428L50123b37938k619820r77438j978492l951453k6978R90643L553051
49435e248425a684984j242909j313068P28353J552025l30913k381516j875775
49427f548787J975028J665188d01559B488827J554229J634584k360908j024683
49419B292049q83930c304582m26219a138638j80008B232541J823044k0173j216634
49410B818778L4374j341954K5914o31343J266226o46258o03164K4081B61115g02809
49399C3418a403253j228452j327652f3069A646523K37252J566210K918299Q96594
49390G264878B402927H4927J526702o03729B46602J662281J181105R17586A386108
49380a372859Q01A315396J314772J10893k61458I23698P18330P69064j190668
49371A220424J6433a18150m02973O6775m69552l910771j33956a248249e18360
49361c50561d0293j213775b16304r989k546585k217189R29773a579962A023468
49351A840672j39556P55297p32965b05361j546249d77647A073974j45704N31055
49342A459325K473340m09661F97373J72690K120457K386160J321899j411124A986390
49332a045098l840717L77673c73569A450232a552097f48829a09091j132045A054856
49322C899809J901113o61539m98687j627718k45334j279520p37097J42366h51936
49312b768100A009626j46039g24872c2679j4804k457017k166488J279850J242001
49303b149137f64657H12336d7100B755549R29246m14060J427530j48744j896977
49294B652544B11860b579693l71199m54090J130225G22383M425074K322102q54904
49285F614655P24448R8944r23604B631620O52870J818073N58962M12725L367571
49276I441821Q4572p88068J839j485424k561263C4763c831144C46116J023931
49267A370047i43764j459115c87782A164283B39691b769578J366889A095916N41483
49258A637399f14000j178027j115201j946178n35643J350745J826742m3620k422685
49249d677867l930976O71630L675920K94720j78268J068275J521450O11987l147372
49240d090501P78630H51267P36587d04425k28477n62694m38475f23768A066501
49230H35141a107663j690964M98695L67122k683631N47502J792358k415320Q85601
49221c806300c20988B48366g85933k518167j407159m37688J613863A03426J933464
49212B036890J509807H47748i52600L77523o08666a46696l43031A215549J582489
49203B798038Q88927n12557j34589n10304j061523B87765a157236d75525C973600
49193H179944k494598B837146N33628L24857r86843j234631C57502P79476L426947
49184D563925p23636n24762b7481k198567M31945p23970p86425J635370m58491
49175b127619Q33734q31082j281587q70835g77496K69520l278110L49347R12983
49166b523756L62555q79753r75847a732252j487143a18079D792148j092249j075581
49157B624318l03652H46290b9238k765200i10744B332685K16856J136761J512911
49148E199213B228817I09828Q42030f25977j863327j547598J907098j224530j412320
49139d766654R55868J22419j045962p41123J421331j277453K02240P45452a529428
49129C8834a448812b08413G82206B15321h00389L18456A864872K74668D2551L188
49119D5739g14047j182898B40112K14762K185825P40780B20813b225109j676403
49110c901512J100376c64438A277248J145883k74218b928584k32144J367525h70467
49100A194142L490234L711534J1774q43517l54541B029027m50210M68019k09620
49091A837216M41225J537041A836487b826009j739837J007448G26464M62847m17218
49082G72093M799810O03109B84436c78305A657390R45153l64733o74975J200816
49073B763651p1370A4258b291546L51749I29172K090442l61514l92045n49324
49064A716731d82213G26235j77861a451025N25616K92635k602184f72545p18060
49055a390605m71086k409878J355904A134673J518110j181783n57960A92152c8706
49045B94595b442806e01104C128302J102845B061302f31038l524288k56808J560590
49036b851544a257331j871944L06069J369914m01972l32448k330072j106952a759850
49026C138427K392154O6281k791277b11918g4607k86580A796440j55582F54599
49016B74798h16601M9724j754818A405106J90017c101845j091425J164480j874322
49007d903112j345130b255884H69009b110678n6842a93327L9766B684547L84991
48998C069538J420843K778189O64727k597432A973199b81385l532862k671039
48990f485286m41909P80432F818O243938k053049A561006a898847l704950k393364
48981g997161K897L719808J467570p17075D51298L516236A739575j75258K721411
48972D285728R2060j568156J119640j13139A438543R89162Q56901a674912o59248
48963b334160c67039B594521J024243j394270I68427Q31882R01155C73516k3902
48954C49614e52646l01378B602171k8589R23464j399688a31536j214326k91073
48945a636935M80264k667070k169974K105113J143020g06632A73538a713214j648085
48936c361299l454532k624348L098872a888985j451826j268064i33904G5388J644978
48927A720366K149859A215239J092357J659750A904674b114313O70731n54043
48919a997625a61462F2176b25483j095997l609613J831463g94361j579983j7506
48910b391850r67521p13342j642576n60980J598940p0342a387577o83061k05682
48901b276320J7877o46646q66183R3918a645482F42265J567846R54064n74865
48892B589310b72703a4544B95018b169001j701074q48888a579739A385314J850538
48883C235852a498413l439998J43697j618319O9401b862531m9496n53655M88903
48874b976779A69877J754877J148585J460923A759473a865126q51759j95150Q62387
48865b049648b13753j329868f58092E10141J155775K704300J49945j846016F7800
48855d21835o18979m65398b76581I38171N27040F67168a952096j604254P9039
48846c477311a95631B606679l66500o9755l35858J756045J409620A978544j00656
48837A877888a06784o47238a54556B700663K096418A250136c129754n01295J263476
48828b367573a048280a33689A026781L18411J036040m43900p83561c77657k333654
48819b711311A643755o91017c289014m23369n1920J194993l071185J048139A341514
48809B571216j099617J707092A297698c170680k147175Q98191K075238j63853
48801b508279K44359J99759b95168O2385E59436L157620J296346q60297o57946
48792C495159r64135l58210M23218l00482j050683d17162j401678n68850j386203
48783c773893a571845g09737H33247b448722O02231B373173L371535j628444a897211
48773h14255H99992i03457B721743L42967l55935J662787n3589J58942F92820
48763d637810r182N26432a743183C61616a252235l082401K70265k516771j294554
48754g875696l42202K701803K278729a091332G4728M149253m00652o37902J669728
48745D855155j046947C1612h20118A176569P73540l20313m33444l289C2172b115935
48734a683521B355661J598640J18627l75281O33049J539665K922800q86585l916620
48725C989956b795686k695223K146104G74756K765516j766819J415716N67584
48717C756753j781296a007424r35369F30054L985635q13041j840157a023243k658817
48708c682060l655923j710405Q61231j201918J371817K704233J593383R6058J796094
48699a827490A385101J408704J77253A397493j87511O75905G50707P5967a330831
48689c979596J183101n04443k795478k40244L139127l1452M1754j270532n31213
48680d988976k731430K22116j452102k994833r01589J943347e260491e00915B39144
48670c168107O05994i89730B425393L249288j605728c91139j908647P81282l65651
48661a884155a91764p29669j059825B233634J265401d18519j502381i18082D121489
48651A166391d89121j912702q39383l69606n22896p36651l04750J818299J299898
48642b056912n30861h94124K33020C66475Q00790m21490e37222j807794j50468
48633b495484A4249N100712R45032J305338k023023P54478L88204r75491m84563
48624E024936K076376k354149r40965J228403K782009k991083A18316K344449
48616B462765J836387A125987k10371L275316K471494J44989O46960l49476j489381
48607E615518b89357q04911M0735d91955A057757J714005F51625b562705j9894
48598b582599B030630N320912R56380k910382A027762a053336d28675I8870J10089
48589B08959i22635q52279f9200k400797k37932r71222j063401J099156a371693
48579C91668b156860K4292C2118c47984m045011j558431r1202r0570L15624o61642
48569f479216b635362C06113h16077K29819m53026j754465R73674A909523q34211
48560A075312a426352j642080a335829A87546N35983P26120J08728N68713a24537
48550b890852p24463k603858L50233K418163A634366K178089I38299d74488H61056
48540A139975m13251J070508l78722c062517n32759a749716k86064n99098Q60889
48531a773989j96642B19767K674455A239331b727632o41402F71725J832662L52407
48522B856794O19965j150906j074366K722730J619232j157495n52955K546046
48514F429045K814039l208351k795054r96523H09573b006815M57195B305636r29597
48505A376039o03478i01978m067529j132701P53364b664475d94441n51285A53048
48495e18460A146302a354925k937645i99321f4827k294991m54337j250980R59620
48486c105515P87547j334795j622941j09663J993255c54809I3995b022622j112276
48477c134898J01621i26499C537190K654166J565958j973413A547600l93178J510459
48468B664881Q83151m35242A364089a940452d01004B277635q43333l47307M04590
48459A491585K931594J266281m25876d43188l413474p70556k83936a281774D67171
48449A962358h4717r10142b72366j444580J2263c71217A595733J381437J871468
48440D848638A975056K462118K089622B117441b342223q74087m465779k030083
48432i712172J372030a065056B98377a805383m23161C095086K728372j590912
48424D232546A521504k40197J157102p27858c332599J590311H51301l52930K68890
48415G67261P34115a304745k058747n34061p71519J736049A243688L39416b132205
48405a412814G03772L28433k72543i7803A264929L60499J877643m16013J470225
48396D557283P67320K62142r49763j37602j004867A345388A43983a410563j86244
48387a596807d87550K20145A698729L938296O24981j326598j436188J323515k180475
48378B642260b278035k422070K272790I21295J310224J011935M32622N01070A244232
48368A212404R34520L69966o24811L64807q57551O3999L52373k96338K078587
48359C597956N75348m5179A876488P31015K494997p38278q94174K55613A817463
48349b327418k416223Q84582l01782m33983P12550a790813A133d898737o58649
48340e557386b071439c61822j927850e47597C652031j727785n97626J708280O60002
48331C694902A283313b808432j118259N70174f31935G42062k17493K908738J290825
48322D724132k212473B24122L25290B35125L82569j31789O79338P45292N97728
48313B508263K90684a26509l183378p13657J063955a043042b19559A142101k62246
48304H79855a178685q47435E6454a2625I35872K97728B97367K892511J469928
48295D659806L049135K904696J71352m331937l4653O60814j82053k009558j427841
48286C459761A18841f97680A015770C92513r2334N52818O23142k58293J408470
48277B626316K633966k375993d356204J142760b16319I44784J548224E09122H8122
48267E12629a136472l424440a813155c03161j033252B348516J466475j55228q59999
48258B799764O27664H53512c557074j274291J64916f45841D91566f438972k116998
48249h555970M006574a741823e17550I34906C45769b777677O94078D7634R81185
48240A028819l90503a579622r08401A177041j6780f45631l117678a25213A347039
48230a586697l16284r73241Q86407j68179D66195J529297G42914e06067o19610
48221a125677k691391R46929J049137A08335K432644A68136b234019a104811B74273
48211E17110J017416L28880h64342L87501B470579m32707a209916l631436k317534
48202g158886k945701J470516L170347k71344k977489j195431K272078K922154
48194d713756a697669L38740r55677R63324E29454K101888O3950o672j204824
48185A483796E6091b704121k596360J57561a706774A158854n32353a358810m20246
48176a779056k30686A303083J499058K522183r9242B583008F81802J05133K060440
48167B847375k26115b28267D11768K606516Q1559a39131k349625r60936a588364
48157A67517c32790m63272j017487C261476j305361n27256L042162A721924a500211
48147B392062K683457B337448A114593c813385l084152j00708J073105M94628
48139e430512L478O21215N98893a877333A019007e76973m843056j325779O81310
48130f064498J487717A188739J018384a823167k356718m10252q28313a949870
48121D465471j332920I66541g0768k050114k130682m06945a846869A436327R49604
48112B385931m55414C18290b334903f31408G20386D5728b345970j915228a541174
48102A003408J609346A124163J701323P90758a315054l841479k560136m20853
48094h137522c904630b19604p6454K111C013802J269096Q77307L029516j63271
48085H026450n61891j702556k418115a98786j207645j487037p65432J002352J182721
48076a473827a19790c0321k262621j222700Q35986k17909J333608j169098a342651
48066h79444B170825A56224e19025j543377k782245j084305a764757H38403b030115
48056d419833Q19574g41120m27023k194567N75918D98340j58713c175451q16283
48047c991734J000419o72422j276074a821447E54477N08347d73628q90030c39159
48037a75220j540594N92199A28289R97198b30089a9830A719416J808556J349729
48028D877701Q5801j267560R87279j26105O81124K25940r32977j915205a45606
48018b806340j31997j18210g27588C183269j68927p87854a66024j133996N7635
48009a242385C35179J264268j81720J2108K28230K77299n50598c163439j676708
48000d840147K370353L75396P01252C75364A52348a355645j50719k494302k65061
47991d265727a111597A42078b803136L10138B76753J558805l26011k18h93468
47981c031997o95735p87432J572899C070805K329116j630436N14676j83063j943168
47972B157930K35791o00791b359616k141134j239082K272256A245680K174612
47964C420292J175491J856642q82224k11966j247633A018370d619431J527863
47956c091568H47905C22633b251720m57593k99380J124617B010107o60638a162003
47946a018984K91556p36591b29299l88489B13308J88963J081599Q56347e91699
47936d703544J493288Q26063j334408J435846l20612b71834B765133J056401l87648
47927C433886A255817b024108k95561h08814G5714L63521a65282l199215l119584
47918f484081p34303L163510d05056C093605P22132K832793j106043k250009J10681
47909C403159f65614l862557L9918P3748a514886l20965j286534O41706J117381
47900a363298C07596K24135c98702B75966J343451J782577L028251k398844A750783
47890a035573j583142q63736k60199j706486J818100A27132a505534J2242b15244
47880B934484r48639b42181k815792O34632L50975G66668J279659o84336g46952
47870F80660K494494A325940D96344a658991k110620L81308p75805k367226J819787
47861d711547J748672l9a198316l96971B321391o57832b129451m470739M57793
47852f142397K701563N64885a368406B77936K767317J638742A70902M55013a414509
47842d102292R41288d05569A85870J53561a72898j130269j514340Q69135N49289
47833a399083j595232j50965I18807J23212B99743K191058K269059j383209j499367
47824A877284K86260a467829j691056O56267K87071P28180C46520d03095j751778
47815b154873A45288a448344m32144M98867n82154A403132R73232O90219j451803
47806A614780B8908Q92566O51736K972848M433290J065681k21416n97941j345880
47797G879792k773799k351734q99739J223609K079542J022651J004003L84984
47789G569309j931956J753353K08515k151807j796673N39096K184203Q78103k272290
47780D979853A938425K047299A915090g24832l46620F04703c4111C158831J024634
47771D183465o61900a055970l358986j652203j105412b984998a416216b49833
47762F00958a667250K23700a45173A861179M726985M94984l004688h92990o56298
47753a549288O99805k441529j069912J619440k06974m64633n97100l292446k203612
47744i506249K929048c125429C19584K589130J173595M31080J212474K327934
47736H053797J253509k558258k570514A250472K089215O07124j537586J736408
47728D145633J785090k166365A665847B16638J966594J23008p08320l42221K968011
47719D223710Q28053A392348f44661C598553L388893C334026g52379G56797L495315
47710D252112p97507M05230A604510c292226n252116n35556K064223k804764n4010
47701i874449L500589g17577C523914Q23395E05419L23336J209189p32401n06105
47692G99438Q0329h66077I33350M196862J743496k949297A380999N73840K39313
47683B194152e997o1143j978805l425804K692814A216007L701179K603235l32384
47674G188037k092315F07375c528206l014790n47542P41856b839194r9529n10645
47665c449368i37259A857563M14139P89562d03289r14381B075168J674011j412909
47656B336270n5413m51230p64320l24233J035087J053494n07430p18459d30451
47646c723528k86976a961242c25080E284019K633032L53656l855561B105470J627815
47637C733285j839342Q19261q60257L069729K82891A322591n63908b00290l434986
47628c635276a669701c37135P4184B699061K987903k111062H68853c045533j439198
47619d484731J080684M94252P55762l73683J049698a71670l3352k44008A342906
47609H24357l64127a523987k25100A630163J516099j083103r39412n37963L057114
47600C642898A369717h91968j393456c74030A176665a223411j098281h41317E24723
47590a034810L33947j837583O28484I63676M76983m81868C32298K065016P73429
47581C170743F91597Q8917f28053k688255J11124g76229k787619n268687N98239
47572h234296J682767K867881J368015j85063j934553k727598K184684J674212
47564c303951K44889j263640j90488M90323Q4626a772241G32559L37774l39408
47555G30925J14889A37730d27441k090343J107416b77724A359351K385412J567206
47546E311969n96270p14688p134j306410J964597n61725A766409k67124J469144
47537B968429q81888h5775j43131k00869l837133l808514P54269l33005K546619
47528e107539b417789j345277J045274b63687r7909j280294A448670B23286i60942
47518b326219l333547n2195K346830k45581j273044k31388J032712i84078I71460
47508A201178J452210L80213E85785h66813j099958l980403r45088K748582J756538
47499b387142R0380B94394d04410j000805A958506O88332J883921L586257n75542
47490G541474I87458e341828J462904J304435R17448g6559l189704R96291A454581
47480C583937J907300l77960J219018j88140k000340L90305r92565j197843p09100
47471A634612P2867K98295i78631k336396k518597J393910j263006J787821a213352
47461F17043a678872j856989j117013l25421n67097K760053h71716D057169J647661
47452E704830k499279k2155E66863d81832O1691l097831p55719a384941C286311
47442D007708M64903L28821k093779a300401k624224m60178J562516K21359g12625
47432h77887j46015B340288l12762g82896j429681D03589J310964K127035K150773
47423E992361r15227q86747K03535b06500k429512R36563D088399K290327q84713
47414E494013j69005j700764j603802l43870L154448J387933j870371r9201r67329
47405C282052N83819J508697K05377j534774j079906j66581k23661p69385p16220
47396A089418j61172C58441J131490K861009K797019k965977j995799o20695K9281
47387A594769K75531n52260C07486a81661A152836K318367J305743r11803q67282
47378B997861F13013L404015M340269k366805k977558A327473m65209B23512a470895
47368b16003D055810M758217k219289A744418b524862l43066a242410j552660
47360b795070k035110k85906O33305O97510a511502B372596J78022e54007K36654
47351c17353C767194L381440o60759j925337K40497K097789Q50527l274636A481692
47341b084427l410886R15138P22620a308377O6952a63603A72031a124487j262160
47332b386647o58761j091126p38183b372556A613892L261298j120666c60849j169288
47323a530137B28263K480767J783b63095m398650a344920D442329Q29622k27460
47314E044491j573117A650808B64221a182441M03250E22771K718952q91226a250851
47304g92959A003421g0069j142796D0138b40985q12688k002231k472539J96660
47295e331783Q25702a796032j915599r07595B74130N869105J122700o58735k846338
47286C760862e14394m145318J205731J287936I36347L983908l87211J033103j639686
47277C926461I49419a410597k80811f81961p0367E48183a16814k90708B742141
47267B415361a88747I47J954914p8162d036A955J838070c197186l090746b978283
47256a460278j188856c28443J50603q99019q91870e13791B92732J191916o02212
47247H82436M95866m2781J680289J030581b49493m44012B527586M02903E44352
47237a288731k887585l378662j140857J879023K820825K33863a571769A036344
47228a945937A59496b011432q94144h36318A314202a594012j557687L04576A528059
47218F172605k04780B183697B8826f37144B122744M642394k203945B30936a178952
47208a095630A185854a593300j878161O82730j523924K64528m10652L34963F14613
47198d8393A29366K927063l42218N83315K066657K398091B983510b021135R69822
47189a051313A217202K375601J736156B336217a907882G1434J416655g52224L18369
47180d33855I22197M17585Q62319J045685A455339a284273n90497m90876K14316
47171b151330r05919i49618A953634Q35289J62133d415l10438j408251g13336
47161A395091J37477M25006J558704J628783j532185J864818K27224D59109a460348
47151c575737a560304J91698C43764L098905Q98136L66010j470020F37092c953147
47141i043928O79695c277447K47724O88686R69570m048482R40893c97525k802
47132d00327j217385E49475c80204M3611A44634J205271F62917G2340a51748l28979
47122d80727o12062l39621A672871Q21875n325F62395f17988q92605k138421m24117
47112d073131a57511B811152F95695G9520Q23234k08632e52200K67587q11851
47103a096464j929914J91931a76933q344j204390L29124o72479j362011j589056
47094d684089a816458B242233J59697a258134j173234l759139P0915K401452k88762
47085d006902l5138J815363j509192l469141K004676K556525J234631A970851
47076A161829a047813j467297o18664k50149k6602a232459d22986B30185L95575
47067F25760O43377J345621n06421l03683R07300L273642j019957k182432J91280
47058B974487N62281J815483J136248k331385J187905O70298B498346h03830j033548
47049a837378O15675k291984a257830B15422c4831l703908k445331R9771k88579
47040f372878Q11415a484752c50341A882985J075181j406771l47309E4132g86629
47030A898824O20340D85123J907864L527561L8089k302970j245650F23703g90127
47020D42793P03782J851329K643018M84893B842880l18465P06220A359416c09930
47010d81579j766229J27351d12028A151712Q42457g98824b55377j362201L99079
47001a218499M054A808832J290640a822299r43533j177582k265600J702371h18294
46991A560543K212323P76918j820717n29935M11564j057128a484502j177968J265692
46982a396778E28954K955040A405409a614771q55358h07846A155108K095686J102266
46973D353060o58128j07613b23866k332853o22183A84279L800567j185493r32809
46964A866544M58073N13835n60197J137755J915381j022609A520412J70901K403493
46955D094806k08683L066099K6539n58601J163083J614389k229274k971105J00350
46946D097603K149888k157773f22277r23091B54843d48634d3719A599307m74272
46937A125035f85988c25392D40256d09717j532906g81075o56307J92807q69502
46928b114077P12325j828986j924218j144902l7210n71068J905023a437016A941077
46918D035570j324600K644214J187411k83315B280375M56112M52920j081895Q33939
46909B941451d74536k227446A00366K000860a245493j416928q39218B12075R60816
46900A172891m81392K544355K3601f870j392234j044089l885592k369395c279562
46890b678907J093165A463172Q87206L083325k319050j429422C22934f49265r30338
46881a579603p01150r42063k021699P63782D85853K666918R47455O68294k185635
46872B582885F61144i11811j603900m16781a037085F77715K165598a024727j391125
46863b415852E00704K964662J279173n66098o2567n17690k61006P55860j896912
46854B196126j057307J033295B47187a653554c7267r73254A105133K08652A65650
46844a276980c16096A152931M64135J516669k99191J20420L8142r88535H00919
46834a77706r23190J61661A22437K739283p87241h26024k918230n486375K89510
46825h941119M27448J410514K837768J486714P74423A909491O38049C38594e36610
46815h36891H16970R874b56637j02589q62744A516506J313861J452944K342506
46806F625817o96988B920511M5557j397167o11061C83252f49390k351142j44395
46797c144927B82696J687218r35869b512380P41584Q18360j876149a183380b32089
46787a627012d90559A264405J472999l37398k8583I80121a058860j379044k122181
46778d560085j354952J562568a506981O17627j94880l50636D99801J889682j025580
46769A363903P48339a201522j544525a258447A483945K647458m48929D01774c702317
46759b747478l91492n57075J527759L01251k64081q43029K30041f59808E03443
46749B66957b722839l7407i97488k453090k234292K242821J678659l2423k495957
46740d291770J391851n89701j035830J706693Q32165B054091Q33976I7351M13675
46731E11026O2155J558991J394914O09928G80030d47435A482330J12017d37789
46721a801384j328969a468203G8961a229064N32885b67939I15742K137015j273598
46712A779159C06854e34309a95593p01509I74407M319162N15980j048988m12019
46703D348542q81584k65242p33581O75559K938684K497445j566691p76710O45422
46694F881844k680068j533166L02830R11038O08792P33153o13300A534144j00767
46685A433377j8931J98962o06493a503564J43099k87160j605607o94894A012029
46675A196974N45168J47775G95196J488142A124566j67227a366524m36771d04991
46665a355443C51181P05104J269401P11238K094020r73547H36898b926360q78980
46656c805340l51649J048332a485597r85757n82157J64480l13960j332248r89612
46647e524851k847310J154406K093190J269685k165699k949670J506746a893408
46638A047046J803070A167488c191561j948599J032264Q83191q5608b82865A639118
46628b6499A425191m88402i47183o1306q0623L73043A958541a442522k94813A549400
46617H90148i7789q13375F13188R54228m60785a165389K90610a91522E74433c146969
46606b768535J167108A579279L241218O68015J476716J095699j135073B759576
46597b38615l55813k392900f01414D38332a692721A804387K953759J43506Q4654
46588D986306r28716j566242L020304J784620j985268A514906b841263M02535
46580b438728H15951P62645D3000h08325R3653D88331J615741D71822a837872
46570a994457h63386a49080j028555F62535c576171J29523I85480b116010j416609
46561c532619J297784M14398I05587k37714a657086b96358E32549A94560K561586
46552B756146L588590L67354j711993j368972M84290j089304j150509H02295P71666
46543A573961K690576M52579p67136A006769a381573J51353I67425Q02629K804627
46534D574681J970707J275870M72021J362362j295470C961500I40990d544549
46525e300885K489693h39530q45007L51134k716699J30155m68481J035164J019272
46516b333992n4560f6707A797991a23876j037568r45074k459179k769996c257926
46506A876147N06667D29113J019349Q37947K99956R51047M304255j294983j65517
46497F381167j43267p52724A360502D2609J34288J455225M55553l19151g34145
46487a630293q31885o90689a215135j108622j008228J289966c67724C777035J329177
46478E106212F46664a337880f21282j52671l638245L32361J250650d64773M8301
46469d16472j342694E13241J545586R11972h24859l213868J461465p10890J537250
46460a750902j231717j153615a827114F22276B90119f18785B53024J65754K08701
46451F27479K797230J40434l10491K183384l07552k469011a156018l83157j537215
46442c076390J222034I41360C08815M33911K368726p31414n91543J30538d87007
46432A107949L379899F08329b639494Q33071g1669B332392O4349G48418N92067
46423A340485J025733A38992o4890J417016L453969O28500A339696m78408a232974
46413a611532b53848k470416o83645Q97410P48703A511825M25671b831294k190402
46404e021696l75182o8452a439946A154308b587224l571793l454502k272708L887670
46395g998557K983794a950895q84593a263732B017747K89852n57591M3959b68117
46385h71132N852L47940A101305K435636R87050R83175J176126q67103k866524
46376B949665d73636C85084K570216m82006A36746a830727j666424J131063Q99901
46367a466187O17805G17688E2180a882280p09136P29093c61186B000551K04474
46358B205025e74057j685626P79499C211310K587347K195660J588706k045747
46350G537276l740067E01036a16574j160697I36224k81973b152828j725956j202379
46341e081163j286280K543573l43956J253068k515614k269103J613490K427076
46333c658909K80576J348007h82692G26747M83647k46437J64081J47516i97174
46323a620866f7160j857516r0387d79716A719403O26989a882285j625879j67667
46314c675831J180309A998187J810318q71966C67191c144040J547702q47951r15100
46305c359389N78428P50729i16356k662957J662380p5757l285698R18375f56563
46295A814539g5727l124561L51975e22643k661974p30914a360808b87675n7549
46286c45224B377761l47063e53610A226923l89528c564806R7201j104725l77498
46277d949828l130724j901652L705475P5431J040317a989984j797907J69233i50849
46267B341732K06404a29376j656243I3173a902517Q34010M14572Q3073K02380
46258c68482F83536L122422q90177J54249A228134a343114J53250j670311K85387
46249b574788b56357j681250n35534n52669l737863J676579m32570J086404h79178
46239c430998d20737A597406N20739A030547e96743k686524k580316K10866K502089
46230c150628h72204A398804J932320r05360o72553j86237M36996D34405c47121
46220A173670E75633M91124K609418j015411q59138e53213e1045A465735p3109
46211A392626o76588A02518L895860K056654k798951B51329M07946B66601c024244
46201e626359j36472L38702J210694L55579m48324m18460b097689N59284j112978
46192b651383k514812l7375K481247C345630Q97497K58403R68811j721471j194228
46183B554642J492134R96919p93061c3380j090368l96618B285232O43221K099674
46174E028127k162870a174188M52823l92881j123861m394517J624039b424562
46165e411467j804474J033014k073992p31291O45J252912L59296c619978a094758
46155a506940A53467a610113k240882k153038O76324L7982K128160I56784J143271
46146B100055H28430N87986P65363p05052J077269F79042j15208R80956l7845
46137A506945m186d38986j182385b11453B800488M029144J988794k837371B435631
46127B80262a913974k357101J42524R97288H12710K912604o84289c9397A000812
46117A984591F40161a085699A724637K438687j981264a860541l411085P40717
46109d530909L23106i03761C102839J321457J760243J641331j815064k590671
46101C420135G80546a124603d03483k19350B331389J255736p79653o81752J479810
46092C605530l00353p71580J826989N69468p16723N36455k269960a513933j841388
46083c355321K0194a46057C574520m7356j654946H10054P72751o2309K55212B98750
46072G40526a19531o80820m294767m89135l35476n55444J212115d98148D50226
46062D058288K051285j829844j727999l73769b92387k974644M28834J033097B34058
46052B421566j63254J343641F97304Q1908k66147a741144a09866D488600J920473
46043F409073n32651E9399b889186N54492k501705p25094J104827j088954L39906
46034e205714b584674j597130j761795J034612a934124a98278l66449k487627
46026c052354Q77215a048956d44019n86060m91389D47130R35897K596804R92928
46017D972759J24721r56640j395173a49677p84552n78517M5350d98502E24669
46007C65671a494960j577055A895257L076595o45310A704919d018561j361931
45999e380492j029954j20655q07545P20794l624430M191296J847591l240229k807290
45990a0250914L394638K782330L81001O11678N80188a219136A434676F61636K149167
45981B810803Q99493D88509b873463j330266P20638L45823p93295a284792a33888
45971B621103M53667A1749K401489J355455F2190c085968J7980g7032I99558k89023
45961G10535a846977k79740G75314l71929j92664a269250j935162a121175j517539
45952b638714j240608J404063J162691b52320A547249O54371D30204J675104O467250
45943H572558k791166A068533a763213d56117C834200j039434a897679l136330
45935e034009k61606L89150K25616k194893L318649C12834J102407K407628R43271
45926D766140j742699I38357a669372p74083D04097K890348o64485A30148a089165
45916A017187K677351j403207j056713O25331P5675E986L17772L776609r53948
45907C146419j218082I9591e710138k71069K086791j204187j70543K482349c86387
45897c251057j730868M16294J35180j48120R43062M04933e90529I31400m53918
45888D77482b248920J3599j39009p16989l77581J183824q26409k986058J832675
45879d264868D11922M091689J194252l29493j075003E52362a26663A986903K075336
45870D062239O98942J423459j101418j872229j022898j48629B25057F7108J46879
45861B13987a299222q19570H71095K84983e68848k53772j07768B24903L361071
45852C585974J369427B043397d66038A129424L128001K821992j310502k435358
45844C333557a094661i4536A354413J172095K185891o21952E89562c830515n84653
45835d415168l8574q8768j239423M54747O46762b191237J32912G9001K216247
45826B295248r18988a83156C3598N64068c773083j565360P98963J037362j20435
45817c622553N91683k265588o89733J073535a502982A274751l22763J340345M645417
45808F937750l27906k08407k749301F02055f55273k065248j295534f64679C514857
45798A495906F17833h02774n06239j423803i99287k21199k90871I30813l00902
45789F29911J602172J069083A354256b92301L7320I37816b49617m28688n9108
45780g37413j198815G88770K300602j049534r01764j07973A17940a400997k74983
45771a675980f06222g2054p3831D89955J540987C33263f365330j311617K634543
45762e042404e11052j01958l840634j389071J204500L31970j788016j677192J659151
45753f112302a132331D508765j324989n55671K199163K020555j493249k114564
45745C240010A475645Q34429j009955C73793O704474k178222d02176a5501j990925
45736b006426j185502c77533q68218m283065n76306K247091M86367h76127I17114
45726A332264F04622J500916Q68639N8181M2882R18111A811107b481236k853232
45717e334468l773047J491929c556515k031822j840473R44504K548403J828669
45709b107234O51384j646863l499019J310803a400072A199261l53417d48999k705723
45700c154722P94512g40243G7697M6462K505836J506378m86279K573053j150077
45691E073070A073874a485156p71224J10700k071591k970748P73815b486446O90750
45682a795696H50773J090243k60721M411905l32624B807955K760375k48065B192194
45672i78252G34349j12168a890679q48006n26551j880519R92576M50360a144751
45662f37602r76663c2820A552809j19177E75703a272850k196524m00203J359058
45653b510519R09843p81887a125835A695506p77309L200954L573943k425170k044400
45644C223524r28574L6702k69300p11007a342180j300508q16685J525368b51773
45634b304620n54113j10016f66369F83077B31972K142574o11559A86046F3247
45624I91699a625059q13624Q40806q98552J154343K56999k247210K51982e69385
45614i25885A93034e55341n13529r93718l19821A009244K057660J558085j064087
45605C560902j472053h95492j792817d57165j578012k158564O22601r1639k35732
45596c898511a61537D65463J888725L308675j389585j921939l08461K00954a82953
45586A002269N99943e20162A48240K310343J23169a485135l855671j542101j974924
45577h857831K599571i52684A717790a016576j288505m39081m68648J436425N68689
45568a207696d08170A066931b38051o66865j077297N37691d55326j560100l33110
45559b348536N19274h18330l81007D23585J280238a726977n368428J620284p15767
45550f190888j531153K189103K194909R37590F36615J309503p92264h18177A50525
45540b99895j203161N36657q38534k409977a177659N21363j701396j056834r44131
45531d358657a882572A09921a939816j22011O37968k109886N74704J177227j85328
45522a967142k17950f9716k646972k211234b151651B779661R79338A870777a1417
45512a473399e90422b23762k235883h55448B010371L218230Q23725l37486k418362
45503C296478H67875a421276j370918J148416j190190m014728R67362b036860
45494C415641K853256J150217k794070B108027O29356Q62169J240012K47354I52254
45484A234832N45906D76603a119902B86222a21266k528575l205811b178610B929254
45474e8183m10056A681745n1266M01237P75140J542252L121251K014215k852208
45465F632366j265018O00537j878604J50887j076602b5255k965176j109220a183464
45455d180023M08815h03650b85709p06588A45745M99085k62308J44602b037901
45445a82809B272388K12702o98772E91032b186436l045758r30465R26774q42939
45436f078824N70050a910918n85896j69762P05672j504587l86634J514144e172
45426a572259a66255B674019K917330A804038c19502j932189j125150n85422h23285
45416C478213J032098m20993m32305j823283a272784j909510P55275l25556b03342
45406h20636j715526N58604q91533P21309N32822A632798a117169j409954r40374
45397c467497J613360d7103B091398J211513A274708E23860N23237b29949A381350
45387C638777J208590j228466j056428r55190J81471L21677J373628K382361k622374
45378C244046b256349j888611J817988R92379c84424k560821J095316C71957a866086
45368a140795M81439l275671j089516D02316J978922m92927P15593K358589B364615
45358A161511k81759K960252A453032B70353J499544P56309G62832a51853I37623
45348g87358k718873R61681l050362j138038M60054p7628K147128J927532a14054
45338A109928J412271p76469m08270E26675a897999A877507L494329j054927e29917
45328c097897j218738M00569C5143K713007G19994l301i10684K19947C031842
45318C428390R14391L46828j321386N86522o84126k71272j329666m70576i38046
45308a677798C91804G7403J530867L788207J20888k281647i7081j633987d81682
45298b593286j451033L47892Q48988J353104j372580n16041B59015J45506a208911
45288b480759j188171k85537h08630F14813L118182n64633f65118J88138J76989
45279b99991l338598q56873j148341K393814h42878a80040n75478E33228A7765
45269e33554I6451a241609o71775g46768J49426q48229F35468J889470R28344
45260C453282m73159B71480J70924R57758c53943k975405a542899C054542K082232
45251E136774o44232C9061J571761K494517j270975A0744N34569b247185P07014
45242a540171O47842k132215J352904r74521L17831a064028j248670N91873F20453
45232B299290R37188j061108j078888c140363J476127F36903i60001K57990D240099
45222F991739j843134B208673f1942o57354j120093j23974k530710j146311b042581
45212b350742N66781Q14809A021372N13685K7838m74352i83171j837159l610983
45203f431313j53787M19024k26629c037643a118634A126897a639416l712123l37168
45194e688707Q22907L76913J379034D29680K003934b64853j887634k612061r5988
45185d860536K008549J034423j823812a038704G98716K616804J120964A027335
45176a488283p83601j15108m10284F13020N609432J663570k499644k686637A083071
45166a912383l120616b051299A37797c787483l060450Q9456a924341G24899Q84106
45157A609005J091621J067162j204338I2049g96132c38491q6285A149666j0309
45148A139357a63606B752610L371189k540704g23869j260468j539112q7175J048511
45139b562113c5016A358771M45377J22903J305585L358569N63343k557473k211361
45130B385714j002585M53910k91710b70172k892718j050091J845752j149930J278410
45121b238749Q83747F79069a082354L05859B196805J366010J833926J849177k023305
45112E222613E33503c337836l8035D95215e33018k67750j615049A125173M013050
45103E138223l28242A968783H30749K170044J280978j763825a870342k399360
45095d269702K108314E07316J855532n3954J371782K389457J708229k186295A995301
45085A876269A91617J76346b860293k328034j17265J870933A43157L888199K477989
45076F509345j174744j740715A537866O5375J106021f26538q13125n90941j183452
45067c214056N25649L82245l676076o7859a624088P33806l96901l79949P80551
45058h86581j41137k582461a685445r41426p69764J511711Q50906j557444a30277
45048E68089h01210j011652k27131e89141A203390J160500A130026a719185l52679
45039b071864C16024g07968j182252c34734A27918a586094j608246a278134C629589
45029D189467J24551O25114j629625J621351J845720K579087l533m363456j244972
45020C743704J727947j66798j444174A432392a067866B283090K591397B183253
45011A220720L05830c52377l427791R18649a146851j18568m20503j93835B190405
45001C735994j253432r22276L04767M90200A061427A07178J010316M57071i50495
44991b676894k53878J230273A743454P44789O14943A256965f24906i0759l455121
44982c545880j535877K492512r68845R2436J241770O00681M15832j589795g06835
44972B134798j040262i78119A101248K566164q58120R6159K963899j18299k279411
44963C471640p81771J175356K798502r95817j293037A993118K65021j052750a521024
44953b537045A02996K172567G60051M0724J9089K40892J209144N88751o33181
44944B225470N38158J098085j777563J420268A660820p2599J361218J696551p3759
44935D572231L39813L276707K781604j126923j356410l472577A782878i04123
44926a436629i6116F67715h83708j056001O21539q17969j57602I68174J45674
44917A113848c021940k787476a440114f21394n56832A230173J881889m41242L206050
44908E876870o49162H07681f163951j536800K037208b083192k94630K84998F28530
44898D291086a96726j491050A12648P50653c1216j78484f5940l102316j324574
44889d492830M8316O07575l15838J434448C89480J995492l08520q40760C6490
44879b23949l58182j803189k083748J751633h89997B360573K714266r84440A142066
44869D87649a684436n07683Q28498e86276B721069J408693J613871N76574k533450
44860C786757I46743A86762a490779j333789Q52648b86450l23586B61588J676566
44851A938154A15471i8974A502217R02832J813775J598418k091188A753577A54690
44841f49888A575627l70441a716778P49584A018892J99181a66670k333137j932461
44832d432268a788939A848496J542136n30770e66333p0257G7382a419783k8418
44823a448201o77902j281675j271207K60086J102929k78709j33092c26038A970379
44813C771133K857281B615226a025671j558487j053003K41779a61235B893065
44804D292444j607304j255973J387720J748810l17842A344859E85462J540539
44796B126001C29399J091211J023002A17280a410717f9775A657003m09121J810484
44787C058366P9668j474391D88354c440101j343276k99426a519578D264167k12835
44778D051332K81990J472922J32123p5931j392610B87707J898585J056872j310020
44769A933144K19457k76323A84876J180984K281780o44671c67876C80494L973987
44760D354481R43428O69386j562770G36092b313123j624891n63219P04855M55741
44751c340637k247746k111151K375208b118331A104913Q56213I28950a929687
44742d110965f03834A34852a260191j469657J310764K51248d7202C772897J676012
44733E448909k36522B033188b60146j620295q16467J088973A819514p08634f88168
44723h94601k915736o82595J620268o67950M74512l146907O90020d40559A702791
44713B161322K996765K354195k262318K43625l10437J079833j279753B375506
44704A627839D67796R80973N60520G51601L23514i60884l828658J78981a759084
44694F46804M59472F5555N95149L479944L303303k197725J146398j011920A605761
44684C748946o59157k23352m53916m87626P798l05300B46044i00776C75099a318776
44673a865230g43302c04646k224476p54660E94035R10001a568114j346926g9338
44663A337005E26033Q16623Q65178K095438l08871b01805I9309L749550K87465
44654D136324G39875g63223k84918b56055E1675L11118r1435J92947R34891a801710
44643c452115m34743o89573J305256f92537o17630k801000k111678j592781J586195
44634f229431J342767M98065L56408a654880b60426o60816l322172n490401l61265
44625a0095080L283753J534690P27717J086207j347728l544043n22619L335808
44617e541295a577204q84364M8122O44557A743059o71845P1384m5812M49300m40677
44607A105409P49390J191055H14698c336l787651J286246A003057N28416a969593
44597d371712q02080k015732O9249b230394J05507l98389e10996C06167a609209
44587a520179M81680B364760n19924c78205o23706C200962J818976o24095k34839
44578D161004n39239C3445c063807P30352k04869E19239J749014E85001e03157
44568a402683j383950O35572K1686l70238d42681A477844R46830n16411L35986
44559B244249O90731B48953K52359K17308h27565h7102B144531L56079K176914
44550D677524J391488B644568m2352P98808A664720H29698c89447j750119e21473
44540A245554a360396O08286m24615m88998l4732e37263D04443J075242R24503
44531B404188a099450r43041a77828j862792j851386J924940J68272c26188j680961
44522b007149l955961P40524a534671D46698J143644O67775I32784b603504J132277
44513a471227B565008P24868B94180f17856j584409k174567m66893p98232K418649
44504c223308A196158k23922k70000b52287j996872q8597l55747k390061N81185
44495d502379E69287K539517j165209o52049D17906d6188A388520a269437j211813
44486b481250i55628r0444j262159l3074o55008f991C982471M394543k924850
44477E452164J96826J473A981737b73068r02703r25477i17315M04423F83886O31498
44467A315384h8625l65507j087551g34693k086781l141654K36456K790709h26322
44457G03649l14791b448298n58090O38954q57705J527825q62202O50146C119283
44447B179700m10979K014761N53625a123488m925329b472326a024564j845648
44439b870212e89537I30871J154043p99652K96294a663553Q16677q4997c97181
44429a60363k523817j74942R98111j490685a226435J48079N01530l130263j48076
44420c855165j013863M63790K56093r0328b047113H02455J405195M06068Q61097
44411C474815J928384K85985r34301j975036j218022L518084q27118H39031B79109
44401G48728b32164k147977j669200a401561D27562K361634K092457F69793M23620
44392A093413L75005a37220j734130e32709R1222p73733p60708l042773J880213
44383c138488j096827a811399C084960P52239C20617a558402j192161k004103
44375d754666P94830a247235B148345N29368d77693j984246O10649F26688J198068
44366A824756i18319k762382m497464j225331M304996a706964H86629Q17317F82989
44356b757612n116582K967788K435556a179071J9255e43889m25398a34894k18259
44347c53153J27350o30875A76911N62507d08825o32998n22211d49764E33689J12645
44337F46334g28738j302015O30784c82235r08415I43713M55104b10070E50233
44327H25790a039730D64409J388286k81886A83043D7862a633839l594910N2887
44318e175862l473K18778l11331Q67697p45995J892887F14773L570614J21372
44309D306759j896031A02879i09953k86020m28363e37888A111002b585569q82694
44300c468263J672412k992301k966899R39530N96319J860395J532038a239721
44291b13249j364906p1101o23871N89530n52897H54765J233123J39001p51825
44282A475064A78996a452511r70862j912810J32044a221720B978996r69764K031660
44273D040892J463940j487182q81971j229224J222417K410983N19512J974903
44265H034270J529168k674197j848256j625900l93354M13298m02781j67120J608373
44256D473501j679289A390699F3909h88791I01784Q42921J879708K43311c5798
44246i8436C207791J140068m41700A83991h5533n07194B87110L9163c77128p18213
44236a095341B005405m17522i0397A46385a40895F84594J853791A161732N09289
44227A671021o85374J592536m71893p58517e9197j908802J03417j69957j298548
44218c333087Q64378R08493q46764N59992B246655A023565a502791j697406j486006
44209d686203b053000C744212a34679m378722j386614J042916p29373J419116
44201d167356J365545l27758k70866r18879Q10034d61538j549571l058810N7558
44192e012361f92150C878458j195020E88822M9673k04285a76130m5995C498947
44182E334888J51192j770046I50321j92267L099977J003547A551552N73249J875719
44173D000520J76525K209148J604915j905778B381225a682681j351289j175936
44165d209906a562502B942878J612367J933475N66049C427884j503890J856771
44157C780765E39295c449431a467674j276964o25127I42787K774154p55757M48540
44148C409724Q82175A264946a952763k438155j370041J787816l73718o04591J220885
44139c730567a30138B599082L219715j528778A400106h69821D68118i49706o157981
44130g107687L94883b933830Q84110g79176A618817L010758j700762O59301K13912
44121C802026L76729j702282h62968l636277r70025J001303N11917a05408C410425
44111C782189e29115l345205j587809O76489J069701j545184a984918b03163A09914
44101E89742J801391K1257L99924J16631q32856d99040K30138B270314O15373
44092B885687N05514A535258D89826a034629l512252R92720i65458A349851E98892
44082A685201K194099J860436k523382O85913n37696M58029p59799a579067l632124
44073e211191a158584H37256L73070m27315g11917b11846B370843N738737J820651
44064I930231k435061k106675q0288j30664J488162k37136l136170N19901L0575
44055C842875j036974b899614k222870a616952J48375A373307L0228J787158K213069
44046E403762B364589A111930J0946a666016m67076k54462p26794A579405K319998
44037C899403Q20635A428482k69779d5092a1172m45072G03708k30403R58149J226436
44027B657890j017736p25817h8903k052045i25427G93198g23908N2387A678422
44017A208985J001852J565340J051600j071022j388366H19500B98187L108943
44009C407130m74456a177263J21579D9221i36130p02988M06112k133410k854277
44000f220693j857190J855364b867598P80700r33922a000189K30974j567858j431388
43991c768461O76726j59893j7673A566764N988013M61934A838256c089585o79430
43982c769015a714296L45595l84706f63182c27495A436508K628707J14175F07698
43972c569959q47625j13914o76989n53156P37237K428407H826J860366C88628
43962a790303j304487a519851o45574L2887a048836A588683J87777D72998b47531
43952b013916j419613a75772B490448Q49051j26015A164009C2187M42941J724645
43943B199773p73103d9412j00498H16738O50856D78719g78571a425D51700c4055
43932A341008l78611k06286J184545P72440K027036k132870q65287l64996B33032
43922B90681M272595P67723B231187e20121k531546j235059k219480c065214b16700
43912b147976n33399j972599r78311r71991J692481J418024j148556Q74907a432067
43902b337641N86973A110441L519620K58121k155088K115002J880829k082264
43894D646661A975921h1996C041451L469149j758086q97384F15364J415444L564906
43885E595714l05350c23488l114792a154828H96544j02740d2638j374287C26365
43875i1056j812818c70726A617458K733401N3663A247156f916E5716J151996J375573
43865B583285Q93515P43866J271603j529793n2429A651579h54431B572767L972459
43856F545226k565266A695312J266212P18049O40918j026650o59620J706404A949500
43846F18283N86985J084555J70972l93851L027356p23975j181587p1544j007425
43837B109769c69116j507250A480434M43986a718116l75947I9728K185813B13797
43827A90795J493639P86450f40851A56393a31826B143805k99731I18466N92264
43818A510730R12188j132427K75336l22746L7380O32227a019895k59572B138613
43808B219b139474b2035A137951J043161j086426K641932K207415B711882P29060
43799C440942J062273B024582a146908A192842J965144L8586A150436a134428
43790b399300p32843r23594Q57234j03534p9163a505561A278318J258034P8964
43781B615316h14045l716548N98727a202316n52097k598873a765361A505272J491236
43772B996508q8168A63132f41061K27668B92426K35206K157101J353623n56859
43763C481497A669064E83386R62488o90336a624246K32467d28586m81672j555623
43754b465881m45981e36381j46854J84732C83663a453899k299258j229445J666276
43745c316326I744J196379b43818F20462B69321c41626k7121m144684J5254J66447
43735d331730a453446D48937N89048a632068L28830A128491J928394r3287a779042
43725a065128H31247A04247P86884Q2580K2473M37700M36585D53634a171162m8171
43715a219333j391644L73311g83415j823059q48631J060193g64318G97207o8306
43706G28901J546413J700772p75239p31129m60518c26706j065320B029409J294103
43697C323512a058981j954736K476R84796l059056k265317J455610a572333B170394
43687c41685k257559k483167r7988a278182C259314N1313c12900A016824J647243
43678B664067d27482D97437L005154J98256o86183A363358K031653J397401j820758
43669B971654K713723q97507p02265A716954a941917k7500r76756j090360J916132
43660b120401f37675J33065m63385M28885I72886J434495K596537r47170A436442
43650B023190K01384p17133g73897j891272j89829N84304P16962k568362m005196
43641h127290j683975J429000J377564K24294q73541K820894K374485b38299B196495
43631C451540q45937J595943B077008G8019R05601J291423m47520a147872j023424
43622b171296G46696O28498b836417M18228b92405F3540e68551l732239N20569
43613c780221g10685i6937I52061a05204o96891A64859m5606J23239a743707l789132
43603e532839J012180o11745j123369a787388A39751e38324n23010H01916a829526
43593c511987l47991a821248A320670D34471K196214O43315A443797p11157g81838
43583b065305j105427q30268j443732J347419a715086L30189L61146d01197j086468
43574a487665k7456n69477K8163P25712A673690J859324A337221M58243k12313
43565A583151B09529a510485f75182A545482N397440L7456k824788j902202O43402
43556B896790M63969D95040i14401D73939K888749O34184A157060F093e96621
43546c981228r37383j417977r27473J529169K781094j529890j074825O0215j616620
43537g114918k69091K978178R3813Q58915j962199N06686J473354O29155j773094
43528d579201j575604P57291k78035N77913O7986J378539J500089k15049o13960
43519b980031j863721k342286J311640i06257C320314J890199a401353k440360
43511c841713P96622g53149p17595j720099J190225A354091K671668K24254j195459
43502C054554A166727M17275J59123J269604N20818M81230K533667k997638I04469
43492a700347j514107d01232m79530k211026Q01535N7552N98116H17731K69401
43483A087132e99333p00665r84300o81116J322456b63351B159070K320951A647054
43473b651834b12489B762151J800219k244004i81619q49834h70236j957359M05353
43464b422242j304004o17571c44396A017858c25539l84683j281715j445522J238221
43455b199238I42199J918627K008669j344769o66389k82079F68278a079087F83814
43445a876475m338680K753600A781752l22963h00171q88110j895894J708851Q400
43436a866924C08162K616492A049534B01549d79544o05520j556468k706284l65303
43427e713119m10255L28277a970465k275300J279139Q84751B972760K583786k471609
43418C084937n63493L60649K361330J835630m46460C088066f82939k20613j749484
43409b653036j510469J481290j303603j402424L1623J84828J045678A139076L888209
43400E027285j183476a55984E61520P76604b026346l250638k93665l308242M301577
43391d577314a00455j16196m83868J81931r43625j916256J173821L38479a0284
43381H91443A56257a881533j069114r73119k923583J953823F81471A46608a89123
43371C21475A9117K27098b59842j719423j487531q77051j133921q39155L76074
43362e940849n68335K783757H58362P91802a707043j876946N2561i81555H46008
43352A18925P09003K484241K125440M32832j694398A641623K267072K263978k053303
43343D119370a407550Q0519A740933K856795O93863B387618b217431n79530M72079
43334b324882L76638g73013j796650l119568J72101L04108J695281K51673a275469
43324F38757R55215L554876o77760A303297R46130J055605J860305p8546j371990
43315C714801j627596b818254l563137k489407J24367K395383H27113K330158
43307C157271q33348O49252K750129l24104A261951b500864J00412j560155R26596
43298c034011b56771C838335A516201c40529k560313P62076g35933j692694q67448
43289c296075m95233d96257A628432e34175j355561J48664l19111j415222k012621
43280e488026k531880o43539K51176c748882g94186J05784C19483f89208j457731
43271b146939k278021l075652N47420a875655A15470L323148L086564k54272m90365
43262E780545j555470I7107b83055A38123a709097l914808k747923q89422J709912
43253g551338f78826D104877A63839c804453J346285o37639J066087B438721K070464
43244D509185o05P28190O20679j987512B98053b7045j068587B50916J827420J504349
43234C582685K16298J142640j086097A483956a940610o4048c47307k072401l983950
43225f403658j407267J36472a418577A516878F60430i41773H578c265822j739171
43216e004993N16321P68503a721699g22987D195545O19747k058642o06765b44221
43206b802418r21578n56278a696096A26749K020858r14032K10927L303883o14517
43197D133868p37304K96341l29330K104044q10762k013609A69799b330529k783103
43188e113632j425528K060378a437136A077305a22672n22646k175132R7602j032827
43179c755675a776217G96690O31743j0688J504370j057142a584856k365160a117752
43169A937183J253074P19226J743585K81556A733252a045451l204451R27325d9267
43159c41108C0028J348904K438305f20111I93782P42524D70495L085981l07584
43150C248892k86599J610859J551116J14591L9537K582394N28147l791341k037244
43141C560352K448410J563673q09069k125185A926490C95639L44586P74073K572421
43132D086719m80427j482065M52626I88151l23679h10292k146948k39929J225791
43123a971378L66218l33586A0115c1454j292249K71666l31484n28249j054033
43114b965803A082146J411833p90754c03535l990411p41271j60053j31729h82890
43104B553756R49973j070207D81256c47056C27199K575961P26709q59860n58919
43095B211090a64594m69382k08740c68013H3003a909998l32377e28634C181989
43085C718467m53713A470690b159568L71243L36341l902981l93469l10449M74130
43076e584753j31942K52919j021175K76260K073742a829644k08172Q04679B212124
43066G724861j893428k637700M78333i95362d96508A211965D21875J342515J00307
43057A864697P40018J214526n80554C95612i87913D30254a958011q67693R54649
43048a871055m83080K06864j485954P15728J86430A022704L380194n57521o81227
43039C164150A435299k0240f2000o1789A885191J692706L027084J779386j518862
43030F865505B716943q29247L36799d00698k669813O5875L12194k40097m53500
43021c386039j93790k85400c02821n27462k04168I71453d92651j426259L89603
43012a529307e86665C734417k34303A504090k64405i79861k303607J167610G15484
43002h5841o98546m44692k268736j690820K157931J248867C09625a15039B463011
42992C664918A113160b098847j505542R41997B052482L005638A976785a753358
42983b251077j62923P50392J68409c66074A434616c14130l506984M90562A17673
42973B010963K16066d65944j28140q92708l363307J38418a811525A684041H08547
42963a872525j574404k634705J834905A6150J964762K17515A029235c86013q9943
42954d75956j386225j132403a208807A808838K110878j644184P57512M93573k78587
42945C248030J16855l09205i38795j606262Q49711f97163q52071k520791p74775
42936d844800q69412n35352K67476K751804j41284J064420J068664a71723k828790
42927c000513p25660j102972k31404a47634n48823m83238D57519M098605K467043
42918G023167m80886k481849K65909R32744A367929o56066A71060i48337n74922
42909a523259k24487k55045k85795l43247i69193k130787J93880i91014E87586
42899a358271j952590a506270A735192K826322j830250j004702K052394L26881
42891D105837J787615K272661P03305o57043l348853C72404c70332H13985L376304
42882D190289j90963c703527L65455c08839B06821f59624C92237J36483N93480
42873A122200h22441m73756f03478r54533M33776d6464p38619l176395O37650
42864c323828e82046r53978N9054C415301K319777M75481J422771j459634k636438
42855C537258a433551l366098i44849D71855f78858Q0996C03049J76646M9221
42846E28916d42388j571062A026456J083379e83603J6333F69198M2349h79395
42836D1522b344967j079093L07253l365257J68316b724365a282880H00643f78511
42826a334312l643982j312075l23401K578677a691052A401834N91165N50126r17204
42817A625921M67955h6308r1065f4707k616045k370114K27429m81153g40265B282049
42806B162464N86006J978697K691098l171968H75313h98106j026262m14782j879339
42797d218489k88730j358187J001324J759519J223197r61314j908959b286663
42788c202350p01832a678471C00546O8643e10691C684767L297499j276849R2179
42779E797596j141028A468487a326400k681762n1193a943228L88654A193476J587162
42770B780638q42526R37555J447471J240971j813706j097250K193597K884638
42762G731388r42563j887379L11178m60567k72026B034923l56634J794908l21276
42753C151921j234858F81301e33698Q8143B7283d244859l327441M07493p79234
42744g944041q77985J923702b098890g99371a70703B928853J494504p25616o74626
42735C023115i52338l61636j201683o3941c14881A784088c571127k431062b764835
42725a198082q85759l231137P15840g32086r56043f32458E046897J769944j191887
42716E624954J7386j871326A700551F13355a19247j195733o6254l46493b84841
42706I63368M57632a412991B589810M149440Q33076k461408k31286j49190B090021
42696a09246H27856b791437k221182b355845C59322M491707J886515k290604G25551
42686c474886j418184L08604J616985J14168k32481j282511p78468J169871J372260
42677b604642M3126m09500j393808Q66541a52022I00463h58972l349705q3137
42668d291814E29557L973482m83827j348660Q05911j090692H73211a687985P3830
42659a614155j080604J7070n35789E20500K169816N497B04088a957627k68446
42650b226073q79723p71952Q54814a43801E61282J713018J400688J262327Q21959
42641E759274k063914j790733L128370N11540Q96712j73295p161r40167J038951
42632F359577J615461L928094K205733F103963B868788Q21805J386724O18830
42624E696147A210554a056335B829528l17359R15143N3012j72762l86067n42895
42615B378600a08856o97815A208707P30425K88291K3105K981174J073790m01436
42606E904056j934922o279A769530a80980k468031r79733j146592k338207c525084
42596b006782K13131q93637J062108j60734j775955J329339P97379j706498R03441
42587b238208d35526o37444B77955q2993b469610P43109r77123A06709J332218
42578A438927n55141J754611K753033J251100j116229p32051J341438J00813A494056
42568c984830j748319m08305N14709K3368J213390J580499J24672j134704J795283
42559b024237o0393j833649r54583R73403a591869j553509n05679O26748j607373
42550d631682j435423k202444l097763J301341M418029b300938O54160j919382
42542c566160R24632A392966L338562A743841b566616l731293l047747K067157
42534g278499L19470j007988L673853a711946p38013O41936f2591j651056A298185
42524C040536Q80405P27982J023940p57552B104619G75584a463938O78429D96494
42514C90019L700876K167785j017421n43779j870873I04247N41737b39491r15718
42505a155209c59489j919026K92522D6309J340369J177438H09640a940462k322450
42496d262912R57024d52988m073785l332871K183688K245982C21697J426164Q53370
42487B601231q56611J171942L514926R35115k700372A092692J707880R96431J77708
42478C974711J520706k044975d51099l617879B95000K478503J487007j805389
42470B455121K083083p08497P66528r80304b01129j229903j196103j775993J041502
42461c361626J297732n86476k252548n99105J965395R87305b36786n46298o09729
42452a392813c618B321529n71531c727555l30975b9963C798886L89797j777518
42443B411165k08638r93294L41074g13995a31962j72942l650333O10609d96276
42433B329450K696249j917540m38462h47871j783311j027191K15679O19472i38009
42423b234201J017633A809449J105856l32269p62377F78622a242857N34242j757050
42414b465665j188386q3931m65483j054018K39005K253983D08271K038436r18200
42405A528507k04402K914934J320814q13165J111009j19663j460719A704623i68543
42395c579782P46842b00088C784856M426585k952134j045164k075375Q96478j046018
42386A989228e69263m206905l84256L34508J021101J302285f75880B572834J419560
42377C992394J352502A813236a576387j976756j411118j814234j158076k039555
42369i976126p65374d696067b338191i65923H99557M959398N78008B771488b282564
42359d390674L20777a684034A138828e17593r91970F29681b61013B518606c03951
42349c692617R25361N70024M59117q37770r8125d20237B127343K124527A097662
42339A203394N36881J335986j099681h14030A92873L37727K36023R05469k17476
42330A454616c779730j796685K019983a328984F40416J701418n20209a111448
42321c836669o02270l5422A96271J256118J514417j367731J029610J76589A147023
42311b392546D48531K939610j324193Q32917K533092M6319j752980A428255c69303
42301a562051D59284J152616L480180J601573j855708F93557J343724Q79072K61478
42292C177831m56612J860759o56546C31708f52326B538793L529867j611920p20054
42283C736686O49977j149824j229016i8548k445484a265303E9905b584157l572148
42274f156305N83194J691546J683322f69699G55897Q76627J119448K09091j40754
42265B820309J977199k023593P28r33488e656k297318k799525j836791l119695
42256a0058985J510249b030581A828076K325562K979267K306213P35457k901904
42248G272671B331936f90424j903317j150665A63085O03224a357861O7544d02482
42238A724074n48154J731864M05618A597721L2092B15654N09793a188082o94215
42229a882297k098856l092245b831625B958975L236243L046425n76022j600121
42221G065500J92386Q7j650923k509351A402247R54596J890940J44796K619224
42212G011803J615287m281085E11436O67026K75646o84246a278065E23119M811450
42203E334569L61082k130025A2111b298496j204937J241200G91588B18659a97154
42193I09928P30271C02855b186217e71513m56516r77006k833626Q68449J977793
42184a992419k854578J698734j042214L70453J044433j014111j252633l59278
42176e401613J126264n37386J550387a318151A18031K382457n98646J701402P0514
42167C673758J960455l43188k493031R38502l00754D24103P5113J430702J659780
42158C589698p60750A010599J154880D58420d67098j26096B174847j04858B06832
42148A154959m62209G4898b50487n17136b4497G93705B91350K590816j315716
42139A566450b73109r33884r98835m38015l252352m22053c005678a15771A311479
42129A294450M25142p05829J042412L79155g12848j554850g42232I64774e07434
42119h47075H05658J907494K448063r70200k084615b21709G25114J679468j081948
42110A322634J00015b83272j126465p4081g35088a41193m88855a27583k31126
42101c58709D55340g52411p97879F6736Q84370Q07396J089257q49541C39560a618061
42090A124511K24767j34095a173824j886817l11692J68365J018825e32399B184531
42080D432a456566n2232M68127l02737l061103j735713j484850O71239K574613
42071d379222K125949c55687H37038c252078k855992K693887a569529m7367k915633
42062d532529M5886K187349A686253i09255n69844F35005K528175N19839J166439
42053D849458K68229j722165r42015F23236J290083C19904g33178j982242j124774
42044c840194p26462a131053B44823K357038L053802l04522D53803b4316A050752
42034G80238e26695A68890h12788k026131j183611J35347L37597a360244A865864
42024C628373J653548J200339l156306A17305a474007L09074k350273D28475K709987
42015C138462p68253C86717K847242O48487m12428j489887g65331k369563k45229
42006c380123a448778B044124N269593o24505k881637J459035B380751g044k751055
41997b758099N16025h33249j087192d86193A490769a114286m005736J941782p56351
41988c934591r16923J429214J141575m35958J98978c30244j887719j047865J13296
41979c152532j032223n54355b253835l7836K69444H65939m27848M508026m7506
41970D898611F18986d104064e31999B614661p86666p70516J503381L712627j260053
41961E013434q92516o32367K078409r94472j90194J59009K79986J02501j263748
41952C660042r69787O26752N92091p58032k67162J092651Q95896j153282a01717
41942i78682J44533k022426j725839j187379M8204a519537A020565J826136o0313
41933B786388R8158p53754G65181j57841A35296M55285p6300a213287j923907
41924c137194k602219P89653a800081a29919A120395l7268D07854J653833a159275
41914b785615a385253B75899b629911k396570o9092a584800C64358f34671j161509
41905a796180j317712J244730i0599m47590A76213K075763J562629n46428A148789
41895A198260d61468l921298k35006g17349A495878K087721R59691k2950J231934
41886E752274J591426k918536j838000k73354M580360N35601k706983j797757
41878B925031J588741P34988P38042J201139N46092l827300a682448m445167J655890
41869d471725h50921l41144l76175j522053l626159l09355P0714J267485b712789
41859b041623q64621a07173B451521L520736P05776j395624P8060j649180a283587
41849b667351O83283N7754j75904N72356C676700J86823b16961m383601a994575
41839A353148i48490m23120B07420J911054K01024G11765b501713j542874J629241
41830b415346D72202R31373D6465b386535o8984c65264a82439B196294n57716
41821A638578J753548N81554O95695J135817K0051k449738C65647d62460A84868
41811b402252j211333a191770A194796C21541K569014J110660A329204f79432
41802a23840j490548k090101l9355o22670M10045a940821A374262P12397q11850
41793A274809P94597R53663D74318g56059A5678a074329h4539A78352J461061
41784A639413j82154j7663L122395K87789k099592A337980a091330j167860m85450
41775b744640m58510a332621D179397J3871k17657P46962l10945j904458a0470
41765B004671H34301a121137K26052a2806A066035J152250F90934L22438K256618
41756C269990k36866o93160A42788J402978r3698P54169J231155j45658r73472
41747B318262D5677O29697J79520K605128L702821j973551q00439N32177k257618
41738B663412D98786c54483A034488L724393j352633J109917P67758A834388j05686
41729A728702L258461j238785j334084i32437o90789A904890B71396a547492O06135
41720i41357q79568k287825l267310J736352J573191L66694j51226a798627h38906
41710a531330d64750A682384J653315A289698d79695k270036B65075J597137A02288
41700A894687J29528K926M39469p90507B00633c630372l559127k98763O67181
41691f821081n78032N26279L288722J198513j803966l45786o36243b543179J238898
41682a304281b49761k7350J07243D29619a069751o35148H43158J566360j202126
41673A207392n31210c87343k863016j514397J22545b254103g21687A513990O82889
41664B196879J439835g72838l317328l8656i63789A107803a85931m060574q5565
41655d332070a405888N73783k691908l301923k072409J183531P55383J315705
41647e643726K10046J63100n4750K07762b518678A297K437709Q0320D08084K187323
41637B595407m52943d35197B84483K143598L352313j347726A952952K64017Q86105
41628C103074N09284J019804J460692K546652k549750n28755n97131j619654j30067
41619C214149q60614l37659m02754Q30696J328822J224758L41513J596004j887862
41610E047053k056575p25705J893071n70190j81005J537848O94149p4539j139432
41601D424675A866173j04150j87658o9499L01848k04295c3004p64164J99695A118555
41590B023773M92866K810175k10644k427248j232834G08030D810L76462R93896
41581A375168d30168C70486L658666o85838A082147C11425I0956c25334l755747
41572d081081m123805j464395M422458a958665G20892b321172l768442j903917
41564g993531b424616A491381d62355I21485J364649K830818J221354k640342
41556C697964j426365C77956a965447h27875A446638K87252J270098C07226J096524
41547A403750K95496i03034A30612O46043R32877D78868a625627p97635k55607
41538b678869q74810J229553n18050r56154k313630k22600R31367a922217Q73620
41529a048597B208207Q757H63229K45300a033399l640829R22739e5922B58705
41519A011777e79544j046447j233576A026717L013552A45603e048655l88175g70598
41509A707564J477193J724986r60515A887460K332989l29533A649894a118221
41500A588268J265468A129278M89680K122577A773782E22439a255583G97661L471167
41491D268828R29584A739323F47752K162635r83430H98236J621527N41873c13797
41481a391128a85470E65144a32495j549198j652559a43889B550264d58729m822067
41472e280796k95754a204114b73487i5135G47321b98510k700456j291338n55025
41463d845329q1949a746409H36054k5670J938538P27750A272263a20112j874266
41454a994378L60633d57923E02320r137c46090l45554j692337M96384j631555
41445c519152M52855b28037L9691j884779p06266j174791J052192F51579L834428
41436D486007J304849K02155J28420j218995j844181b54192r03059B55685L840090
41427D095775A588646E31312J028295L17112G85617b213049e16339H74366b478759
41417e670183b787900A166939j70133a067093B30516J120661K013664K04586F3303
41407A107107J098876J846371j389876e9037j668943J55591m037850j911183c391202
41397a340238J22011j377223P20017J98931j007209c74780R6990o79093r95227
41388a952110L68234N98914j535574r86919a747794j31023j147568k085494k61909
41379e373788O27914j461365j612560K99480K273649K412226J247802C60396R97815
41370A358211K615774J968995j744949A248418J749620J909277B392499b007067
41361f024317R08595J84853j057524c08454D039763J275584O87925m17893B681380
41351e35181G98289k50114R58730L092807j970734K98216L85527J765077j149366
41342C928432A07855d189291n91138K200485c01659j281898j648411g18996I64270
41332C866444K028090J588059l23221q9576q23506M19048J096666j685343j569001
41323D507660J094273j234767C9643c325022p76509J876388F24843M424617k78307
41314D771153g7631k92456B901515C08622h34519C939880M241405j496539A480895
41304A155104K135732j93098B430P3201a565114j189909I11501J993357O12787
41295C517645L98322A210645D83395K311248K007658l02747F9697b17857A124369
41285D872733J738633j089313N88582n61489p14018p98951C38325a723197N68505
41276a154692A769530J69372i63873l600106k539327R26357b983232d50027j062848
41267a512875j923998J351919L65616k728600k735371b666874i12462k034316
41259b946778j218029n7003O97535J726366i2944A564188f54394J65214J85552
41250c03628C982777J298281p31874A808581J54239q55063J163148j078673a609520
41240b408147O88213A298140K590237K210645k290946j91339j133236A001198
41231d19812j477403j116263j349308a451212c63696m10386B841810J170925p18714
41222C294021j232384L76133J40912j25079J346875j622690d04862k453851j150806
41213d009519R85657k34615R99444l36848P13985f49619o10775A714836L899791
41204E614627O53657L59114L82731j496585O4570o56265l2880j614604j271423
41195B002942a361488k281968J47584g4253B129457J222714j628020a786490o94239
41186b480729J088965b68549A596345G52215g68152j208081j463948J465732F60496
41176C305696J036620B050623J363839J704491j952687k45815j2681r30640a74981
41166c281115J418319A644366J974918r31775Q89109M04981f82896l960457N32179
41157d111174m27699q67154K039109J53414q03497J644706J023053k463946j19200
41148c932388c12544B232196J883313o011j177805F95389R29782K054635j603595
41139B076211e2874A803706K489906k22952j416296d15387a3311A732126o19146
41130A112980l8402R29546J393853R69461j377324J193470r18828c82568j073659
41121a456227C81444K566951M129300K20064k721794j217672A606142N1766L115601
41112D773509J194608j382746n34678o16505A657651L39344b254595l73355J002045
41103a625905b4747H19628K82131M30230g13472n136763k767076O27702K477817
41094e511792N18106K175597f01795k49942j423676N76482J38575N05166k29652
41085a284842k948601K61190j607315R03634K102801a080884r9878p30185k822880
41076d733827j107421K240538a115074I41797J777198E716d616238p77454K034441
41067c359251J492185d47816B928388J741966j149985c519624k247997J472388
41059d295233J531864A461913K813204K619675l404056F06410J223637O86892
41051B516939b481735r63214P73033M56764j665390O90254j817907p23905O76678
41042e055422K055331a159022k072669r03189J638779C36444b518402k749661
41034e268063L6141J384652J451562m89651d49248q66779k019038j96019N78523
41025b952561j524215N04287J648611R74148j129648j49665i11022c59885C154542
41015E419621K062966l292649k094531J87027l42917J971277J205350A830475
41006a400860f83456A597891K1175K94691J635356m13653o67979O24825j489366
40997A602940n85649i04745r14908g09159q54302k022505r84241p63419b447584
40987b076950j954384J643076A868290L901827R38129j235797m30747R3125j310148
40978C824679l21751J737413o22106A632158O50154K353131B166268k76106J082786
40969B972948p22078q42393k52087k54898h66283k779884a409573A974749G03640
40959h45762j521669j033021j637004k077214j349390O78902c253010d23347j007375
40950a430722M76509b83833A681974F78230e027879l182656c983281a960468P46694
40941a213774j435174l694770K17525P12524J256485k051912j631297j159352
40933h999745K242052K325897j706626Q33112L54223J291946N35629N27120L00707
40924b295685A91995J775227J033716R70728j851010H00786B34577M21998Q78725
40915A535300O13344J367413n34387j180167b18008J9459A551369F56297A14641
40905A396547l67505a67245o12815C066854K292022O43755q73056j982028b048737
40895a330819B926434q72625c71081j957559l022834b215517c84810H67648K176280
40886C043928J569240K22635R48734r88798j500032n5580k86583A234156l82948
40877H51208A47455m0325e73003B117322J277886A123962H2897R11877L673240
40868D668014M48400k362711E75717D9873c298070n354650N58542L638164J510898
40859b945116n589e41122A307942l08984j01722J117473N94542a89466k834680
40850c024146n4628M99257J231044k384359j50267J497538M36933j806373a678126
40840B456099E12379a302101J35064B485758J198317l3763j404090o49287n52081
40831A044854m07600O53416E55132P03866k5717D91145Q35217K583809K185471
40822F095642L5655B350340K78964m13487a078656k538883m42610J402103d49370
40812A441427L21639F47030b910431n89496K03933j442855a562593A422110J665842
40803C087952o56542A156778a644642L70390K02027G26179J877440A236338B89484
40793i80996l159441n28805a276884r68357k990954J10568l95679K139206J272021
40784b110079p72126j103724k748402K60795K56019K194206a73840k360061q86305
40775c420206i24665F74684R55465J743813J794950k306094b1186A470600Q67523
40766B338123K51939J184607q27588E79523J199622O5223j16161J223107j434832
40757A516482K602797K497823B333571j146690K44528b11904O5451j778771j181471
40748c106695n78708r89544J050646B220957K206184K219851j018931j908983
40740C719078L196571j419092A030233a007018B420266k22705A98173b178266
40731c135597k110424j848160K334864G36231J249144c137011O64357I95866K230133
40722C225999O13528a267680k024810J118417j309424l967744l30245L860261
40714c921225J470627k642952J224939b76185D29142j90107D4083f98172k06957
40705i05129B398275N71093A436993d49059j045975f48372j26599j367797k001786
40696d144554J993983A852514L599273l24115j566630O02829j063296h83688m441511
40687e325199K090627E10428c288669r51234H46567K526226A068717E09556J144894
40678A654450K35786l97369B56105D4163J550251J368818N1826N32333r15805
40669B631586I60979m38178L22357M328681j57079g12905k251332g54315o43446
40660a397761m62637N19977H86391K835803K70703o29968j339000J7829C4861
40650I67945j96032f47298j37014l200148P29833k61204j573429M94642J567025
40641c027593a165520F56806c4510j25360F31613a64786l725783J076773L38803
40632b474993f46998I46689a025996k633581j25322J027432j636164K090336F30601
40622B038167d6155m04262A634610J42170d66409c2652k335934l217241J010321
40613d575506a839491c99355j706536k55528J071744C78883M69736L7476Q92119
40604A778214K126889q55263n75176e47981j525008R3239Q45137C21843c239206
40594c484309D3167J983597c55427k892062f65338B60221h0625G05537J215095
40585A920632K435445j801419g83726j647268D87678a432977j077809l93929J278043
40576a626672c79887j363846o29179j794991q88175m22501a75501B856323J021531
40567C877854j380397n62796K824014N92385P86184J752749J081854j071441B161126
40557a564479o48325f38972A965731b11493o42498G27951a487256k162576r58403
40548d608235J409763a131492A54250M45153a130259J64330j211971j874061a651689
40538b962886R86313m80570J30338f0603C988385o34845E33655K65354K4044J308886
40528B131939Q54518J468107k192977P47118K353009k271562b836295J1502c55483
40518A216361K6221J027190R78895J476485R19012j519451H60742K625139N69710
40509D055591k21077A441856c22526j018224q70095J081888A217792J410b077949
40499b334214a141048o78949L91809H73284c93352j893241A223540J05011d46009
40489b225485k105027J856952b29868D127222K267268k99395A419454a045790
40480C999719q03916j240114a931819M17807O89268A154541m6766K698630J981748
40471E788153q59270A232237b122456J000897b45811l283936L32865D31241J373225
40462A804466n94648a346981k578380J572095E09621L093857J360204A907104
40453C283241K795376A201530f73996B37673M78842a34010k711335j848114j228251
40444e921710k068478r28630M126880A3272L211693K23648o42329A057863m11692
40435F46171M302805K498038r56868P56135j262793k851479j390576b826910j130204
40426c957114a355918A779280m78108F45453K165458O23827J869244J310965J067168
40417G682115j607060H86671j91822C26546A15140e50153m01536k845619k81296
40408d078604j643029r94717J315948b563195Q28923j694960i33070B241494g3664
40398b207541j595737J819554H97216R012b624528j051616j95067K7898l132242
40389f975555K889678a486935C27440g34865q37119l03061D05363f14248a73473
40379B01235d50725j624831l091087j793552J152471K744357P76040g38732E5192
40369B111788K83539d20256j568851H54820M519681R04653j427841r36381j852613
40360B062319l40024J795534A454508a31747l043794b07610F20946A10700d83317
40350A370773J316580K041093n27743j751604H75820g47065F36856A6303b91116
40340A359349J026790K18358L75841H94182P51072L202170A706790b56797A801602
40330D889807L566337k796679j990962D11270a108040H48347K034356p79285g64591
40320g77169A056221J380952r65019M36092e46756l866963h57971D0985a194026
40310h12577A171454g88317m06793j595006k951661b785783G19480J146066H76768
40300a223825k183122j574517k002756K38372O49916b393763H90275M94734E79385
40290f31436b86424n8911k57098A982701m95293b98451A141947J83841m68277
40281H57511a093278k123872a475385a2234A521275M51890J470968J487118I94582
40271a768937l813688N39109E32732O59504K06270O64821j72180F51390a168912
40261A339583J437105M74351j157349l51081L533956L909076p24720O40329J265580
40252A0366830n92595D588396B134455J70440H19402a171300Q8119N28787j638978
40243b193372j48565j956296O67852i17107j680240Q99782I14210J567440m16225
40234B065425b19609m890045j487561J526940a884210E88080N46200n07506b288030
40224b453256a068655d93305a26987j753721j298886l243159q50446J242752a353537
40214a66182j563533j555847k832923j285302c610652f2596j015712I22134c99508
40204b595173k509437b362995a084427j559288l57146n90567j912946k41118K211062
40195c534430i95209j609150k651780n14566J427375a890394b93723A01828c12249
40185c047870k46152c09538B200409L845760j344487A303488b475541j720772
40177d196313a536918N88249j420735J140299I63241K890094K510455k600364
40169C763426A175946K328381q59474j002918R36415M80406o84279a315761j496899
40160b812660k236970k213416l87343K050658P10128m74622J556648P59505N55301
40151b492771k576424Q67263N66513J511042e52651D70953d46357k73620k411012
40142c130989l545990J352687J156378j36470n51529j364282R60803a575250A611500
40132A533439f73147l60553m03772D37926M73762b909997l095799l44586b515926
40122f17356A580395Q59786J27053Q97204J188821J504419n48352B729341A362994
40112A100964K08680L23952m62356h31379j235149p13797m42861n37213M47030
40103c313369l06463j446273P33757J835913a157234M59845H79851c35770k681776
40094c017546L84341P12933j768261j040853a645431E10178a54986G85462Q49312
40085A634774o94186J147734J00598J212936j145307R81304j487883c67977A4946
40075B467241J21203m19379N72699K311426j96276A601338G25556c551501k578308
40066f129809L96791K865286L00489M15376e78345D20616b974291o11392J069891
40057b515792k38749J064483l49882k808255m12968K421898D61596J202108j05183
40048A558521G07894h24757j962583a388784A901356H87308K122098J662945n43078
40039D129273j580534A051415b715399j90418D07371N55917K72219K178488k85088
40030C128907l71676L74005K69173p96427g5317m047334p69954J631854e93403
40020E82679a983323j334584R62701L37874r38096L98483h21782E013570J834974
40011F848544k673783j224178J11158K323111N49023j975631A243649l43405Q61086
40002A761330p36105K08289J181177B23190i73779A501762J413192n00435m96106
39993A918413L668238J387371k484342B132357i11050r35396J37205r63743q1997
39984b754981c28698j764763j219914a036287K69440o65882m30437A267992J408148
39975B676140J470234n39021I27375c302804l410008c240345C97632G4110a685700
39965a689528G46069K233890K86099L765995k394351c29374A423918N37203a127223
39955b856614l360053J708661B34811J898505P92933D69111b631660a216138A923921
39945D031536J062578j005318o2688g75750j901606a037242k4883G72494L917941
39936D690435p00808A309497D26788Q07128K202618D09420c635598P57359A908045
39926A622295a492592n57662N5541k156158q01756q14754j786290b363944C903017
39916C647878B19056b299461e77425E67663b72138k731672c33018a23254l146611
39907c269865q3251J387208k263417J401049d96917j874074k47568M22904j610479
39898c806134n47019n18060k47076J108500K42692k235887q84982J189892K191154
39889c506920j398397n15904p91319j041609J746034a136644C093886L404722
39881F498608k374599h5378n311471k021745O35728c097865e76190a00789K1070
39872g9719p79408n96614n33565B984469K834440J090794k065218j076834J27042
39863C894693n39993M54950A727603C8589K979428M770626K684141K26535q11158
39854I888161l849997j020296k136522j342048f60665j245688r13950p33829j572228
39845e126360K030957G47654J302590d66036j953797j519503K51472a713179A288700
39835C918714j816595Q46389K882025j403237j86091j406862E35469J460175J977462
39826C973106j189561e90278I09789C35115J53479b155852j875898j072788l711944
39817h816482l61212K831275J956929a218497C59152b6720l034360q03577e05857
39807F201758p66122D36725b39432q22350o34875D90097J551287J877043k25018
39798C693409I29802a443258l71804A086336K203449R14693j496239J247026p1339
39789C883926j622411A129758k89647a305728J21105F65117K852239L90420p47411
39780C160365J081601P79054j049245j260622F18313J266944Q47052F80970J120602
39771A801572K958867P32673j857753h86690m245409K46445K166398J332013C06585
39761F57524A435f40729K38005j877740l14823j365495l69778k022951K478641
39752c874870b47824j077903j122883K81865b69035A288153K182167A551623c33614
39742d001651J153570A569974D27495b418071B34545M151049l02944k033486J464879
39733C514043M67068j689469H28190l13751R08776g47604k371570l8433j590665
39724d748272k227196K357794J607474g4056j582115j294247A209525L171147
39716D380672A379512d15790B204927K647046k121682J677817M651392K250065
39708A1309565k400628C701366j823065E5317b776115k293281M67417L26467a362200
39698A864606J249536A240311Q1257o49756k84009K268670F530d829064J207791
39689c621273A307471O392687j423604j493444j942399b52934j394213J9141b80962
39679C70430M63879M3355J646863M80081r79377r15880a44866H0827g03226b82236
39668f0884C879519J24941q11333A489797k4959K193068M426287K473472k59191
39659A0298474o00335j015548k016340l130963K282120K646920J030568K918998
39651A2413894K317430k254050D639479k151165K2621h47244A571905L674342
39643E246247J043669L427294j113993q62887O06894k445278B129786B43300c18930
39633H9999b252292m00658k403799K52718a819582h0746p72592a64959A271085
39623E14082c751616r44788J798386h52993A210183m12308N64730l17345J60240
39614A205500j57748A61061Q94516N40597M82602O26638o16849a959485p70106
39605b729591L35105O89416A500041L820870j609433n53229j112808B80327a829126
39595a787333n20038n62877Q3881j71320r00032J257548j473907d66150B383660
39585B566099N46011j24381j133879B31882d37502A218486L586736R7328c90920
39575d443537J428208g31770p719G70374K782463J835904J10104q49052n65478
39566D084315j337668j315933D7654Q73781K263978m49806c66181c6097B754094
39556C839344J887494l75955B465169K517610A975004a298732o35641j676339
39548c610712J47167K55814k324564r85864K04639O2292m00842O33394a355722
39538G09307K30983b16605B91946L58339O78337Q32486P05611p05192O83079H57985
39527h85448k023486n08632Q2997J143385A95174J861233C20344a654584L83140
39518a271444B53908e77433j4468J97528m51022M10555l53011J50940R2520A845122
39507B282139j085119P50704N96857A006995i48169q51464c42862q76630j707470
39498b926962l25910L88598m41252J336318J59221j118939J45092a289575m5180
39489a334755A352606l3312B00402J261397b26098m81130C303311J964654j126710
39480D141255o87137j356996D03903A02851J653687K806192j334812g90262n49492
39471a339754A267458K683270K211275J409106j031622j175232L68466k492735
39463C239986b396056j812116J631464i17016n62203p33268A466672L699546K45229
39454E411447A181150a657013M05198G23972J809889K729210k202289b95572A938626
39444A529213a341789q14076H43505M695879J058477B156986d818065J777739
39436c040326a113101k361282k393230L92851a903203P77222p78609k652328l234990
39427g791908K815317A367325K353731O77939k59728J42628E16365j73931M217451
39418D559885J14087j507615j025995K207781J192233H90890a631757r27025O90759
39409a868023j63145k42601r41859F07289J904542q70576k488Q53507D65846c564752
39398f477868J063201j64209o09650L19472b235209D26678a960561n505771j926673
39389i393005J508302r26007L92567K903148Q17389b317922m37688A315217J316968
39380B632185b181505k062593k97857R27170d42858k052173j840728j150779n83092
39371f069630J32625P69634b179070c2533j98696n26314C97117J293465a615336
39361c343271k056582o25528j210856K355353b87634A101136J71702l920D69326
39351I35939J826283J017038M48783K26654j066760c01791k682804j72758l06408
39342c463761J296134m07667J075790k372715o41032J312680h99036A968755K787932
39333D756687j452551A470545a047325E64080J809396N51379A154076d449142
39324f827981o79008M00834K080150G95897K091295q32161C18529i45762K21958
39315g23804p78104r13770l93509r2322a411678e27858G10023P03826M05413N99940
39305B419202j61433m73491J081552O41617A305544b764298r11203L95409J147129
39296b132963o37123j841784O25423e96058A470399Q32198K193104j373965c496
39286a055235a3600l22783A378026J435488r41150K97053f20443o35398a19556
39276G79391l16757a158362q52773Q67809k760451l625521k6388K182139J317084
39267d056463j032773K050209j67019j534385J685345a094593c69854j59614m89393
39258a018861B365890Q61162i93035j171697H78678J964491E67036c293045N59151
39249b733894J96974p99621k319458K185043J624872j736034N81905N75531a120490
39239A457124K061985c54337l084353P60922M5296k784185J128147a198479L98438
39230h00041A815484L357645k536219b031553j790509N50903L67878a060057j172851
39221b232908N85052l920839r68798n57675L023647f85542C457410J307232n60889
39212D203753I39231a738554G61296J913495D71075b958619k445929K159388J286154
39203a959006G997L687631L80749o01943H64413c79185k507746r49985Q27227
39194c009689Q04247R45236l0682B75420J571747K257606j689402A005O87148
39185F88153b40369m93398B235361q56904g33141I10849N53646j67225h904p52333
39175g61237p3491p82509f20177b7661B508058J131254A006955K265K99385c69256
39164F5668O76225g53183A534632m85577Q03186J174706J634266j021778A264378
39154a576263l325386R58103J653731k578205j51315b027301O97699O23583J00135
39145f05884r09735b16182B529164j026465L17115K908449K200390j716759A051377
39135A765887J74212a056545k25605A199933J308806A230980J118881J008038
39127C357899o21171M02225L85216k65750j113375d01118k699748J406336l38187
39118b032717A025526M994850o66604j005027k50190L12942j352741f56424l100016
39109c756440l091993K072678a202071l50090O11309k086643k889873a232405
39100b82247n05440A818860M09270F43307L677080L679828p80232B160632b004644
39090e142469a070120D836263k147123E56620b296483j954705k696983J761098
39082e187073K353094M46149E20488Q6107L061926o00365a485063l99051J0545
39073a873569k012130P6864a150866C279455n07194j44619m84078J306102j558751
39064A890915G92522i66554r23828a88145j603521Q41222A067447j57558c806619
39054f056921p58397L115388f77812r60114F29512M305553K465981k433320p36245
39045D231481j446363a486916l177152J889818G97061J685804Q3604r61274a312210
39035c177633l91096j040900Q76135q75344L08719g36189A110044Q46066J156834
39026C112944A348518k02457c29661p19889r2244O3051j089458j155575j378227
39017d702003j297813J050774J998427a312054A165156K531100Q88282A331987
39008C27951a003854j107168j729068J484047L03695j359711a194261A614528
38999C791805R88221l13589K130816j50226G76992a690812d42327k79210n775196
38990f496733j386208m72875r6353b649423Q18213c15294B034957q83552b182633
38980a807132O90107n38680j753390o38023J606746O14091P7656Q40796j50874
38971a058703k10183N0390L85166G35357L997155J112962J08477A712426K28415
38962A940841I36172c72330I68296K437735O06530a24570k924544O41757G20519
38952B216024M19541G39719K58127O59416M29411A35839A1636i9986B745937k41354
38942B504583A233918a328634c51847C387251J225998J532671j26435k573622
38934C445863a976033q81772k589481l700985l09957J694030L174628J781593
38926b807977M64921J089519M90295J55313j425994J97522j403698n75249b57672
38916a42261p06980k129233l14137e53088A76737K420759N06729D55251F9585
38906B92826J611117K240240A989914g37961J99540E48933M274j57252e58733
38896c428900J601757A649941O76019A083413K047540r65206j50719J012668J985107
38887E012803n90401P05009j526554j453080B54283b254451k690280J61583K055507
38878b727641J97930l021169k67085J725656a335949I51455l02980a580120j819843
38869c399963h8643A226748f28429A104490P61577a972745k233149J321499A236601
38859E106352M63597o91516j861891o01306A014514B82092a233220k567671J331137
38850b469754B303267K928021A686918N40764H91792c593372p56280Q96577J346568
38841b106507g11821K8274K53074B381642K703950o79132q80444j557115p27955
38832A240946A39716c196201k452476k493430n37758L365960J956368q5505i46252
38822B544718L16021q92272J30497k85501J478195A196412a893361L30868E35575
38812A828301q03836J028317G11525b345066m01667J367973k264886k263147J544986
38803d361807n79838k93343b364198K6350l187858J083243a710177e18496k351241
38794b869737P44911n28398p11657M74933M31529q58100j867371l159246c794956
38784a491561P12136F61926j74033b169852f87464A732416K774254J653794j561162
38775D599302N2745j06999k74411j384632A256499J55391F87508J57173L44568
38766A189249J566032l22156G05575a888713Q96076A242601D25698g56019B37188
38756a828505l75210p65614j39985J193774j083418N68525j462133J796410O34950
38747a461206j008654M14593j6570j39472j541934L2469l14778J746957J008141
38738a280454j043997a075798e11535j170835q45868R90801B345592M49199n33081
38729B261710N80245N64920J430947A645288J18660J647655j457964e11208k028877
38720b540085p69293j792841r32053b034195b6407D86847J880730O88665A509795
38710b144772p62106O25241J050971G89285B22760K819226Q84141e36725k173876
38701b710601i68631I74947a314711j868482j035984m35895R29962a604567D50733
38691B873409C73749a045220o41823A479862K289018A289693a131454A465618
38682C417699m38388J431553O36714J062656H09192a37968B050649q16139c346240
38672e543216d97043H94012a458381A7660J587663b13512j011105j419976R3554
38663b551039b10843C003064k06772a375403l614173j322561J048188Q07654O00522
38654c855773j087600K85760b085750F79714e09274a12112H76826B16428h41500
38644a958735E30489L376822A594055R10570q59574a665902j853299J461398Q4712
38635a973091P91034H01610K671858J376847K966217K607382k753811B611580
38626c277634j023891M83309k594680K869702C48710b892326k716348n5738k182562
38617g846974j674912J987313J258512a924653A691923J15431M77753L011411
38609E296518O1030j790568j31373o10030F69155a18273A66657K529450N75467
38600C271574A477684J594310K831844j78552k090904n81031G74746a001779l106276
38591d108055n41990R49859f70829K2197A7899h62525k104812m62193J314088
38582b115442A204828K16018a048898j269010l201873l281497N48437K403388
38574e849453K288066k511954Q9898K175989M05776r06741M81741M12208a679755
38564b830239J121346e8588A314002E65405O78906J616701K980699J864534j312953
38555F393292j11272l22059O4537j89457j49683j958035p77812n36642j141882
38546A270987D51660a942599k277871N99675J236540m77520n09148n34494m78772
38537d384189a044199D17225K241593k06355a212953k01521j252195J34624c10718
38527D1113c963708n472416K641007b182371d83504k167437j80279j060772j961992
38518e853984K836156B899266L019887A534044d40978j562585J21476O53245M64378
38509g64464A075484j34h45711K86922A339107K395293K675597J460191C462644
38499I99332J506484L03812M53755K343141K090759q36822j844966J574403A385514
38489c519610k99997R24973r23958K43734A650671L556428j130123A406082b590478
38479d001872h53320A754576l64188j10950K197633J49273j607389J541277A403808
38469i19651k244040b65721C084380J599255P22613O655o33634j458799b384749
38459h620863j872672M075845J394429P96258J269547a362386A101679K068145
38451C169824j123352G26928a197858k202622k182553O29760f99784A050263a722667
38441f177784P2423d09926E137855L894309l326985a049938k32112A316656l38819
38432I77837J51634K119364A332467f70119k66860d15829M9156j123571A810403
38422c31028j207438G87512L115130l1907r43976F97695L88920e48701j629299
38413b178000m22180o98493k253567j927858J686489P49679g05212D000798A580945
38403c49749B534946M292654K76128l239169N3491n31800j681732g96021j454398
38394b250419J007974k246417n50213j7541j822659j404149K080985J635087k80303
38385c847655j067260J182546B442627K980534p24188A176662B7289b439997k007072
38376d447069J358347K41047j676266M60294k66648f53114C40254b961264P27459
38367b233805m68024g14211K30554G02318j94948K745619L323618J81276k819619
38358C938264A071574a168784I2432M660931L153812q06056D01701e352665N39975
38349d812690d67543l40082A56879a546074J14468C429147J53137A654141N5115
38340A709256J722656L170611j249979n57510I1426b417316a057611H06732J596819
38331B403551J27818a178232j404637K60209O38506A415663k0749G7183c365755
38321e208888j60156a037077B126067q76887R64763K756691k283388p32171p94516
38312A160559L33979k5509J208579j68683J113391P63319A577131B14368M26932
38303F41300L563315J391803B189712c761366l104975c325910j561945k442170
38295g330025c588219A634768L543586L17965p44942n56251K78233J234508n38395
38286E169472A672102f72375k047237r39189l437343j889209J237268L260106
38278d487979a530328k341864j555339Q91167d12285a25453l705282k371271j869299
38269h071305J417907b647211g82420q33047j274740j648585l589587M85162b973586
38259b764859N02031h44776d3486A622926k85704a986446j111232J511712K13493
38250a372473B35653M80017A2119K538731J776248o88766D02940K38480M6144
38241F87564J719294m62222J334147n70358r51867a763157M34418j988863K46021
38232c071581a050247M4680I57164J785002P2610B49727a333644K37346k789844
38223c886142a823994A359262e9480k493001j602271r34060k847543J345577K408574
38214d182204g57418H55396N65318C22567O3338f44702A827892F54308j40553
38205E13755F2712e55247p17022A896087L555041n3729A934096a161559k450913
38196c612472J622390I3830J135506J160146p03548d35878l249123i33332C51599
38186I66377i09071j877908K44090P25963e23613n30719k656584o00951J276205
38177c035662b51793C187822r36597C13147b139609a18779C219747A577942m56112
38168A121830j99150a093693k9949b12337B279237J075128K577082K766449P474859
38159A6172755J4794315L0486387P1073979J19474151P358729r9985343o5845210
38152I3529763l4003662k1167817j2504858o654002m055180M16424L11374j402877
38144A4469165o584358l642588O5268j694044G79932R34294L747707J633025j211107
38135E883851n15104J502549j285280K49033M38126j528940A89689b125387C81760
38125A431874J017080A000116K709017L474608j820482j516372j058593c88492
38116a943639R13881b30807j646344A32784J007952K74207b34460j822074I95770
38106B583758J92156j093863n22148L758344J83199j041839m37526J446928k91952
38097D777057A829249F4362a263723k227089K8011L29826J072772A520984C87365
38087c562766k579496n27481Q18038J299270J331649J329581E14296J640950a218829
38077a581658B46248Q27088q9942K170464J21487k54902J705789r40826a569302
38067b457398O64554l376897l105498j136929L190285a758946C25582K738727
38059C064309m35479b811615j173799B26037O64038B15840J300531A8941N39249
38050E58190b903216k318951a334704A808739J205288j459798m57389R13174P8970
38041B088984j21065L00310J944799k077819c681440n49487g43318A669681p70483
38032H99198b085831j320118J8668J119145j348312l818625l68256J414119Q97879
38023e491331K219444j227731r15424K434057J138705a52738j945887m40873c35184
38013E90550M14917K596584J249244k089753i7376l135921k921829O46941a393817
38003a060912q41331R5408j537311h22677A941919K377509Q77696A213237b147341
37993b063504a87278B53697c21639A669372L917597j253456A393744C10120b196023
37983b048502c13009B048921q69574b43657e1523B123124O75899A377516A0853
37973C357276J86531A628102J982175r56067i67904j340704A198522d8953j017384
37964a066337B503421J308948j578873a153134j796497j11845J319385A235718
37955C898993A572964E65676N6143B38031b097807j862703o73003j582193O78239
37946e537467a417644B728273N96065P29804O64148A679939a480565r35684C1502
37936I1839c351853k421305K775398A29467J513609A85243a261590A972359K223091
37927D195450j013711g63352n54077B047427I14695b517778m90665J23090C29969
37917E810408l2813k043973j607147a313058m212916j165451J930121a291434
37908F75186J181462K46232a615850j368517a425524m59765j130315a270036B505135
37898B675066E11360K787136N2839j295056p95105a440513m110667k087715c576647
37888B383181L726543J816051j155305k637184A491072i68557B022523K711168
37880D733691j500764A107225M78083k41738i76244l850580J783002h42185j203828
37871b046013k658001L52526J079583B27599M639513K092983j330696j544470
37863D084929A686000b953626k464136J55061b004392F5245a048738j382453q33390
37854c264581k236287q39558b963331A345361M312007K655313j038701C364441
37845A451497O45799o30194a598044n4685K07220f46001B611320E76647d091018
37835b333179D15274a91586j508044j301230j732651K283839D849225P5131a34628
37825b193140k06076j452179j255586J338933a455180A725014R86204R02116J15249
37816C728583A300665M45295E52359K49422d56916k02722a23027B412987J195108
37807C608095H06507c92650j589562j59875A320038J046203G89458j19484b524683
37797d036235a934803I6925f97028G53270a21333F90140D4645J662301K071462
37788C778408a39612j572461p98823B785282j036638d99051j08405G65183e07903
37778g07883m04920A054863K454904j402039e4862l53640k008849l44301j286783
37769d048435j281612k596117J908412J979918a343551N96402j004913d89122
37760a586216j626858a583503K6440l634547k115908j09291m24323L334763a230911
37750b709049j56255a23723A264040g80050l71808A176899A20404c174604J576317
37741a598287c0705A610746o25131J789629K868431L556757j009287l417156j415325
37732C358664J267348K46536N44659Q97082k149699j272780K418148j118225A482382
37722A667361J852119j396899o3998L86674K64220a17634k012072c21650A894050
37712B801922m74788L1612Q94895R02592q91525M35941M64636j386069A249377
37702A685243J438429A337874F03272L201662E75367b781599a203048a17103A47010
37692A376423m98991B15083C9712d60890k944468J160398a97538r12790j905632
37683c015960j792042n73176L05048b384703B20587b327457M07194e76676k053184
37674b629860j605100J705598A136056K689054m55421N3184L347A673337h77238
37664a495740k241796j784461b389148O34187n04707k325416J739883a004192
37655a443144o84029o95389k068062l9542R95782J149344i23890r84969j883353
37646c792212l146528b720608A591869K909705J314550J661247j686865o59680
37638E130826P64611k051460q16153q61847B22941a444943r66467k002188Q85852
37629c527746A03086K523913K49348J218378J294796K002285k361748J013874
37621F043932j417732j562590j248115f79510q89068k145135k140678M26920J827831
37612c599640c24023l05234l60227B371064j06581F59769J959610L85815L15809
37603C321003m74312A64335a38782A997430N27939A091737h69668a60038A860055
37593A115323j98672k7535B23252L17593J247970N21J593389J473434p33621d80899
37582d187541Q4203a505953f75003B202416p21939L339673K39111j804141L9637
37573C294757N59281K365558j148138F07595a338622l118548o14485a677478B163453
37563c13826j619450r25468l43551j293400Q34516J628512B51485O88287d688498
37553i090954K321073K253545J464765J094353B391763M408634J166284j943335
37545F023346k396877c236550n051298K016998i23943B203311l52020F56188j95814
37536D60374L4632c02060A113945q4629J195268J98749j74413K30864q60985K11777
37526A830576K56748h99934k88100j015614I1836M755601K273325l72876j545373
37517E202513k048692o79688J110297J988453o77992k443727H8924a457104l766609
37508e223713j072658Q73888a770994G72403L87520D73165j26143d04519k967446
37499c371965K17696k106441m21924q23030a964762A005986J447223a355798j92700
37490a548498G25738K496988j309880O78217p91998a11234A505150N5462b488658
37480e137246p46179j21074j003223L78713K955801J2549j636000M0674J4994
37471e240991a802947j4825c48800n12000k843249j91904J446148C69995N147483
37462E517478l61690j601484A151229K410473L483600k629011c85103j30833B774032
37452B814664j337075h53470C82597c18856j103971D24000a011778M94738G95957
37442A114892a081711J93666b54410l166099l0672q75748n76548a769038j346968
37433c116006k400067J504523J818894Q26412c05557H39055B26601a941440k373619
37424d315059j351885J007454c90415K7481P1687I46147B51865K292770O66450
37415C211085O22030G78967c877014k57742J283391R96795A111150k63167a95724
37405C70732O2074c14835j836798m44914P28601L88697J98215p48347r25025k290299
37395e244705J590265B305894O84535k80978J341069K233211k928439A146101
37386B189452n49372D70543D9120c27066F36931K063502J706439j841554J68530
37377B733848J53848j18857a072099j099459A387908K640896P46412j472666A598412
37367E89237J47075g5010k416244j241139r98062m91297b515470A385481A25723
37357B605194R93285J539066K61301o01772M77027j88617K77689O50036k597253
37348C415956j316569J972455j358287q98524p68093e69013A00690a73969D70167
37338B336479K064237L80315A044083d088556j357086J49034N55092k484845j543191
37329h769552N08981P09769k60903M14184r7621N36621J316735b361938k56030
37320b617968j561907h37557C240038J83755J862726j97376N69993l6517j520238
37311D102381A643451b00022l648807K86688J358389i14490j384167k206934b213853
37301a086896p99427p05199A249192l4657J538797H46239J605784K189289B291051
37291f71700a5373B725834A244273K36239D59684b236j164342j739990J416416
37282a490152B949125J833667B106248n19699F24877f47587k82069A720199O94348
37273B414547o06076L69057q92659J133598j177947J461246L92894N52089J935659
37264E582408J272079C176813A002745c012988k183841K126073P27906F80908
37255B238859O86610P11587K419571n21398j108386k22091p90349A116838l85214
37246G31624e70153p10959E59627L163142M330928J844604J85349p38551k211351
37237G133748l392049G57292c832883J25176A025733Q9659c57567A18318O66394
37228G84712L40439L222515j527324d40297A44810K2966J095197N78807A84818
37218a822304c68555A703171M93135q29558a692801L74258E60535J978722j259739
37209A279518d40513c2766A769036L34081o85804F62429K001649i6152o98457
37200g94609K82207A516028J3474l06516b320597j682807r00174l74402J563073
37191c714907k581443k71247i86705C655806R33925N1266k111989p70032F30795
37181a413535A1693L64597a281915d94056J83313A408269K231898q12158K183416
37172E011425L99889k175438J08900A260723h16277j343336d2175B893813J059265
37163C953078D94326J370274J507157l96725A24197c505381R84375j792838k493198
37154f807042j423541K142685b578974A066591J992146p1750J317598Q1080p98718
37145C586947K186160k72022j009043d96868l712805P23506j941539J992600a480681
37135a51817k28791a74046j593610Q28892j166492k515665j29220J465000J314877
37126a970264P64187l50364A011936L194014L601891k602217A178441C66886A59155
37116a966869L42321r7993K16533b99087A21599b934334o52478q53934J81845
37107d258901h70839c30262q78081l24921l050078M94084N16867N47685j397825
37098d422531L62389f78783B525141K207363J044967p84237j722329c59618j314917
37089a674535a0012r55422j861133j854943K034866J300298k281907l84616j34817
37080d147686J321256b49022c5732A00200N182056L39590B807632K18793K570088
37071E596513K099352j730547B592901M13371K964402r13545j7054l07064I71896
37061A79974R47348J658127B47886a937469e22917j04295C111529j277116a215447
37051d323274l307153L040507J423154Q98978A269748N26561j00442D94475a105957
37041b405748j017545K86448f26568A260645O43207a234872n28184D372319J120846
37032E493165k453548A298275o09220J503795J337967N5048J261669l52943R79254
37023E473845k379479c108879l157138J519997a546325A388741A86600M3774a541275
37013c051514k22502k195632P23715a771122g20727m89442n906916k745892L415372
37004f447605c138380A544763k97720d43528k272583j679831p46283J74201J231870
36995c736154J307674i09003j443390m10344r75050J302971b22591A975446L82763
36986B358209M06874m92025p10557e02636j042582r91499j659802j961453r04815
36977g062787J406801a170918c17017j305858C53115L73837J89360b535380k579290
36968e114670N92002J134413R00357j420030Q6654f50909i5244B374667L850474
36959F225141m20621j393740k201471f25175k225062L31239O61037j435653L28170
36950b965444h74693B140952J013908n14471C4624g48789d2120A033289k16716
36941H16573c7026q92688k353275l35007D11724K885137j580424j6334K598740
36932D298843j016941I06977d92835j98755E02428p9073a736345e40594B081860
36922C068213A392203B43547a510135m106937j473925L193684i59054k67307j314187
36913b540548n18536J384889L45839e6881k443484d48743D414084r90453D62953
36903d39877j459811B26442a36106A33680K647744M51183o03223L200a251688
36893b975094A599695L397532P58072j606127J067968L140561K359947k931097
36885G786551B323612a039344c82290k050727j348856K01880M88100j355220k899825
36876g346938K892660K125479N05687p55783P53402o88646n27170a291714K6679
36867a265035e35715B298420p5531a094983j587393B14498O29292J430472K846
36858B277108a451014k422153R76829i96584j364218k783909J520192A461085
36849D139034K41698p53169J116227j13541J065740j411540A812176O41162R03040
36840C356378j498281a328374k306643p5243i16506E38345a540546k533643K29643
36831c844546a831775g36973b09973B222411L375551k784000a251214A083275
36822A831038b905969l103580q64233J958369a693669e98193j773054j94722Q67004
36813a698965m28473o95605J122879A588908K614741K048058J289912K290652
36805I832271q54830l080564k284519J762494Q87666k386105J49632J182516K021744
36796G230305Q9018j973156B278004K19450M8354a052366j000988l909111n28724
36787f491189b789960B098662b89781A365962M422823k792440a843388l05033
36779b148421K525l08092J147556O06969D85698Q466a074935j952227j790941
36770d818103a833186A212203K828774J93674o04374j033083m05131L68940h3664
36760b265284a010866D152982J573377k564302c6740A39590K767174G61640b643769
36750c871656k68516J525100J191376B519826k82231q5099J087599K433332K41667
36741E915094j758055B6240K70966b347856l027677J268439A2720M26797L13144
36732G52661J819898l21022J741043K468673j636887J899859K216732l637932
36724E303025a061374j250742k46831J253889I83642D19568J330525K204244J050012
36715E004349r64745j795954J240737L04720F56080b914929k031234J827498a080626
36705d61198I47038J145120j11915K7250J048312K330194p34472K73093o70162
36696D254458a228433r63105B94508K822058q41743A079989M86743J521706a44873
36686b485101L77873j00654O73526k189354l942332K870107A301539J92814G02570
36676F50532J233953L874152J11923A262400a065635A734644L488287r7613j412244
36667C713074j694964L618679J349850P64643j382527C097044H68484M95549q3817
36658A280216D94941a0971p34386F9943J763081K66467A17806b065589n40397
36649b605986j359294a494840k63984K10807B410921J301980j142467A260694
36640a09507A1180a374531m06936j10529q45635m66940A865935L515367j224176
36631D157126j165907E01143f2333F18618a802176J00612B08435M59304a034253
36621g16431E237666j155941q29055h350l095831A944163N237793j641575p4154
36612E466227J009242C062660B713c763058l015911p599j251049K979049a927873
36602B499419q20235J187102L139300j705951A134140B38667h12039j086455h93988
36592B796956p8484h5842l940931N17172K25920j230401l200525J483874J814501
36583d416232J189771J046626P16716d20339j219692k447736K78544O94541L32347
36574b782335a236891k549463j494564j91836J685554o77973J294218D95279L096907
36565C592186j410287f31581k726060j590382l701735K414291J749866M61191
36557d024410O80763j012561N84957J524269N80256k613708Q48396a010594A350089
36547F60474J954955J065304q89879M27188a012426m189240J08837R55044m234249
36538h372034j859136M124388q25174j478490J833532J976876p860J433175C08862
36528B927478j148947a115533B9487K021032J734519n62480j482207G91724J280529
36519B072253g82996A330357K194411K555192j016012k397324N75731J192743
36511D435098k062798A083144Q91299d08408q56819M77598m409077m49155j60874
36502e806735Q48771b471998h23967G45704L665462L52623M42757j302053A150276
36492C616373O80509Q55389R00078k049766o32026L601050k648384b349783J19363
36483b230420C236185K419293r21358q54734j87671P7992k65698q04003O6860
36474B766866H45165e76435a93297C28500K30938c60149B289639n91711f93705
36464I09724J050302G88320J587617J50203j080547i58905j321746A852693N70639
36455B423332M80271A94663a308993n87867E97149K74217d544786l942727J083235
36446g404278a144205C370728J348418j000874j76387I70060d26791q21917B058010
36436A988800N4350J189031A195121c257668J290701l38071g00210p23587K33607
36427a190190C133588J002393b90781j688356r46010J290760q93869j858947J366269
36418c020934j910405M49531J107021a682352k86605l580074q74169K923113f33106
36408B223221j6456F19434b283112K90713k13849M9333E4685M018215q416A867517
36397A929635i10507l399871b021535M49880k289318O51092f04060A944405R18723
36388B863128j429395o93386A78403J466512M392912M103345Q74087m912630k995793
36379C106836i89322k520997J309056j554178k426758K735166i22315j900207
36371b822522j826401a498577G14400K34178a554020l796640l45871e11296G87318
36361a652018k698045L60818j958581j664047K146720J310430k333400K476444
36353d011679J568435g23071B050974N24819p35081H54765J555988P3191d89113
36343d476261J352175J473947j10088j169034B594210M20008D5125K66468K298668
36334B610261p41629o24930L92935C75706d806836j007948a199709B851135l43589
36325B507546q56324f23558C243108K505835K59090K824k179651b139772l127426
36316e267198m103978k24848a639480d57532n855463l671382K167275j033750
36308h850852K508342i93864G92506h71628r92315c59431a5435G62553m7396b443281
36297d100025a341280A986459M654708N62061C068351d00198D49546J206415E05221
36287a635542p66900F16991K115960M10551K742937K464483k263002A627304d32582
36277h1660B909461L97180q95012M38129L21956o29110m13683p21537A10380Q02669
36267I13049K289224k37983j098822R05777L17650J572390j04134j749217a205993
36257e694658j063470b405866l85304k081270K374933A487198E21355p1141d48771
36247A015601J501232K834423k25650A778069k2561B21659a302514j77664A343130
36237D922175j126124J91398j911905I77934j38870j7143J434531N77144H10067
36227b537614k481301O37571f96302C674737A203018c491168R00035A61369h45074
36217c012108O45178M49488j28982j061435n75247a761640D85970J9331P57295
36208A262596J987587J122481D2913b941051A418742J768826j077993A02245f51270
36198f80796A779493L441776J468870j907424B390198e77885l424567r82500C02630
36188C852992A078229D01777A77325N50504K93509N53603J544203A462585b052763
36178b132861i10797d12625j281849E22662J097560D27639a012643m67435q27925
36169b308003Q93036A396195k89018B55892P29135b30583p25958B543544J740494
36160D284038j950950K99579M481543O44441j548874k334480a117253k374525
36152c491778j442096a586229C007384p2239j079333M3997P28703D89869I679
36142B614558A285193l81130J745019P24957a97934l334394a714395N68179j297705
36133b443921r54079o67802J342934l93942O20813j314442k486649J971518K112032
36124b213538j766569a935736O91097k04573j708966d56762B936639P39249A133337
36114G21756c85339P9166H39955h29818A914304J001708R042A246719j26716h3285
36103h05521C9383K289597J571753n06378j645198B2948b196291d20604A529793
36093B062222o44774b218818k530082J16395L59590K030390B099334G15453J789519
36084B504972N348092r83976B584513H32326B48984j1726f22357j938836J22775
36075b438418L05514j365092l02527J417359G65488J576662m510J052754j422964
36066A967430J996817J652199j852494l50705L64652L815830J785288k646226
36058F732791B806596P4788N468643M238453j073451m498334k036682k147843
36050B832170J140266j265615J088324L39074Q085q48166A305048a812548j573931
36041c386479a106579k115245M52227E83325K297273j367811m56108J217125K11649
36032B485453R87457N11992J773961K84686j603925j400213m34485j025167k06670
36023A373089E94247f83408m907442l294894J556954p19682r17645J015226R75299
36014f975592q42285J740321J699081k197351P11715a569016A275897J568473
36006B844370j91816o96351D28201a359241d91999a52408r68165j558977k526199
35997e205749K382446B366079L15613a739070o844856j631743K907523K254485
35989e053661o19979O21773K313259k50498j683901j140782j115705k311084j18597
35980i359175d456044K094746o43831a415788B65136L072422J747010j80426j269341
35971C634801R76372A853708b410764k06763B796748J736537b02513k770793b6512
35961F61635c004206j913135P17048r59268J623442a280481A114434k12360a62722
35951H29133a961640k743942N14528j7228J16170l348634K206748a878152e45073
35941D40267L87126K02568d044146a622619r3204k639336j996071J521704J257839
35932c571687j663807n04852d35622C221862O16055C13721b505874l222662J228234
35923d500302a560185q28336d70343A176563J48958J457094j162898b66411k86430
35914e52841j704284q71229l246685p911J027901M83247b410334i72123G37602
35904A131255a042590A795965J497804A308701a275k090414k093385K08174P34799
35895c242101j180510k5136J150700J098605R31415b38028r84070A530882i739
35885b21252C854334L063541R34591j614341A702599J183605C17921J234317b453117
35875c976866h28356D061116q80355j145611J840884o88967G84240a295101e81930
35865b75230l360338l629810j276777J524646J896612a447248A066250L112065
35857D178315L251664J586274l161456k633740M69663L88992m54771p33427A023047
35847c741579r16404O40736m76028J065942J495363l21128B19254c11172A868757
35837C575010j181993E95568b203869j395087R74488h12539A955331J25683f72548
35827a754780j555232J615676o31072M24844E87915B73891f26894B251557J67334
35818B418891K62723m14708j05627n99396Q52386o99973O2289Q58399l93453r99049
35808A242482m43661d85190q90107f73718g9131m01307A446525J771546j545972
35799A672099d293848J68554a863611o31473j952293n71579R15696J755700r2278
35790b439838m23456J408870d27597k345350l14273A536521N70099F23231a795040
35780a279274e93416A764425B74696a80110A953053K37599H64970l53053Q99771
35771A411688a934875L4619a54361A913604L04361N72665J189284L252515K49252
35762G481681J09657k642694d7878o06580F83306I0336b891777q37123J501984
35753b226916h09403A679985k51836b412106j814698P83293a261069F69156q9672
35744E79484j17100F8170a474224o81832G70053L998313k052562f69710k216411
35735b886121N38386I84611a71049A426574K070656L152264L043366j148179j44045
35726H400636j048361k043532j692356j302362K185067J444734J099104l52534
35718F690396l82786L46141J75598m66345J42262j573160j814199a48537H31980
35708d315509k096402J228089J758459M08710b62391B568574J276262p70732j069854
35699B004250J453706j086702J430260J3167j485485H05335M28844d56429j107070
35690a563499O83325B57683J669365K038540o95692k17860O33808j186150b004335
35680d810361i85657A105580J768402K603534K915698j597325k570290j410361
35672B815238C974d652583o44396a691241A112052L130179K497725R14884j548865
35663F105975j484527k89432r52957b75090k81894A514860b11399j9190k133232
35654b363821P74834c83825B20039b811996j284932g12479C866098J356360k188806
35645C033652d06696B31969g50148l929678l46625E21428L582437J11670J235767
35636E451302L701044j71116k458490r97029B326098j04835r10766M49481R28776
35627B688754l0488M68110j398275k37211p29316M45613L727340L20252A185855
35617B654132q29541f81197j915446j869818b129536G58409K54572b43871r19839
35608a163710k168364o74215J970223i84771d68790l88559c26434B091913L44449
35599B436362j188675b88644j893703e51671B482984K354293j893268K931621
35591E875630K955508M67569k156738l532271j43678n63996o02214O25327J875040
35582D800177E49798c734934k063634K336944B90191K400788g6090k525489g20501
35572B168500o14449i72747l642119k212615J35753c298762h43020G00979h58994
35562a582366F88221L93029j47561k16524J67865l67668b59662A510990P26582
35553B237572J015401A612147c06112p14404j695807l2966H16612a17556q85293
35544a002849k117335j907038N29372J271183k42307n20543a024386A614194l07728
35535A306466a036136r70122k292412N59145J747606F55841J354214l98839d30746
35525i11332b77962k30146j260796A381968K675984r0043Q68784A929068A17614
35515C48022J120679A02798d063345a427851C541847K621155k110602A115094
35506A893450M5779K541545K420537o92097k342155j172811C37367a407246j925214
35497c332460l497659K393254a241605o34347h72177B165692r70117Q2024K578155
35488C855754A819857K541824j34828j926278j106224a917093k032299N75653
35480c373739B09458a55574j391417l053399j933593l299070O09354M108432a878439
35470A74413b8135A249445A93935K477184J97422j005552m10992N85453L54857
35461B392307k16292e42778j919272c47726B113412D97946d746610M31113O80415
35452c635082b91449B233710J249837n44615j019411K614203j286216a410662
35443d853980J245124j40367m287098J377962J770860R59451A912247L73776j095342
35434A190681P87573a00956l103859J02734J227011E59594a528010I68596J208173
35425B176769H97367c54912C27154c465474j044085j517724j314048K362180b391320
35415b729056k250292j568852j850985L24627K599622Q41378j158757m239740
35407a0032055j681886k28823J213250Q46721K359288J65462k021423K450103
35399f929363b430090F77559P38257b110709k294885r7373m2176R77113J208280
35390b359750i22890c58605k339485j806797J123709H62261B69122c53100j380407
35381a733507k451108p10932q9985Q22265J655689a085653A68591e86153n4363
35372f40516j172545k311144b007535a77184A336721p5203m39750b317509Q50513
35363a466996d11857j444179C10114N4463c42702F00630D0543e32479A965346
35353C670787l54381H1504g55074c45519D57682J893086m49796B42835a000528
35343c166331N37637Q8316l763384r76549J484054N89663j534919j814806O05013
35334g951306k074693J678074J995351o16236m78490K366311K098964n4504J9778
35325c016751M20876J31214i37368L71389r4106A639699J452842j49232L15037
35316C258346l42733D43636b814099j694348j496305J895572j082340j113431
35308f304951N16308k411817J426916c253685a310434j80928K82735c86313A677355
35298C3153a328250a9759A834302j17388a348627j80352E67192b55268C92524
35288b088847j908759J785775N93816o70494P72768b71325j299314k261996k252569
35279f085204k85741K384196J056376J154448h53280p19004q09155f35932k168938
35270b804870k543757K85064K138560F71077R47970a874527m07741B494137O59852
35261C153989R79978j26933A639667J102531J791086L680462N40315l971503B073722
35251B55090M7750K93608i06337c80453A356091D05152J464364J613319n27820
35242B955015l12988K631343M074097J840083j576271k091705j597339B374996
35233a989300M55979f81596C622237L251109p91575q41582j402204q76365D02648
35223A052725a417317n63486I12762a349664k179564K4199a485839H20330n4300
35214G66030K864742j746627a426380k450463J660497F76194Q41505b956787j566217
35205d523004a300243n67751f03601a71563q35439j592332K69373L10740J28434
35196a890787B150469M815586Q97052j657726k132687j321670K79238M03772A455123
35186A266336g89853L64555C427947K159435j517945j976798r39428l75219B80651
35176F47743J915077C84302g80770o88057j897811J509937G16351e62828j161930
35167a724758o56240l18852h97751j598690M19666h21214n03235N14806A598058
35157B08492O15338K688124A578803e7623A704570d62561j733461C56059a249919
35147f442648j348989J038422K144106K277637A112838C05537a871827b06266
35138B51983b391997K24017I42633B40646b89533A15943K234028K10545j25753
35129B434763l72609b83151R7089A492885o85400B32082Q58145J833934j322186
35120A601975J272719O96606A097581a582113e05923m7531k807704j322687k679165
35111g363010K324272e66060c691H07481k17786N25119e84497l92496G77742j03047
35101F74695R80086J264863A415369A93944K306469J863308l7164j930289g37955
35091b015195l31017l93176f01395q79510j856195j445490R09924d85416C835065
35081D413353J925877j631337R59306J898634J159947C897881A254984j24913
35073A130071J70149K029627L14792j173716D73786K35282J867276j069197C22484
35063e3926j694943L54812l72969E8860K520983N98915J912786N19700k777588
35054B833656A227093o12880b316814k847055b16132B437710K77141j297269a830836
35044e25556K6879A613470L6912A48652b95382j262228j087300k651485r67701
35035f264096K320472a555452j440436m81084R75873f5590A98638a68169F52755
35025B779221K450269k003146A410095R60585K404929Q96658k114820j26643I77949
35015a326448a78819D106607J618165k401674A262769J646477R41379p26237m79314
35006B645074K666018j15827A876376c502680j547423l1117l79099K113410P29920
34997b616989H91095M876276O2931k303559j502678L0170J026734c92750j746904
34988b139654L42449O67619o18815j010086a335292o28126k025698j249468Q05034
34979d433550a134199K90105B85247J462350m92113j37654b23425j843870n39278
34970b606573i79876B560340K274815K614497q47660l101029n63204j030935m12114
34961A494710k7424j35139N78669a515874j693922J195761e23290k056469r73138
34952c552897k168454J979576C107807l37277j91714O80210n16068M91376J135816
34943D370150P0850J248227O9506j066904A507902C09484a056622F40349R85899
34934A626248f40902m77737E13201K325298q4546j52459J478659J887985N78379
34925F546517q42565B742543c21234l299419J691305i15021k270674l513536P21082
34916e978149b588717d20907A013731l19826a420067O03105A045147J784462J625459
34907D455068E47865b908323p3082j337742R07892J250461G62153R07988J462514
34898C132655A548591c30669A001287j20099P20575C24464c772282j27780g84367
34888G38487B77130J520483J262433J749639a102844k076856b06070C358282A287613
34878d631055J158018a352931k42644A222317J823737K86m57476P54780A017288
34868H06299J437255D29544K17585c2294j667870N51911j64030k09685n44328
34859b066296P25792A406281J455557A034375b6393r61657A53364J291694m7370
34850A397688N14601J922643n33588A358488o69887J699489M966962n85178k268848
34841D501026j962052A232361b76708l412107l186504k197561j192043M466930
34833e797993K228839a704496C9154K335598j8480E48240M62426J344222K438102
34824D792990k38093I3778L371792A286242b225520K43112K18229L05224B73434
34814b294455j11164D86287K55795A35754a995362K01772E21805K406660J078687
34805D007152J262363M73972k14007B008133L79871K407027O264j307226j129554
34796B364515Q40876K492306p47696A775485c18508A243580L228682J316574k322630
34787C466206c492681K33489A411323P26184j25764K047747k61927j762381g49010
34777a916866Q74952p96290j154153J349090G47856L33796b420746l365802j510329
34768g296877J383336R19251j492639j517168N16587Q63733L241482B113708L42563
34759B456271D30248M30846B33388i01331B360951J275767q62845p25230m00734
34750A647909J26718g11819l117605m13825J151478J489482a29916k084353p10642
34741b924911p98603a450093j344316P44253J19705N03132j10696j163576L14697
34732b386894g02617k78196o85275j91574N74783B243710j087743b432279A244825
34722B170468D52224b026645l73562K28413B84043d56661j885649j713488a534687
34712b142609P13216N49030G4003J806585k23701e2633B655836K20439F87551
34702A586990K203887K417145B715288b016836j097985M55821O10675g28859r4563
34693h23422l075919j702125K313385J083107j131146Q57399N39299i56297m07327
34684a363624j836875a25759l97565j471038a38868B693794r28906B0872d523511
34674f413436K080364j344933J289712J362050k831664j876609L268581J002854
34666c463081k231907j212825N50132b655699O87848E89848J979614A120204K077100
34657C197304A514053a905964j654372J488345b8289B763920M25351q35244j128720
34648A225307B38438f90670j530732j251035J55631h01524C54419d209995j634582
34639e844577J525010k516557O89234b654880D58316a943484j807619j688450
34631e439553k625093R16131J77473j410993P3451K230536J274359N83824k02353
34622d422218J544367a170163M03987e5154B423213P7195q68988e43495j56377
34613f99872A95207c926655k829792c335139a654157j83900b18616p02877K28248
34604f93245k5309p68844e03799A195333J347424F37477A1369L664960L921848
34595G598177L41579j808139O677n01154k544198f5834k551817j479086l24329
34586d421066a341382b35281k700467k823194j183317N48780J711685K245371
34578b436423e24891D49770c0423j57000k294556j122690a786448b70333l858565
34569d128898r77641b478745a089955C289319K061889L68994Q48402r89094k645242
34560B934268o65466n40315k44303a619370p359729Q58951c615189A72550b655367
34550b522247n09439R1240k878937N60624K071170H46931O34643g40728A675352
34540D012266p70313a648721l059814p08142a703011O48902r63333L9877j683899
34531c661464j695386J735134E05392b33092j044643j744758k964213b280513
34522c46787k39155k23756m370181m07475b597752J34212j718131j498984K39907
34513e440748b049018E47748f29047l323167k159780j753457m55838K661378j9480
34504e679391Q88759D86860J302020h19757C80490K627311K027608j161172A046603
34494c364110j082030a599450j807874c44990B925506O92404J090648J053252
34486E761810n76703n36405r14066C45298c353683a069883o70140j988646J98480
34477c530189m66080j319121K120848h52662G46780Q50715q4765k96031Q32295
34468B048994K090137M81239B163164o04083J91172p97420g60651l005953k988918
34459f755522j93054c200745a064301c28081j353033m129501k600999K557875
34451e853739j228107K466628q69199j902583n35565k97313K411957i09774B754354
34441A073605A22429g57421A540604J407456A255491a646847m35116e4569B505350
34431E067839l36385n29784j456263g14934j42408D889235L884322N76735k96913
34422I053379J422500j738382Q23974J388693j231619k616280B296981a448260
34413c574706R08990H14364K87316b911594J62859a309023e70330C31463K243616
34404B575079P14108o04819K730287j019259n93668p67749c55623j123531p67984
34395b247138N35643k05144f58124q44997l388326J112411G66421n7373k74885
34386D34163j80840i38151l67975A024157k66802a388082L07608A393275K6955
34377A420230L04231N24148K081442A059707J172286O84581M57091J619013Q42378
34368E835056j380670j964390J73372l02905M148622K755194k011092B428020
34359B713553M541763J990976k153810C399974A132001E19981b690267k704201
34351e394468J068134g20892K44377j50491B7749J744485K35840A03352L171162
34342C274514l1891A503330J911208L809185N72201l440296j618226L377951j266870
34333D848483k158005H36554C64360e04027J01594A887782I41564b837972k895875
34324e733847a839442A895794Q67316b41651m075728N26410c56950j067509k08925
34315a633384D93233N81754m08550b778303L72069h64314A316513M14041L71164
34306B101718J815482J753825n39130O03741J361114j103320B598880m84443K478427
34297D592864Q2058j778833K321525K29158k388781e30681A920158p12606n53176
34288F54376B75658J916216K838198P60070j637566J82262j602752j121774Q12604
34279B422916O81236J508837J87713N53935j139183A4257a679049j922042f66796
34269E664279r95259A867078e81400n11136p61694e64925B98678P37204M882566
34260E918448k768574a834380M08863B72571b788656N47625r24898R04001j379597
34251c641525j901623K277084A83184J848579J866584j5975A617911K220359K35076
34242D073346j130047G40986b48430C907008L756380J204759k31139C600224j441757
34233B158467L62547b313504j440411k80513j482970m52121J221067K71101J099641
34224c377710a097350l662637j401421b426553A523985J755489J034879K390308
34216F704661J492623k258958k68886L216024L07993k518649j443881L008137
34208H239064L40592r60403j684887r67105j977629H47780K82697E39948b194602
34198b347792j577100R09504a25417m76046n08527I94970k67190g68076j46463
34189i14539C31798M97191D00978L818152O72260B192021N2924K574666R15889
34180E735500q41366r9465k38713n25195l64300j421865I19833P94167o54904
34171A059096J704377n21196h81169k400057a380689l319607J45589J003146O43186
34162b908375q58947a812465E94275d09951q80490j6697b97863p96002a59783
34152A689582R46181N39808j196117H64439d33829k006599o83797J380897D70905
34142H41043i75102j448224q00119j102517m07761J681789a492817k057088j381958
34133d931863J513012A435143L824238K800591k096493B611400e6945p84426G95610
34123a684996k85001A161483M309307R34933B647693a804742d94069j27086A881746
34113D872718K07649j393665q29433O12793Q67701A645810R8307J664276K298049
34104E706442k05443j311926J282524J920227J323359m2438L01624n28991P91321
34095I236699n95928l367009j259620a333149j772828e44373A375017N310484
34087F685501J399598k562352B281010O34552A006936h90284I48929J090672a40954
34077b319498K56282D55903J297765a5196j534944B494996K526631O10605L34176
34068E966408B813194i4032F66862J080500l80089P99777m61516C93355C0179
34058e69259k275789j114093J210654R46728c95453A927778K245608m39064A425869
34048B10629R99573B80907c474716l70534J507269A21955L251747k52921q95880
34039B224901c91164j184163k513436J655955d18036A4085a166680d15619B012182
34029c95032J90246A382016k52388C95998b545890j01770R39457f19787q76901
34020a496688A67706J984862J155210K18113p23513Q34424N51991B024059C13713
34010A835373K696479q35711A141923Q47331r16619g25184j947815g52197p0836
34001h23033j515625j914695j940726J490132b002839A84118J851538K18056R61534
33992C215246M49673A802134p94031k19838B57298N96919J019834a208389j833050
33983c041439J230773L18324E78040K225279O06473j294684Q12166K212286K760150
33974G899710j325352j915303F66943A48751L018088M070040l051915A694672
33965B027500l44431C22025J579035D83710a098066B054443K973137R8946k268632
33956B857894L41880J316061H22507d17018l33328B046958J576915j307201a28034
33946F91600K492610J213862R1529A773222J788506J453210O77751L91797B497910
33936A052013a323637j047524r08359A637703M421926p45100j059858A112854
33927B781705A339099a819082k049467J080647P39907Q34664j746329J471108
33919a488552C220425K302941k13665k403617J99505j47790b69221j520557j521766
33910c311544a249921B37341b398068j058826J494649O54301K94188m13169C13222
33900D88610f62693k028762k025949l62229A06089L205783a046736m561731j330551
33891f939018J231852K211350J111357A90125K29194K4775b314999g97186A972405
33881D672414J346853J302517k85248j414219k644873j282997K759356K248117
33873F701920B337429b028022J71132E53196N73751a559492D60281J822528g18479
33863d695498j309142l98863J228910a670445n31166l55689l5909O79152D9107
33853b307811m539516K745549a323872B03616J924396J017435A265490e133324
33844i023222L935500K300638a076290M7700j321871O96175P83566b2908I53264
33834C31387M79289P22235D28357i96976D32782j91117b034101q20634N93605
33825b261130K55839f37864l59255A906199k00681F90787b68730I8487c83612
33815a659968l45262e22594A634011B11892a757077N48566j381911j586668k415527
33806f592617k02340b554935a10659B126935K207960j852614E6074a900378F66464
33796a451104j941000i45924j19055P6878A81154R6681J12051J204570g14799
33786b941193Q88141L49309f20698a37390C457499M491448Q610k843183o22819
33777D491555L692651M37313k259271k799677q67737J356176J267249k435804
33769B882455a304852l561554p22769N66462P95469h18404B433449M50693H05273
33759a682616k35093d37330A689542j59954a812465j770554e97796b9537r30355
33750i59892j962646f45005K40497m232133M74894a845592i14269B102396J502485
33741C604881K059694q23817B236932C49099K332673J976575j441238p12348f91884
33731a074116A031310a47718B152583r72908a109567j294494j4928k746102Q76330
33722d288761d20931B411694L39855j299733A62182J894846R81149A458724J36672
33713A595396n51572c338792k96094J00101j38797a423464n92142i83596c13550
33703a754509r90165r32071k194647k88767a416144B066028M58569j65131J421121
33694C780587M5809A807700H42361a912466i01363a99194k648309l782596L22794
33685f307305O77151K804790P38694C365402P36340A992252M67662J543427j166076
33676B837265j077422f78179k923456a373818A265288L591757J864208j35053
33668F586200l062326E03566R92334M12302d79529j841714o584e94413l83737
33659i78150l059834l031477Q38290l41686j425457J597757J817526a701945A513989
33649F160649K377180K9968q17067l532056k99111K60131L19840J865015J570613
33640G935162C883348A937900M91364C00399a68478l10948A393969a1396l52529
33631c63925C917971K881495J000051k821082k167789A272901a759678l258063
33623e017741J274640b38070m74605m88640j653596a218361m030793k388278b235662
33613a017670k752879h90746B867719Q21253n31373A337038Q87899M584481J769998
33604H579416k042827E95143b924770F92209A91192a812317c52244A555998o99765
33595H56233B27653O92133J138562B7282L495627K631149l72605B599543E94628
33585a37210A306725M027234l94903B458110A191077b97006j239072l37926A70702
33575D629481R03732j418452A978376a509616k218925J431832I10170K133564
33567C043734K061610j108878a756893d19105C66831c38353n58493j361964C62474
33557a269347k508570n02071Q67813j992337k182168J360190j992608L21328J805456
33548f092314J385320K263164a176717C35996J174028c03428k706618l955124
33540f965170L138130J063728a346545L51404k530452J098752j012194j536350
33532d975385J530811N810Q86432e90474n08949a86923D095105m12205j48179
33523C534721L4007m57361L11633G60965c005406j13961M96469g95411A632149
33513I56184e87239K6472j290902i4507r43274l091064J763699r28112j650207
33504d943465J53946b293418l075962r2110J33548a760433h3073A69973J468438
33495A638411K020929l44213A374575L356171p3216k160714A047842a610708a93596
33485B091508o32040M40347k00584F94604N72542K554048R00736k235516e53809
33475b621619A232529L544639j107247J04576J552268J517601N8315k542819a143690
33465a38594B900417j53336J93632M38969J740414k519289c269531j2374Q67624
33456b414281j186054J155935A338634j93296k48593j5009N6714K385454j093972
33447B229932A099586c08438k065733M1956C047078L117771j3466q77165F50140
33437c791664N86585a425952f27709B783251o33025J534684K744946n06167k922172
33428C001517A199481a644837q90377r50506O29009a6296A703733K617694j461093
33419B860334C60059b277383J054122m05111k222681R71995l605184k588789J109793
33410g963238b606659e12941D71592R36175i97600j031739n79429P08681Q22572
33401a077515C54754Q34277k95160K517984j411120H34292a593515m056764N73592
33392e076687b201693c83531a19027j002875c12696r38152r71187M42065A203857
33382A61847b304816j451777j668349L65503J230132r02364j76916J541116J521390
33373a846081C547220o39028a82032j710484a59210B362865k67193P4644o10185
33364A560131l81727a867723l692781j010014L259856J466774J91823g0986D66243
33354c050502j431717J66605J082348g50817q46850P88638B768481l47890H38239
33344b24500p76647A643759o60323b235635M84059p87286H40251K710688j257105
33335B293834e74037B341110r05708b142862K7717I20462c36426k060356f21893
33325C79492J30083P40165r1302J169261K149906k66908A196977m65031b255682
33315a786898e42165j553384B416218L790253l88006B464025B36830n8884J886922
33306B064868J510820j89491q82860K53928A185595D39429J371873j26733q22891
33297H61678l7667L48902K703341K16209j948922J500908L643122q86496k153735
33288D247340Q51289n45412A396976M08788Q00537k8230m98715J877960M47288
33279D404604K347070K909662j238260l495184R16540j409561j338099n13933
33271B582839A207326P5181m8576q3713L77408a205680K68498q35486j747892
33262c520560J355722n60225m67405K22759J126733B765886l58216c61320j997710
33253b359030i73330M72659A565113M285705P61780j670240A647834o4481g35144
33243d421134J120073e75448A213675a20540l077759P15887a169092j735472m304075
33234g208639L342170A496385k2299a343336C8826b24138l443340J509909J69169
33225a988400m19987j158573J9523J482334P72077B439563p20766G45492P74322
33216A519814c151839R14093B901840M72922n20400O4312j164354a545233O86963
33207h58270B050912K356105j1694j876329H49893l78671K065065c19475k358322
33198b677797J130400G97360J381863N7961I95157J079408j47558M535C00195
33188A074481J242917R0614J188971K93786o88937j037466J574421n45160H71269
33178E120421q64301f7989m69530A621833Q81089p94353d2945q01711J51058D814047
33167C639394a331696p20363N8321l150347j898358b993352E91124K698086J239528
33158D528738q2763B027287a209563k289798P15037J221056D47422G3286a388059
33148A865091L499288J219354p10002K543127r81406k765427j800692r17968n34573
33139A416792m10606L511286J305206j855299j011007A448872E05101g25789G09181
33129A548148F79688a757409J74023C764556K086079L25667p58426J102084n8043
33120F461917j552644j811099K111259K989183k15669C311973j606904L668971
33112E374040R5402j133123a6038j885957H37840J741411K71889q18030F16420
33102A983108G48744c83161A352293J771350o87472C46156j6206L222540p26672
33093B825818f23473j053553C4273c04354n6917j895165k121874J495576a152861
33083a203538j78529M29249j730260O90689h01677j420855j326271M81235F49666
33073C476336P1560n23498K076796Q87714K08511o83692o22818j246660C86703
33063a831341k593943b008058j878030j659476b279311n7326m36736d76919j870391
33054b347310J80264a43188B355209L570633p2308B487801e55613k238253R57934
33045a835932F90566M94651n62879a965076G68190J598158O54769L131793l27772
33036E825138m23688A780013B85708K561741K545861k413246j19374A55479b754885
33026d690353J067185k06691M46043a218928m11812j172217O14166q00834K51458
33017b738167e79606j244165j336064P69685N82554j184911P0476D42163h38578
33007d066505k57938a758534p95857g75052D622513M14863k133287M41067A168642
32997a124870j758548D05439J208805a510282k078406M59360j726756j78702J220162
32988c814624j456984J301631N25914a058400B250481L131531r3683o52836p15440
32979C920053j602291p33678E28171b786392j728339j011718a950856F00999P52927
32970A353926J713761L950329C351160m44343R83649F13620D0650N15846b748363
32960d421794j8528L84064f13573l2749D7J540506a6513n86555b55434n21298
32950g76732j588027p91102K50353j88433J001136j408985J88658b04812B337037
32940B089325c99960k874003q30667a71949A342950b156130R48778B621747J240246
32931C861993A268930o05133C16590J444559a44572l236895m99450n39620j875048
32922f295585J247401K425782R39411O81168C96191K89675b563016J156017A52288
32912B26069P56987J981683A384710J708519J37264J447203K263021p13367B994481
32902b61178o06894k932730J205190O28578m94564f60698A654327E73306J915685
32893B488991J21457A167478m55415d82633A225517K96647K095384k14744r88168
32884B414636a80389o61125q66522Q21293H16464K741087J110652r09368A802520
32874a211445l535428J400038B03708M720910k63434A526812a820288Q37578H39029
32864B561212j038099g84072A803291K588598p25606o16018k41100j156171e39039
32854c252187N68349r07980a218932j340244j701782P16532i37896A57913J846714
32845B004627j86553a075550k583933a619906M80004p66771j131543l39140L14671
32836c062685A909783J129335A198871K12242J288514n07111o79066f75124j427567
32827b102691j636232J398364D5394K073669l01637B73589c433322r56599J951727
32818b438194J212275j111228j43254J208403C75272J586915B80503O93808b46625
32808b844258d68687A074649a003496J66803a84297B01896K080747E32491a424700
32798d95489H84595J016169L220294J573066B992928m847K837847J199401Q65145
32789G890474M0885j639635G18789d866118m067021J424207c419391i95676A53303
32779A183618Q17116L56665a785132k53505E4152b106585m62750k92504a368929
32769a380324j961072N83854e08773H1364a682202n39002L90973o99282B96792
32759A351272a29492C05253J595148B79782b687382n38731L74599g09524A32742
32749B223530L863417j423056k066575N09228J765293k009470F58104d62820A270823
32739C723775p57035D55167K625845J364770m91755p07362j090832d40218j060436
32730a500654M39096p56436L16059g49982A845763L033410A259494a248799j603682
32721b852481j75907k755a160553r87699l43229p37237o97272j258064P12762
32712d471292D35555J259334b674236j206409J507700l80987J291500q39838j873781
32703d176051J437870Q86777k306957K031412j387041p76507k02183J349754h53103
32693B665885J60783l90010K505013j771414b178728j346035L40107J525635f12743
32683g74844o64961j261937o69623d7736A962174k77493G89218a147642j424720
32674b572362J13460H56360a65568j872526g20726H00363C64890a946611j218987
32665c165598j362837n3722J352255Q94661L87766m082897P97536R82569J023229
32656c227038P26642E32126r464c921894j54521O74675K79883a354718K0308j583659
32646b918069j545498K007982K45842J21421k97668j640221J963153Q54994B097331
32636C362778o06842J004989K57248K68746j103766J954884P71767r50483p84206
32627D175115D19272f9847G57485M97001f34914j7141B138190K021982j962233
32618B197939a468410m33629B017556f90167H8744L25710a657497A50718J99988
32609C50706R8929N2442O96142f39719q8271B186516R24080A322280a868493J7621
32599a850872r34321k889983J95269K408131J375778k869105J441908m83241k618228
32590f224664r58193L92865N05271J035507C7743M047889p58739F49702J724019
32581B373721L963088j148256A622322K6868J077630j071245K53598B6718c219233
32571c426276a05873C181193L65668J96290K439391m16441p25800B445073m47645
32562A997428P94395a351278k052228n31707P52404k03853Q07773K44693A11873
32552B880812J542490R03167B152897h60020j80058c58726j422910l301564J963270
32543c119930M53833C51813K199071g74839j559316a121662B214952a95902B25469
32533g57533o75033k89525j389007k316431J714489a076546K8528j11120r80581
32524b139719j484932n84709J279216a416371H23875K206721j38697r81676h77136
32514b634202o27563j015121j011349J216711J659200q28925N40808O97421G8517
32504H78432k82490K178397O68140J114850B226967q74830a462116k221674J762239
32495a921551F39753M73117i60860m286204K90569N94143f12074n90571j928494
32486c131139J268759e51480D491301P50031A412758a419968j216053a57240C70014
32476a118603q94611J85763j986724N34116H23427L936155j120895B22632a181384
32466A386303m79942N77372E71661g91387j687266l627330l170992l923360R2978
32457a3107357M447240L535804e46152C384343o06172J309979b9747m923854r98175
32448e951776j114829M39086a890293h04670L61731C169817n9563F8749g92742
32438E25068K81909c01737j770817m640659K355658a520395p90055j005847J585118
32429a731179o43546l18952b7098j029272J85986j133965k917056K070134A382749
32419A933362a923701J43682k701329j87412N08042m14717L94141n16001M4435
32410d652860K185050R26270p32302C01586j39684c9714q73572k112778a015937
32400G29243A27944a225872j1943B51751a165755m94531P62676n80009m62380
32391a939999i45937n55661j948014k86644n154941M0435K862259K106927j40584
32382d022160J020781J256998N62537B610664J973836j193761E76816d91904j277809
32373a769713j522613o05910r40344o58032J228529o66549K236360N215O03150
32364b089907o82881M17440C71520K69963K09182d95941k447693j503157q00542
32355e247333J810967J183429l036149k201022j668993n90519J247344d212329
32346e42750q18970m519416q77628K776985J298983P55253K57018C83524d12822
32336B233369L489225q94942k334788c23821j485280p76584N78881i86148M36383
32327e49765A540999R49529J190124m73882r56885L86725J597418r44023r49978
32318B340027O33328A134672a457672k886441j693118K352629F71199M06897n14580
32309E63516J017925n46071L165094J78722D64260b314811j210635N79120J220950
32300a725376K96481j616741l71664J443601d35683k1369D54953J870275K69791
32291B595019L040215J63675j969965R99364j039440A724781n35897e08940J01425
32282d07515k84129k44400L79175I35490R554M92574J387370J902311J319477
32273F046776k438182o70610A281830B69696K103459J136263n58510p57158h34431
32263A874318f52155o63371d81959F4201K842867A446021a136434L07347A594267
32253E91562c551123q9834O9139j947182j907626K185759K306894m163844J224562
32244e873255J229026q18119R1208M8201K432197k698597l97484J943007J285788
32235b758028j39841f09241k31892k384328A242423L671903h08129q12324A806393
32225A499762N45748k08399d41000j725807k62036J162411A445679K018215r03184
32216B560710c28882H67268J398127g47179m7259A128084J238675J362086J060849
32207D789694k386886F24213J467178g47911k856944j042228J155766a352200
32198b7429k317395j341528q5414a790946e63679m09567n33308j123464a002928
32188a037793k409370C19973L087459j516391j43169M86181J696356M438716k517060
32179E852065j658917D13320a09003l28553j014812I57801j68187K238830J856821
32170D885265L317088M195273K50450l481992k973885k667481a133668p27547
32162a861215B53561O35908a785480j337843J368958g1162A9236J4458K94084
32153C27778J085212N18113J747510N237094K055244m07467j631511j535001j334887
32144F062085k865725h70587j606885O72840A239779K29661J27036K323956O04828
32135D525260J953826l53307j870372L56369r86242K83478A468189J212377J66252
32126B846818J125105F15576c501151J110738B065093J972223B80201i53446A942735
32116C453120J145864J144907j193249A197833d35052J9423k71740D74188b14850
32106i13552J36828c76375E43414K133614m8740O90518L671404j270516k182811
32097C536883A344704J50341J739983J771718M66856k686839O15930K786352j447177
32088D741868M54179J89837j605098a765884l131061J307422J153021e70644A196072
32078A816796K026182j19091j697054G29578c219047m35085n82326j066389J311928
32069c990919a002556L48154l603966J44653r07697b030174C086762L443053K62017
32060F791832K44934j442985A395518b74945q60264j445312r65314k072276r15004
32051f533115J324972b495700g72072B553337K597922j197620C33165d789003
32042e555185K637973D20323Q20844K67464d46177k597354j983582r83958O55496
32033e355575K429384j555416J184658J432023j072739h74415F97418A52343b761985
32023f86843B498380J96653A062109L40912a74790A581814P37540j015938N07875
32014A811291J074001A104347c570710m862875J33831J084080K078902c41222
32005c08115c703A43010a076659b89386A691121R59568E69887b56702A090847
31995F41390i91546o03111A243987N924751K380429L117894J92257m220182B586267
31985b543382A88803J603836E28856i04401B327422K345812j152272n17337K064104
31976E067729k64773j474780p19742n19731P41510O30843J546062L027762Q49679
31967H884559r48106j052658j164122k255989I18845a196282e14155l83228j542979
31958b440362o52852e42177A212802b198052j032476Q72670J164562j610849j95350
31949b999495a137264l239259m68791J66476b089328B37237R07759a511510j133704
31940b645214j24113N11184l05283l453856b824989j2707j744670M78751j05018
31931d208633j156118j284324K351756a963803J45222B236071K087542A345831
31922e38073r82172q8096f21027k672211J18253A88923g8359k702310n40701a594932
31911c751467j435418b259040O92748I3265P78020i35773E84898K803616L729036
31902G117550K860986o60713q55661m68856k140821j085327H97568a502520a6729
31892B349383o97880J060316K180694J129069k00553j775739A184871N39559J120515
31883B844945J074762K967297N61663j513357k115644j324893J132702a57174
31874b211131O38862r355k66584j441158M17735r23312K81618R97185D037285
31864E417440j504213D35261c742662l95451J469893B10452J333898R31323d21053
31854h69843E52896K296717R70014j451678a766645m932968j52721Q72410R97795
31845d982129a362903I2954L552795N42437j652390B99291b102374M2876A290887
31835A276665J622492N59894A111692a40847B31006J122747J415894M18876k60278
31826B928245i03362A19124R53467g52810k111480O8735a261031c47390l375488
31817c722878q06207b015372P77054L34363g0805G959a090215k613378m97255
31808d200848l398067P91456K934494f12221f2443A25486K556127J308199k65236
31799C724576n583A237189h34804r73213j406706j399307l733230l05858j765879
31790a0418997M549866J008949J017700a184681o24472P37270c61531I74810J151886
31781B126696P31711q31373h17893a0606l45362p1421k106043j631151J309927
31772b854656a224081A037517N25542n49229A05666a332199M10715A056867N01744
31763A558611A99318b210625K29252P53935j383410a036253l56433L02302j92471
31754a282855b19146B349539J007012j522239a917947j679370i67874A96544f66371
31744i63327A607051n74295c376478Q5164E23888J461045r45040L43877J534564
31735B918334H94172h36197A809779J434110J444896o77381j786239K463511j359631
31726C329045j084967l55441L34981n7399Q70325p47136p2703Q8678j138929c90147
31715g6693A529897K049232p50593F26952a785640k716810a770375B191449k63831
31706A927618J596314Q48214K334905C058303c29353m38120g5840A148223C76447
31696b192962b13316B411031J737942o71492M979J039781L65452K404921L466124
31687A0758738E194350k497428J725301r12506d08609J10309G44579R15959m34190
31678A226348c8154B538957q61570J103485k6415l46722n39761K415243L710661
31669G993878j730028j585181b18698k717735a08046A396540E3091e53191r19515
31660a472706A083902K149754n15548m46760k4909L908363J272615k912717J39630
31651D654330j77023J585938k512083e22249l332989L58839a391409A212751L398599
31642D611350J707824k233056C38857K377177a200085j253107e86695l305123
31634c891818k273087J675824a852404P54267L71945n6162j221476A845187N22458
31625B367645a643074j100515j035512n57713b124748G8355d90819A2594b39130
31615G54787Q42850J99099D76119a725012j813942O74447R99075E9472R05350
31606I64822a825404k301067a860085C74815J628534H83465j60695a816993k494883
31597d311876j541639j259034O93865c066865c59160A763010n53402e54201k737110
31588c291311p15231q91215a325024H06358K11457K41424h02831j015975k041435
31579c860241k061650q97997K637413B897332J461018j902724K2972a716940j997766
31570c714706A6166J536056J00909J323026L478991M411408q32922k528392B505163
31560A122640P74374J313270L387562Q60947k316191A961084j6659m74294D70026
31550a159418a09684j315201B12451J958110n50018a443608j277425I06193M117392
31541E023585p13178A105088k50314c62775A26781J638718M759997j066733j391370
31532D067393J9007J880347L69472j373640D31112d823541J478204J178393b55807
31522I87626K844257j117386O24492j354543A09915P71199b264208n159302j364555
31513h788065p3951J330223J975225a731572C71253K071461K393072B005646b239424
31503b676868b68439J8667j146279k702527k411444J026412a928301i05477l64029
31494a269506J98276k530051j781411k35891K669187k007948p12174K528328C17919
31484b118898r95091J085064e98737j212225L21867f73869i469B430314J162384
31475C592698j247112D20837M9911a137062l611295J663068J360406k710498a319485
31465A434425J877188A396655J883008J869076l00101O62055k024860B66704c981741
31455e610968K146394a490610B311651K069221k082254H47227J469650m38034
31447A878843a868871l94782C123217L61570r82350H56887e26505j718528j302564
31438c547597J631379a08680C483132l7194Q46324O14368l28591d21202l756609
31429d177811j468754J048165i40824B617839L04371G99267c867022j21670d52673
31419A097674a545525r42177K40637M48892e79212o29447k142386m36323P68802
31410c018566A538906R19544A0742d20108C04108i19165D57674J039027K66746
31401A763447J956515l65471a522029j416933J422q09903o33806b007401L70648
31392a636753k849482j084566Q44981j307388K17323K518802J368706p45353c33239
31382c17617j54781q25562r47892o95553a203703B66631K136074J777360o14333
31373C565732a405242O02759A137468R98910j28377O01520K19981J07629Q2707
31364C019838J470898J742853B418582r85734a04485l619818J41005c50848j705583
31355b056431k425207q6265J356774j74539a356689M68316l723410n74544J818067
31346c368260j834198k534681K007385j668106k13759J103497K992776j94724
31338c710070J52876a424939K73206A774206Q28234I66000J38072J285601C46154
31328c033019q9792J079697k936504k7022K298269E25409a445087k62894d04547
31318A414427n09806b54696n91902q7353j505766j61456j120498o96930L18790
31309d099811J332133A174194M841149L040179k52811k634079M69146k233242
31301D404536B122803a661528k531929J891933Q04955N70879q33207g97979B094083
31291B895668G76893K57778c07400j648620l499645l131349c045785c28397A483456
31281B626671j32541j225931f41062E38698J777777o43999a8678n43807C13121
31271a186847A422817M047517j438493G75540l16729q8924L72269n5092a257931
31261b890446a439768a69997p36566l134881K03824J785704p92045J397216j8876
31252a465621j632892P77173H47297K419036q87193J959686j391195A320953J028290
31243B349243J337303m55330m29395L02234p49451b058126j782549l29315P27033
31234c442957J123678A04690J582809d38810m35908p75747N21341A784658K348986
31225D133644j989578j043508C03113b07035q64889k85519D38380L325570J766577
31216E530527l29933B072152h37087o15033e1820G59816g55653l969628k467623
31207g192904k444607r069K117401a966227h00753D93436b46135j059260j08321
31198a413716k2040N96864b76953m03365k136676k156666J556582F08404a304567
31188a322306L5507k15367f99028C557538M638124n88201k098701A394334h82860
31178a805002j203974j628257L14303j561932M5682K5605P79426j298306j103402
31169g435857m81681K664118J432319M54412P47606K51928i79759I87608J553465
31160B541073A097816b039974k074403a910083O15611D62024K6631i34848k380889
31151c315737j383199P81875a751993d44386G6809f29448F0393a437676k532073
31142c969749i77739A911163K63131a614081k897737l80093b033132A147167J514403
31133B661570r9904R17765j426005E64917a954930o53943G26396J078020G96438
31123B675149R5499K354575R00922H37279h93408k160513A319669J440084j352768
31114A406985c10534B610731N30697J267444A588812A20311K47101J75241b318075
31104b945074P62473n07944m397109L45074a312856J67687k577752n086470k487034
31095a1296425J797500J875879O41127R57387r04291L158063R48643n877D09029
31085A336586F34905a790257n286483k131235N84903L331593b634484P87594m82399
31076b329289j929966M79435j0740N6585i03675A909158I9830e74119l5859D37043
31065B180474H91776i26572O4858a97713A844782l58960h3946l731384J787045
31056b028285P07723D61619K640592J77307J402325K088428C382315P55027O37366
31047D774708J117330k293482a06063j27831A438209K39696c83895J81075k118632
31038b321452o04519J236552k611676o31559J603384R23643q90677k806995R79590
31029e123709a552428A220139K932639j214124O58915l64014o39838P11653l36637
31020B968733P80850H39151c729516J416283a29078k57841j983941P92093b89654
31010a900532b3189B350105G88943a396234M36910A441953d0006l083440j609043
31001d732489Q03859a151654I30669g15113m32952m312187l64947J568464J006642
30992c250093G44360J402856G7279L1300J178743E93511f39774k356209p29910
30983c725893p85636K188871J46522j40644g83741A503110P51749J34088L18384
30974B707331O08239O09587K734097L41711k44864j182481k023146A527843h06443
30964a459241C938632N500864k567006A205009b001950j398094P35981N21054
30956b143009G7000J275790i9178H60260L198174J883683k729556a270988q83062
30947b154050R03260A713403E80171e05163A444347L86653l84505O18785a836188
30937f080895J304699A696720R26510j280328a480749k911937k061012l99291
30929f852989O97430K917577R54382o03749J077252J86839j277473Q0919b10925
30919c72068j850240l72082J67016N81391B038404K025330A020115J592715J285933
30910C898763k95398J68603A690783o28899C18346b39949C59632L88338J124166
30901A872136M57036j039247c98296j82228C84114L459233K570977j85800L36811
30892F565335A504268c512237j372487J134747Q86926N19729j192784J18221R92734
30883b425151b88980B980712J278090L40261A366387b811978n85447J538742b6085
30873a45956o93665j296792j437587k446636b493052N58649q38544R11648n44206
30864b405505R02332j465830j395603m98954a342592B273412J067894N71659A715804
30854a726040n302732N54152J816618J42238j408380b769976C13518a812631j911661
30845c724292f91857A396311b962162j931159J7781a773158b88716j310458j339216
30836b938390a448752N34127j53577k465114M5246R94110a13573A11058a732103
30826c032902j055967Q43808A659526F36225d013296j118854O66578J871932r53295
30817c546935l130991l247692L741818E01640K140786A071486K18554J098944
30809B388984J596542r84820E75415a95794k179791j471029a157036j682347j807304
30800d646687F65802J827585a28125k688721J85106I18953R53201c178873j302931
30791d481804d85791B127740A006471c787541m677521l226522J135610Q03722
30783i752252j08738P70486L526391a692331g71215B580273K090208j410323B06302
30773a063490B64970J321872F72474b789199j084566J44896a783479d75581n05388
30764i80969A15139R3859a345600k871610J512495d19861B173518L39578A088373
30754A30836J39940b337194n789379J874957K534865E32615K834956L760137L29516
30745G457224q96599k950965n0639R47477j860928D11588a904251M98725q2875
30736a488401I57568P50135f0625A082549L271807K936814C116929c65154r01350
30727a266504m10471L18611B737292R70421j320179N9567j137141b27440A061559
30717A113620l81499L15897J268461J102875r37114m97319A25910J468047m96651
30708A097306a239415q42851E91732a87670F63003J397818J055062A331302f69132
30698A516419J4445G56550J60117N97064i30643j801189j6172j773419J085986
30689c435437B175960J231649P26076K239371K392519j854074k918149j191074
30681B802278J650488L123065K515770j99007k944063B613182G08024a52328B0016
30671C221665A202834b209418R96736G93424N46734c15255k56921j699209c73325
30661a729578j029599k678269j315000J383892a187314c06774k333186o63541
30653c303501j200401K36674k17124k42611a764857E24818A48275f64580r50138
30644a614718k072651j826628R30196K193362j606866J35409a342646d11390l22053
30635g33443j64111r09588n95853N49912b44283A680279K916024L97065j593961
30626C399407j622214C37056h55745r44598O97279d14379B479643R35176F14807
30616a976837h14663B772438o87897j83814Q13671A080995b150482a72553D265540
30606E448878q83858m04296j552190q12190J127714M309770L76300C080491J190756
30597D271247K310642q21963P00664j739892G42303J186965C4056b215527j820070
30588d035597R07362H26768K875976K62207j267931j4856K600971O28651k368804
30579C542982I57534c873259J125866g47510A067552L902016J754432L70716k935066
30570D159650K063772J241200P9396m13221B096221c269273m29201J548643q29413
30561b979244e90029D40211H3115J009619J622100J50367J738991J413283j810051
30552D207424M49733j361724A616057n00191O23376q68389a737959k418844j423902
30543e580705J604006J246177c62905B424600f11634l42066m79624k13806J1104
30534a636026h11068D34421e33916j922477h69955M12212k774569J362177B656556
30524D821777A508115b09177j826144q842R10207A163194L82651o94686O58946
30515A510105K049650J06611A561428c73002B840933o19357D67592J038942C52604
30505a590119L96594a42976p9713D19918J102724c6354n3708k20110I0310M37001
30495E27311N03614d27894E33368b452812j297693A366075J402543o22523j1600
30486B134495Q23921q26300q59165f00535B289072J093396a143556m881898k643162
30477h668616L048746b560767j087123A064117L712907k97026j64223P85365J467295
30468F568435j312860B044547B22051c432590O16958B965024j058783k07462L317378
30459E016157j744799A217468g55258j706875j007313f13238C050294L450167
30451F500461j974981D84580b751465k178803o04137r38131K608601a404205A940861
30441A586146M29270m40397a645449j027913j614290o36888J587990a343618j65684
30432a509302k40772N1124k27372h75987m8219r36528a89550j536167e83498A550519
30421B577453q56079J010024H57506b889010p83276B201687L327180m3506o02024
30412D883337A638211c003645n34655a26103A38592a249200J28067G01513K629795
30403C331308J691173Q17958j532060A825195d46398i6978I43827L29411o57k46947
30393A025634a077145e30238A100016J106764c73621k303452r93002Q55424f29182
30383a38586B249280l51203a648701o54645m01965m64015k231642o92671J379562
30374d714077J919703j44044k463558J361828I46613K656445o2225b18892k062803
30365b281695j274379N68015D22974R15265H1477J65951d05407j237766A202846
30355B962291m93072J057786R16565A929648J48933a799082k405954R0743J361871
30346b752422I56205K135185A151390c19605k210869M14194A35542L655777K592630
30337F383949k04735F40509d520557j594571J948603Q0865j407248K322079M31112
30328b739717j474898f87245H39391B49480c29991C746093A741153a488579A375534
30318A520562N09392j01921n55429r4968R32629r96842J875611K01992K920486
30309F211512D75777f710994r47479K607765a234919B258652J310416m8985o89120
30300B830963c92946G13777J107060B40392b242555j192040J511069g01514h8292
30290e88253k835947j2354C76946O00121C53183L43949J111044H33896J660760
30281B494656K310490q06449K02382n09165a29395k40549o6816p16466r1976k078632
30271c323834M0791a378237m59648N41025k642344j249440b659l6403m03912A201515
30260B68119O13814l79096J477131L072603J803231M64664l071304j106219j37047
30251C005896o58406P09738J453661O9413G86726J083298K873406J465394L145036
30242I353860K138591l757988l313560r87505H30389g44999a75133H13914K000468
30233B814382P86187A178235a344487k796697l84953A890755K534974j19882j810338
30224B495509H86845a792686P31041G45728J047930f47441b51826k93569A092344
30214A44183b175828l15857a183719C593792o60251C20007a628898j834865m528235
30205g991998r63500J167572L110500a313816F66734a30312k869623q58340a435046
30195A96006O71220J652558k52026D95412a834172j016273J326660e64738j297961
30186a862699k729576J878577g95441A586783M67576J309071K282034j395811
30178D249653A675747L9706J398059J352219j154802A034059a901370l326189
30170e227559l439238O20599K575170J413645a186586j25699G47921K308064J977714
30161E033699r56949j610775p10810e72860l275954c42775B95823e8322H69126
30151D408072P77369j880235j418632p25727a039294A91037J308725m1707E52491
30141g46271g3977B874773J329256A452907m45006K316370K260754K84754p55968
30132E113811j668550J449202J34671j111106A224467f50682k115783d1008C032221
30122C444645K19933H92946e09384A098629K737622K156408C91532a779831N48490
30113a231341A327579J872556q63183J096431I49888g68162l678780j420579K29529
30104e637992J144956b183699g01038D47442O87767f09201j406487j693942a111663
30094c62109A514011O58205H32356f41708k370649q85499e30203B579956j89439
30085B390517c30563M7289A847738L82836A95925a194434I23915M15737e06057
30075a60241B852095F76875a504410d85597B455201J545854l49678Q5941A574530
30065B51711J760066B17814c202998j54427a280640o09898K55387e58165J57144
30056d01021A312447b051469k050015J955005B179841Q6957D44780g03829j258257
30047a962086k256447J889943J072335m99427j430818r5668Q85152M30293f73910
30037e54030k109665o47860k44312a108612d98061k025988O06762k95542k369518
30028d582347a380895k43387j348879o93371L06456A594688J056401N98341A352611
30018B406650P85433A410062J367275n97032J028350n41370a820267j683018l089345
30009f592630K677224a44120A352330J074279p28748d43842j677611h79436I11578
29999A762225m79409a542493l425309j167384M90061p36509P97689b031349B383466
29989D30440b20504j016990p28886P35639k51718N6616O34253G50793L539650
29980D290443n19557l9444J876274J107331k189503n74353P75296q42677j168444
29971B715366p88581e81233q20672A463058K898180r95401j522184n46064o32907
29962F64682b421112m248510J331588K194223c87672G51652L158940K921097k112768
29953D718921d10095m608468K91622d69400C14775J695266D18312K64489O93930
29944A376731b69094j889553r56280J522520B538620J67494j065747a821911j444826
29935c266737N28482O90529j116586Q91926I57687b996118j935232r82245J149035
29926d764560O51081J557603r0611K43850b52633A607782a027830O0362E213418
29916D349989g37481k530855J193974f0698F77636J478108L24223A044609a537074
29906c336758j190524j060162l065116j015437K540798c433057A19996L166940
29898C286936K690444j214664B67824b060998c23353D05754a584411C74013K24350
29889E98363c291550r51804j20767J785046Q10366j116942O33466m43188R82690
29880a712683B676860J445290A348094C50568c74558q41806A433727f9570j642259
29871a711829O14032k179474J070748j466482j714058j620777J324169a942009
29862A357618L605232q51193j336315L02009M48856j72271a491692l215131r94371
29853e701194J115998b182749A654314R32139K7310O60374r75326Q08952j101577
29844B006186r72335J9041b358958j714180a667747J20862l592719l661698j357845
29835a0159147P01170M419870h88334L96215q22865j596460l213569j226372O8482
29826g282903a503221B486185F99950b713109N19170d29664C27228J462104K71991
29817B061323J06166K251616P63453j892090J321480L94218J477607o94662j776109
29808D013002B23175b099791j308842h14908A665702K309920J83592j788735M50990
29799B821469l18596a01656B35459J535208a705710k89212d6651A594879L5819
29790A630698j54037L60296n54653N70861M98880M31149R80939K951334K557047
29781I272514K167397l623525C138368A547841a348667d77496C118402q10689
29773B307713c06823l32050k114796k517324J955406a29842A607083E68893e86120
29763B54836N62279K11935A96696b434630J7738m3106M80904d30359B37791J795397
29753B033188O45794H84671m07476M327571J755436j351282o25905j997924r42672
29744A642419a073156j790172R81538f02318A410837D51400a576421j456674j871541
29735d904636b398459b30610j19030C787599K82062A822635D75898c228398P80175
29726b448223N88017l055744l543626J273999b449153d69401j83203l786894J271234
29717c168264a566159j476277K3755k176683l098068L101564a143694C45056e7441
29707B94583N49218C80999a948157E91360J494957j01349K237235K286554k466980
29698D041777A79372a045403k332003e33656A085485a777149l76713i08549B586086
29688C117420M34878L85880l32924m13958j011767C41512a723616j277770N03926
29679b497460j38368o00356k223537J927456J234498d85263k743669k844371M11357
29670e661946h21528C777225J233979j85700B099765k67370F47509L65562Q21573
29661A834644M41900G41850j74647a524947O43827C090584j000627C75636d29547
29651a781143K35581j607995q06984l55939R93146a026430p32849k98192E29462
29641A061168a62236k968400l29853m65170L76007l059861k040517j729381R06101
29632i473310J908172q82269O68727K332662Q21590J14295q32642a009765F59110
29622d02063o95345M94118j042138j173896j944387k740451j315678J112777j047894
29613h754957K203840L208611A574704L760860A579703b89731k898409k705355
29605e893495K369659i46701m385912j745656b865022l080204k251201K286458
29597e909969a887410a11610A104857J978623d40028k547120a077511D99256a5671
29587c675554M17535j126914l723597k400830J976721c998389M43643k76470Q9066
29578c742150a629661A050687L58717b369894l516248j282883J442580j878806
29570g605251k17507K868855K406559c02067j764759O01496C06798N97004J890322
29561B794124R11418J172426j143092N12117j517997G18646c50800k261158k284987
29552d896945K31433L45732J222590m18400M75044o67055b84174F9090b344027
29542c134528M80742j23806p86004M05959R08139j06598B537496K638027q95882
29533D279641j780902r54033k25075a654006j319552M25826J031643l015386n34205
29524e065680J545548J388762J59732L43775A135895L904336m04724A633259A7109
29514B006743O90452N03435A004518L51053J283160Q3712m21801L74750Q55479
29505C530871p52506j238257a209089o63436I18356K478613o27200m67558M11262
29496B713473K667314O39865G56022b804574K49787k22616g72082A972369L028751
29487E001120j329424b0863j394012A420306L34443G57291d69692A342296j04511
29478A237785K28172L07022b341616k055232K75995j799062l132156q00326K041882
29469g810515K676472g15092E09545b107075D62027b39871k363582F47736J693934
29460B341670H66810K82196m90575a794403r83020L25433O78342m27852f49002
29450A721390g52818l545627K14416h35184F722802K928625l208766k692438R48049
29441D698272J885687j764077H75985a42185I82849J744840J751077k10744J526339
29432E794361L04166O18027K554289k05360p79487C802529a819107j014378Q03745
29423b029740b77517A885805c7672k035495j037115i81220B807368N37221H59392
29413a75812A97243a604083k090486J234386j6959a086544G85687K522195R28216
29404D236098E71306b36607r44175N72721A584639M09448E95421K009939J244272
29395C849632J102443k80018Q1693J423428K538645p94110k255228M59797P79112
29386F905394C018739a287229B71338N078477L15875j805140R41495j531235A464933
29376B081032c58643m611458j28221p92651k664657l62471J487982J534146a046780
29366I94528a288382l571667l3698a577336A525837j8096c89460r38378J23746
29357a204092j415898r01620k887495l0069a421501e81730j388357b16301r46595
29348a162896j469179J95315L45351O66105j801632a247930C628687N61015A517469
29338A981920M78613j172360a364601j222530a231320N23117k386111J295890
29330a798424g93938j103226k507134l246499K256047K343598j18355D61936K131803
29321B593739f16013A66209L174637j367276K47525J58277E81989N93380J636556
29312B811925o15415f99292k708730r56910l00620q96838m908288j359140N412119
29303f417699p86788k30535a025668a65324j840197d56282B549240h25100l203344
29294d028444a942150b79867A611047L227911j222012n65478G29140K128928L737306
29285F595374n79447F94174g82499j079425k79617i47042k619887j497432J338050
29276c726311l03932J908834a017917b3353D605912l43439j816308N86078m39312
29267B592931f66231m257481l221695N29364l82554K199863J379685R43656i98727
29257b671411l682629J659104f7231D49069J511997R67333J008074p56707I03742
29247A840854D91491A05328L610294L4432A822336b041273j830429R50813P27074
29238b193815n23588f05092m43368M20971r87220A212827J796965l49327j060051
29229A600414f20992b02275A888311K769129j545522A424143J951623J445542
29221D821308j518924A622148D75630J183582J109966o63648p53797J236787j67282
29212B421238I12899A24033J906011O72546P41737N6134j419954o70143a521473
29202a214761J36081j09221j612880i20881d04469B835552J140799A246540k2651
29193A223889J169952L657084o36115j901079b90292l125568e44427B771562O90505
29184C462067A703224b89724B831958l1203F4337J159694N88035H03775i4410
29174h56124r60261f38633b43594C21655K51115O2023K652183J649537I03903
29164b417871j50214e5998o14320E37688N77232J34687K493134L622743k358542
29155E006942A721502f22333j558579m493442r15262L847J336694K29245K317875
29146c701955J684501j554958j070678K320f58915I60507a461531o90328k37222
29137b389081j945216k409529j376496J296241J968775a354928A025176g3907
29128F90097a382069j000704C149355K77462A208146g11438l271595M69725A428460
29118D294194j571799B1423b507963k415965P10860J235535P70819N13638K59834
29109a433242L65943J76133a39729j573465j259805N49111j028355M76571a251558
29099I85879m70462b001862l584684b592571J084541j195466M44750i14994A74861
29089f48750H29059J850482K152736L29505k298378D04796Q56630l63614a94744
29079c380861n05636H71801J531666K806123o94346k257137m362K706749r23459
29070D037035E64489c87058A820343K944322m03186q7250A835552A63709a195639
29060b163217g10604k31492L61758A707094D39735Q05354Q13182E29443P99697
29051A329140M50578j49983J899458Q94075j655721N70007p88773a777751k7876
29042a805627P5109k0615d87577m42409A182511L938736j729287j412653C79563
29032a009166k64220A41635c381559k130144K240067a59630B405842M80072f70059
29022e297102q97094K637360a612365f54928k879951j811659J439965J880685
29014b025888k217771j97740J933244m03517j016735p47461j243610j437956K027396
29005e330038J687909J595554j522041K2326P93151n138630J806512b118271J80758
28996a937513k81119H60865J287458o58167g06592k911818J478408j400774k133244
28987e674020b205228A414631M58412e68242A154250Q11429b30671j725279j693339
28978c649289j027561j96871J776216N36577J151707A993039J997529Q93648q34285
28969D049931A764463J218979p19374I49982P50200j30853o83293a39270n60574
28960f99844j336407R95148k054985j385521N98523M95188a401726j92953D16193
28950E43058N35960l24050f49911B962456k08853j277477f95251L14030n6145
28941d37366o49235o38458k11961j219337m37669J328631c2096k403536l723534
28932f159166J533710a618024f75011k041139o87267C74793K880923J054511j619255
28923B690972A168757a109825B711254p20510J824139L550506k342366A975940
28914B733503N68611j57325J135824d65330n358040K125012a230641L96401k81605
28905a115845j654795a126034B235528J248070q1548N4398j457047J727663J104365
28896D831429A537808J427100R70686j534324K356328j044043K54647j40386a76665
28886b872553f80386A15659J971234J037150P06409A605465b963938R33517A315104
28876B226173c308927l585986K403223J335577a501889j425701l82185e69837
28867A962778J992616F93467b2431C882801j007872c10974B97016P83931a65159
28857A36653L672666l6829J65508j103310l97073J339124K170195k336704n73992
28848C036238B77222N55035L99356i04872j221250k30218d95926B576512J007278
28839C583790O60457o72077a313587f25791K18705C52251J930434K1467J957314
28830D261466K191167j53736k305842j461265q55932J843529J087564f11543q45939
28821a457482o5362A031289L842539j478786a704174j597010N82567b2383A130979
28811C764437j5650b40997j302262n78383l0703j40236K90139B56710Q85017e88179
28800a291059k146381l446684R96564a612237j2737B5158P53816N72898J484067
28791B835939N8873L864454Q15863k538145n14894K299047k792770j756065I09983
28781h8141I29801c9149A283720L162497j708302j007759J428100K558735P18890
28772F435881J260510j589460A621951c180270a575863J54684d12650l28949i1009
28762c19204j97117G25509q1192N87359K612757q96107o16406R86973A003842
28752B580365K935541B599291a149802k442558M60119a456198g06352j587460
28744b293812j784001a509120B977258J582129Q4890j707217A061186k35770O0734
28735H86150a182737r921e8443m41356l268738a307445a00289B322081p62930
28726A559151F70539c155429l898293L088679f21443I26822J324347J60684A53195
28716c1638B567025M309731C284756c254584j999871b395054r66447r36924J664260
28707b634165k96480l429590l176477j720681J636724L240205b969406R21197
28699b048209N019m36072B596274N175024r12362B360584I03135A51379b271800
28689d700519k107789K954870c45591B131540K658347j262115m18109j209887
28681A899776m16518j80113J497096m13462K72593q83866p65867A13062J091751
28672A204813j02431K644792P44861m72515K768625J840739O36687k970303k813591
28663C481677A68762K700026L119701Q80540k834163Q2261k64114m32367g91438
28653b624346b3725D133527K210632o43789A704163h61291k470886M6727P20598
28644b564852m119308m597296K374346d042768D22669L39074a783516k038674
28636c822190O23124n17191J376201Q22378j856222a199787C599837L74111j570000
28627B403948c41425q24501j202386g51853j365704n81786h15415k7126j040690
28618a883231F33357N01120m10793c96864l288448l2785O72805C59463Q41806
28609A201269a480989L17979n30935m71744l32009p8062I75617J835905a90025
28599a551899l196950j630100K583733J780839c51228j656234k755909K289442
28591b473929f4339A844831J234163c10158l305199m223560J464017K358920j915273
28582e931253r31800K783254A12342J236895I5431a766567i8609A492491M4000
28573A536491f58431j406820j224292i86404a11571A77726Q54696L415488q93174
28564C554736f88093l210118n74309K25862g23095A891253a244346n16986A798820
28554C795984j505679i23717j446083j25312f81555j329705j408954j59522k26595
28545c806331j290674F79313L085130A430188M17732J136891A164018c1559D63222
28535B085885l51819a197239r06304N98782P3806n47120Q29716A2422K766923
28526B779345E93689a548646j11289A261347j97303J752757K368404p53633L56208
28517D787780k167762c53385l921611J48346J883810h44040l453657k158219K314668
28508d141248K37592k249421J009488a787803k31826j942810m35551B30310J050215
28499A280525B26547J953112P73917K486552J469086M72390K278493J390744j750467
28490I300374m363327r50256J46044J47788A717554a863152n28862a093107I37113
28480a206313k903218a495483E73159G4731b915561J182336j491337o15275l87282
28471d227119j674283J889175e41970F08045c168632k9888A2423L358353M074871
28462G445647j90488k916260I04222J12391a847167r35431J132458D03956L609705
28453D013661M774612j04462l076649k274478L09932l67207j28740l95940A255676
28443A154127i6440j679039j736005o08693J27868J850046e64342k878234q61090
28434d303666a982264g83032F36349a56333m787868j772897b416974l96523C32188
28424C325267J82739j506795M52806K686250K222326j902984k242609H6242a514863
28414b32838A171580k85113b600710R69738b30022k301814N51326L56018d00154
28404D144215K402286j853916H57698f59639K54184j16563j835629m179849L244291
28395c293205M06501k096701a270984B680275o30058a421598E23511M045027K715976
28386G284514k452767j839234d19889j949267A1719J050978J572775L262845A894824
28376g75215n43670K69103D99802a159711k608474J669093M9524q22207O09295
28367b262480I94570Q51911K086640A716228O31140j97193o71869g33772A333945
28357A140247a631997a03258A38058J44994Q49597Q91638J754053A037106L3889
28348A070995J409380r5258m8963K068034J190175r92331P88364m91895K9766
28339D928267n57799N74430j415547g65106k095639d784q91464l24228e60654
28329A549042K399754J626959J216698n07129B361348h65651K46831m21684h8083
28319B868751I42985d275208M5850E38841L125909j661789f24367m90617k531288
28310c646272a697097E38224o2377O74789J412417K430951j11911L76783l86701
28301D872175B295087I18815c80159j99884E3370L998671O97038m90392J347507
28292E606194K068346C472366e78392O7282j57486l31132A554115C21978j43570
28283A78408J809924G47162J96425a022913k575031r85470a076126A239224a091087
28273b589979m01546f47150B81135J408709n54283C1717Q96085j19868a894742
28263b88328A837316J89134I71624D09475J247384E80229b769934O14810d69203
28253A081346L312760j603724J305988L48833A745107a255490q86267j41448q0238
28244b363443j101148r4559J747842a46172n33814L25437A534276a90932A486638
28234A206128F25K484063P90871l71046J790424L114282m12956k415334A954308
28224A628903k47706J980017M41426q84467K79539M97727j78259r8532k41757
28215C176891K115405j356872l39101r90157g19574k594728o24523J906386K09112
28206a823327L92712B955422K573316n35213e81481k140320d78298C79673J524662
28197A904335J299627J464363j826125j153518m92707a93488j038225j314347
28189b546060j881543Q23148P96167F19325B12691g79542J45673j986040j58563
28180b778472j641521l485560k67025O05705J908950a166946L21081m093718a251116
28170D49483a201709p43539j367535M31123P59682k811879j72109Q45962j017102
28161e277106b065483P5226d39239m82754j801922J5683J49228I50886J655469
28152B606355A179220L90011d39825m368523j364023b523761A772055K615k34531
28143A540139K004570J401066j617716A613866J111302J29520j353804J699246
28135C200130n75360i72535p76772A426149N069469j626271E62693c017756g27646
28125B320735E93544h01479q16393M69716m83417j472876L59557J047333j661317
28116c358876P11658d26792B784578K977588L88928k473561J689551j99234i08606
28106f881762k412208j364522K956102c685192d90162D045641J10495J3915D98933
28096a790378b80762D500035K067398m26706k984219c2402l689j220465k505248
28087c761804N21533J578472f12039j263195L34727C603895M48978C39866b810824
28077d525305c70631A750783C5750a195204A823866J114258Q66425J959328m0181
28068E723696J088346J207833l700761H54509b745487q26556a487014H17798K92009
28059A109807c8124l10510o7044l68517k659318n14265d94870C904909R97136
28050D902045j909828m92019J826358A817198f01613E53391a295848k7900I70577
28040B233638D87225a651167A461319d42391k423638a175391j970413j346398
28032d492202d27549B330949d99199j142607C23500R56370B82327J048287K476914
28023C807528j223697a276615j558719M04113Q13504E71271K315123I62234K255420
28014C217654O52964b2367j806317N89358M58546k623934k530024a527732B927117
28004C325753o09105Q41218j298871A29441b646843O21181e02100B65860J592494
27995A858354k89717m57282m31401J832145J411480K202940L084586l585554B418345
27985C297223j152683b28750F7963N68945J555855o27745h40189j917914l14564
27976c072667B70778M272952K626863k239110G92692c01856k30351I36723J805835
27967B742558J495902A355646c64898q27400G16764b21664j020742j869644l33203
27958c445253a284345n07212J59196f75621C164121L202791k119694A017092c206310
27948d511649j105455J134366Q33051j717221K53893N14642K001095j298454J936956
27939a958776A54090a420101F28481a2125B104213K194510q56430b52492m016409
27930d268901K063064C172375L970290Q89391k535237k156378D30757a815260
27921d83026B43191a378540M31203k55353j722549a151885m99977k471810P95605
27912c328067P08803A35945J444492d7656j440110j188604Q19152j913980L78035
27903c393163o1843J260265h87793K16064C763666j017200j221780b038923j915410
27894c954333J687449k67553r57627H9165K166234G07427J655483J59404a450856
27884d225662Q21764E84340R08728A18275l6092J272138K269959n58438J140441
27875D206283J802884j380660H18176a042992o83853m78576b3967B227825n15156
27866A712669b253469k803565P34383A85846J440992p96490b344748Q45419l37070
27857a836399e95339A901968a002880p35901j734910J418445c17703k116418a177835
27847g84858k520430M62945a172967A715829J273340f68516m28288k071163L65392
27838b802575m32128j26185L39744a399363j709825l02739a589700I53894a565243
27828E63610N347684n35855A442013j64494J756865q5914n91300i08817l890646
27819d799463J661561g70577j454933k585220m45052b256292n50357j178516q72201
27810d857366k69106J723636O1043m499532k984933J407336K643744j076986c863973
27800C65087e73772j665284A113942L642374K42052j637622A461622k37688M463656
27791E687590j053124A381211h4996n86342o00205j457450a110567A431128k39157
27782A191971i16654m85493j399454J027504j459484j742524J154334o46843l97831
27773d866445a838001r90835P2208C857618L573948j311712A551561G19459Q52709
27764A572168m16716L043065L317655j53750p33381j946006j428419B9887a32289
27754B588609H43799M54974L219019n5423J752240j861309H97042h68115k522862
27745c390977p95273N56838J587597C75023J457568b638078j128064J492638N96077
27736a677427m4706B34739K789106Q3206G82953a960942N00054B293746K6314
27727B320060a32553m86978G29339L401422L377157k240706j923049j163891H37538
27717A038855M09590N71982J950383j76124j555444J062293J909683l42538j975002
27708B893678d84015k910473M09111a311379n4907e3400G99981g48186k075937
27699b824123k010438r55130j249842j055791K387625J467154p11280j272927
27691f224752J122204a810472B091028L621355k785336A028164k4832J60642C74038
27681A80988K434213K12426J37024j092002L40643K881840D25499a130613b3681
27671C90404J950230j121297A83110c318442k86970J656p74772a333672r5387
27662a429059k295966J074395c90660B574147k49685F74471k42275J163971j41789
27653A454378j36665A87476a258572K37009C100043J759202A683014b370414k461391
27644d831805j032099a902629P60181k561705j809832j684336K704193J359485
27636c134643B15347N115856K030440B070561a628740j835295a432462k669489
27628d101951j303477n95599b437685B775414J579064j714382a09527k089221
27620b198748P876j923632m02001J273038h66021k27961c85580B669236j177104
27611A492132d79276k27050A179885E43787a069623A367394h19842q06163n34254
27602b160259M23982j354110j876887k12363l10000K147885j584257m17643a402106
27592A366128O02127J863909j869411c97709p57467A02727J007022j92799e89401
27582a804460q06489k97104q20f20368H45188i3912k146605R65270q54054m068707
27572f198008j853507J341868K56265J315519R98687N85716P93296A636959L931801
27563E568760o14949k096908j339718d22295l28313L25291m61179C35983b16469
27553b889216a340661A099277Q31734J312387J131306P22958Q29743k131243L0931
27544C827093a241348m078216j741943q53919r36332J560544J530363J168800
27536d592051l9185J26337k161877j490625J715867a644626A990345J370225j536272
27527A824298h07970k229174p9875a497763B61950K054240J847782A200892g3097
27517c825420k985192K908881J395098n5603N23253f70612A462902B4053f93519
27507F77960M14154Q17655K705391J986413J509617l749552A505246a96684j98475
27498c95159A826482O3098J094816J624138A850538h40268j380457A044693N61038
27489A605731L476450L186984j286992B329834f0382l38062k371301k144420N40102
27480d374063K132078G45220c386329k882691K377510e55702l37236B23379P88303
27471A011682C65268b95321j383714r10348k364465j206630a583009d42959k629866
27462c072825j944015o7245K145764J14124j883187j35626d11640A148436f21727
27452c690501g87449C652600B18865d371669J353806a012612J63987j398478b13804
27442b00955j987096l004442K86400J872074j853052k407341J598358J869670
27434c826384J478792B196805N33090G94532j13486K886741K620627k031894A729807
27424B064487k69134b47444o26189A800598K711157P03266M43092j925302m56613
27415C276198A131323g76917j067676j122450a232466e77077A046290R62195D93063
27405a016566B407744J144295G93789K5215a172187j426712J143633l50897K37133
27396a569030A29722a802684h16380C284166K374958J268393l254786G86089a621411
27386a173075N64295r70968l239327p7744q99314Q16901L58459j015992J358512
27377d278253j030473j076323b873261C783309j642A129629K35321h95453j544917
27368b440370q26744h23918j573680q80223k17734i56043k14361A943551N840624
27359G784175o92766k282544a595370m253848K093028a197227B067314K229479
27351D296793m9274i94175k773736L49355J371273b27696D254809J813585B546718
27341B73215L41681P44127m0761O16665d1401k370711h01699c33954F68053L132934
27331C800987A152213E61830L928079Q56850n35507k29497F50169b142595P45011
27322a397584B40098J925912J990571p98252N77559F50495b194514K02633D53844
27312G65012F0080c31161G79396P07957A35352K433202K077879O58279h04133
27302i260310n91072d782007K087195J021654e80758j091229j582945r4551J060998
27293b288485R51454c0598B569055b30921n77962l68758N81075P28b12103A386066
27282B092780C74741d3487j926720N60943D00487J83270M89840a104060l075489
27273d179549J469322L91719l088060j717112J308647K802313m66971k054261
27265e533952P87788e81855A314113N85186Q2906E8690d61777j167326A25287
27255G69713O76447e90813D04355K010661K39396Q18637L773875p0235k420498
27246D756191K528787j193597k801387J131769Q83661j66714K803802k586773
27238E355739j083627J483358K503597n13861l607732A368585j73626J507503
27230B702462K310209Q09386k193884a013037k13838C49581K278146K019575A774860
27220b012054j907181J252518f6676A570007N13029A28680J937759J085022n25115
27211B626346N20348R01506J768826k648063o09822K064736M98211j58935N64094
27202E527247j562557D28982d306661J454219B000477M425923J841760j298526
27194F969634j977005j121520j222146A68718B2781K394402m07210J600916K049272
27185E660161L50267k894755o91010E07592j74597K68374b71272A223077J867610
27176C090687N2774J093352A320326a638715J13015d54806j202280k59701n66132
27167b482919J084091A627516L555836j501318E49725J379226L075465q09161
27159D195255a056282q12631n64579j562774a997109i45463a22339k96365j764666
27150b183370k053685k002664p19534a556092C948171A864931c362213j65137
27142c527350k158371l05819k013268n76954O68019j858520M021487a145026F89338
27132a272071k957761J214951C432748L997159j605397k836129H2227d2121l86287
27123d28408A081061J763678n44175b80681j892216K21584L95907G89486b79845
27113A491679N67328f5740k7019m68607B82680J159250N03256K319877l92019
27104C873044j674280F66487a193824d88647k04105A659828j18696B15158K26303
27095D41461f82525m165851j293736b040711A048401O9180a346115j4183N27151
27086h33147F94077a068638D85503J419285p64886E42527J34158Q88410K351422
27077C916517J693613k366013A148456i88041E08518O7080b274125M88913H49404
27067B08796e00307j762058l420207g74688C119209J168745L50322k223286a871175
27057a567634D8811b337015j663164p29271m4386J501764b42204A184666c13703
27047B072120J98533n0806A109342J78740c95852k601225l758272J421387a577286
27037B866929j167923n65048P45737n6486k74781j33886a103158C588014M233957
27028G821971m58049p21428l008357a374939J71914j117106e25399G13613M85491
27019A199104b786014K37794A722137K56346a282542b54893B969022L25934C27938
27009f91625F35379L430055P72700k31613J904374C040432F00918J547053K123567
27000D271538j875951a79877B102545L157444K23754A101774b225161k218085
26992d443246q58447r06357N7169R07447o51651K38566J319957a033391E19120
26982a748645k525902r45401k2668K512509D64728J51669c168891L73217m33649
26973c229323k752022K569122O98331L46696D99960d30730j539286P64899D52069
26963C75704f85562l085924a032201I19815b39970I73320K850226J252465j519459
26954C556552r48684n92609M41620m40533i3077k203171l024616j628819J524539
26945e425144a928855E18735R91130a115861A583377M812685j251376m76755j58720
26936D509211j378994J435380M00451A855066I9173b31506C96901a371282k060317
26927c431599j250033L95240a869603j593871l291269J846757f59334G8642K998015
26918C076657J05232A558395N11548M57951J256780j047778A320419L115243j14665
26909D320997l09482I82128h94561B07300K805819k30014A197757b898937m67641
26900c366578o61212a962973r10598a127218A361038K19888O81525R90043o98470
26891B554024C67805Q58516K75779J008161J644143A105188c581718k600406J285927
26882d896197b043150o6369Q09398F24401Q58161I3629a938327l032789n33362
26873e504478o70075Q56276J793434i3498A285122B9252J41615e07984D19416
26863A134385j58861J76986A97751h63424c31040B447888L111812J264990J977099
26854H801789l893983j045429p89190M078250L309304K86654j903049k151871
26846F692475j474522n10771A861067F14474L0427a051401j228495n11599j27879
26837b919374a263410e67236j74075j49580c32571C73926e81766J65743q52340
26828a268363j195258j609784q62957J345460J218777L14567J60512k25470j212110
26819c334626a232824F94897J505218A81780b694957K48069n45097K57554D95987
26809G39448k44971a261569A676300L475792j2208J71333B546943b76221j323401
26800a599622f78820A700323A42086e39648o0204j099988J87939A580370l87533
26791A192837a19518A210032l59194J1992K868692p28365c18446B106006l98519
26782A707487c001883l275606Q44048K241801K49930k510021j794887K098302
26774e148316J912767A737855J134122n58485M211501K962616k566405B869656
26765I39063N61216J637676Q44421j073932E91321j90751G5826K399218A98768
26755A321787J576693a51229B156894N38926a99375k062901L51547r75261J082647
26746a803343C865361k00275A353770a207100k110369K50639J269021O29584L04062
26737h64163A169972C97242J115901c82800C43796a360333q72468f50380b83070
26727b404084j605950o7835j24752J76967O99860k71772k238646J5145j00768
26718e921835m6864J891110f67993B518029L6361D08062J362666A06752b953709
26708d989884J007157M47046l48833M8047J265439i73626b91786l55527k27054
26699h74367p83147k24057N76662m17519A963578K811358K104611l309412m52507
26690C117628J211937N32404J015665j388073K94313k57733A814891b34449A345139
26680h21647p32349f07825B49561N60550a194589j16256N35659O8562j093322
26671a799946C39191R06983N80837O3008M959951L611909m808491j191962o76127
26662C785299I60847M73173K746871k2899r13297J485032K7586q07714A215088
26652D037944j77592A36001b112853i18349J26684C46287J015360J08168h75385
26642d108240I4019K511004J622829R65144A896260B06634d85392r03030r19855
26633b308277M26802i25373D36002a263350n15582c05364A820534J387235P171
26624C214940R24672j997717C49791Q03214C92996j63008N86328J180993F20388
26614d177246m71327b124223a86156p8040C127700N11670j11992A628431G3316
26604c814850R13203i26669i3419k202069j564115q76872l2577J272171Q47039
26595b649842N86110q96576p9847K70723r5937j140532m33009J517487o80408
26586c601831a010003A153381J865091J309573j970461F4287a089180c74916E89593
26576C168024j136097b562267k257429N78978j596094k500040J350357K669141
26568d317354l53197J693835D93918h97597j112281P90301m75457A11421K34592
26559C46013f91650k916439l197739R28983b019887A339814L693342J826990j370307
26550E489839B531183d26774l457960m818840p48981J704071J017055R72885K274435
26541c484109r31055K066463a82290A173492M55480M17081J151672K394543k77909
26532E314359j371776R23845r48688L4139M50913A928160F04859c29297a42384
26522a587669m06137J78620l14595F69820a297618j358435B55909J748100i01552
26512c365261J057590Q7294p08228A73156b243661r79425Q54323k85083i00027
26502C158454n86929l65914P54220j20689L80956K02828K0627m28707L220814
26493F235660l93013A684259h776q70121k60802p28585e97483B793623O83089
26484C476712K9622j672284J087127H54905a123616i8596A288205J189668p06917
26475A770956f97562j628364j232485r56399O4309J051763a248027e48801K6906
26466e21895A269218J287778j85883G94402a218543q87744M49201d97729b3871
26456a213832m03375m8976L8366j479725l88443L62650l62778J258955k38035
26447b475193L42544j627020J522973A371681K627909J16497C32992a097223G40179
26437A021912A61916a976675e35375l594510j956523b988529f15611F47135L188802
26428C835937N54881a12218o53504A09874a230087K03788A305010k04345i3927
26418b017786k99107c5933j423076n81370A590138K641527N61075A822955m75379
26409A347576D48370N5754L585858L641658n07076J816924k580497k145980R15720
26400E230731K216049j701254k296417N72119j069974p66430J34881J120979C33959
26390c775269M82855J614893j657842J147325A571877L287312J685282p3065k712893
26381C758513A799807J23165c312533j512732a611314C55405a908189N18312I29523
26371B391377J360989r91539H52939d15583m03388k263871O79102d04948j021957
26362a426905j002122M33471j185891k456125J186557A70640K077745J379913
26354C628298M223693M665955K415296J451066l882000l193050m065155k106279
26346C137824M31192A504807b921815j443952J837065i46363A320573J068470
26338B389043q95123a137897k382218R81794j446246j919316j328402R93319j281947
26329g520913K472965a145271d22536B202758D04098a078433F55840Q64348j33135
26320A387053k61228B51511J151262J058855l07903a748944O42291k83132L52074
26311a037711A258926L78944J867846M94470j807992A041268L85441L10185F80891
26301A88834g82672A09211J831372J441094j099597B14743d573139j036502b744982
26291d448001j906915J496143a187992D80999a458476A170178K539833L283368
26283F993379k302739A975812B53289Q46256O39215H18918A04472N05791J40554
26274G50817a71711o09222l50109c34215k79654k70830A969282O23433a909074
26264c580266P10048b52453I86974a817426n51054O12704j025291f33508j052414
26255a685922Q15775A385996P53554a56390j363139R0267A05506M71375a815321
26245c830898O41932P50141a091562m42313j212842L27754f05034A711321J090865
26236B802186J797749j411478A553539o20820J05559K024187J419844J356456
26228E838765r85998A794741c21494k379238G78872L974089L53309a827530j077794
26219b905324J061655l89386B35144R00420K949007J653060p99985r05801M05088
26210D436933m72313j906914c51851A396596a023714k584310O92939o84998J536811
26201b063272K1639j8923B16606O83170a574262P09328L78j861693k295389b357688
26190e72370D15000L37582J630793J290480j58772R45011j073831j603552M6271
26181A828982f83685j139167I2132N556453M515824j36414l777446B502386B50608
26171D58398a014218k733896j599663J00621K160282o41675C50042L716576J544640
26162E611258O81443j120480j345065j842635m76864K70317a117m98922l22221
26153h22260n88937A79463K171158J442217A620159n56592b441933j045384h25315
26143a730007A032974M716901L511853K131797k16748j452402m759559A783034
26134D95468J336692o19120c593435l273217O7397K090545P62249O07614a438386
26124c19930j92332F3826c316962l997086p79032o05057M188723h314B405904
26114a62413p14301M06844C123904l86905q95498J635467j624169l29946J532844
26105C055697j482732b470849m84934A350625Q83488K438525J433996M16064j158025
26096E364673L52282j020184L66603n63544D63566d086273K42932l12388a607717
26086B798306J819673O76144n53270B117768q11742M220698O53162B859978G26455
26076B008280P75711r66423E27998H4837a577789f94663m95810I43455h01715
26066d451435o80891j200772j83821K849482H26735k48769a077691k387451o186623
26057i651765K430569J885924K97712J738375J312229p78268p52475k430239r52916
26048f900854J016891J868992k66304P31263R84973k979843j811833K359737b198230
26038C56936Q48486K56650K027949L83437m74160F9762a647316o13266a100155
26028c66093k112140j669337j23239M64699a658924P56310C32657K206804F42599
26018d6003l4302k327921p63785N98573B773841c52259k105337j658239J831279
26009b284556M8397j374459j539394J39311J554997R25896P96428P72396c87173
25999B736299j113510K16922m12112e03998o57010l055181k023987K71164J776599
25990d192413D9172b762513j726527j849533J741500K229423a107865b48179D06680
25980b030869K66627A765221J521059L224071J995935j998866k455391j405868
25972B646161J273210J58083j376619A231962O34841P80179j050985k99299O16170
25963A912868r2167L48414J320548J085997J36908j298998n97776b495018j217009
25954c712027a540114O14712j374666o24508i91944A195363K719851A615649G87125
25944H54772L634076J593258j4169k832259j268181I43395a173429I9974b044256
25934d001241a887487h59706l80507k96810l542729k027033J626697a543904A31312
25924A870342N83371G18964a312122p6978A194702j77192b215711R95212A041748
25914a434280B45325f91051l304819O40296g52275C06730Q48303a00206j551522
25905a651728j188416E89138K350519j76428J014544A214890c83429j058650p02679
25896b144758L23224O78058B39723a012664M38176l212817k659992p3107J380057
25887e140347b383843J97427l224560p53931K928577h65821C57420N37728N97645
25878A492793J82866J325585q54344G72458b702613h21880M00505o0694D78881
25868A829314l81313a042158o29207A065971N59061h41310C021438R10284f945
25858a354328l10415j370486J279385A284745K013870k76318L83691d35216F92255
25848G6213c292861l129581J959162Q8680a539304b53794J0327j904031L318Q95900
25838a248280m396841n16440j600249J167996K326135A468804J230660j97559
25830B501905L040943K635175k145190D54670a900345p69288a067699p11945p44358
25821b524002a181314L54966j055110P49239j192933h86446c47924b0496B463495
25811B526362J350121J988580j451752j401561D06919c829010J528201H8579J065047
25802A153626m79493E2605J210069J609961J709415j333771L33982k13642P50496
25793D119115K36468J282823R8598M59754j96695k481886K363752j248607j845559
25784B787763a084094l347284J88363o65505o33904b020525j032034l155696m83452
25775f691707m33924R67398q37579R29669K943734E29145N504288p11899D19201
25765c119040J350686A06795M35520d28544j731335P21115j077076l182901k41786
25756e940527J250420a140656M50260A363280K972781J315618A051911d593155
25747d551470a177498A9306b74295j939943O75158a07007o22135j051447O2696
25738a717893A513116O19956l62463K402246K718410m43827j095879m30739j098668
25729C822152N8940J017409r75300O28899j680843B26132J44619J390486j39679
25720A621558o9119G62458M48735l85543a472044b37447G99421e7477j999530
25711b057007c43461l93290m038460o28705J56292r55137j782j02128K110472
25702d196199o63916b364419P06267h7447r14857B816526K999238k692001k99080
25693B824683J572222P26487j241682E44760J49683K318334J316081j45439p86088
25684C397331j153496m84906G05254J868013L014758G29416d758769b359811a111273
25674C527107L005624n84936B618757G82708a312798k282484J426363c8490k317547
25665b356037r25886f51662B733012K845689j300884P84071K267149k54551k463549
25656D610937k043641A61510a146302k549643o02251O60928a590239D228P51867
25647G56095e36215k092510r41649j394025a674119k588224j99728c16686C835576
25637A216820i68802B156772K562326j000788E78313b991432J293070f28201A40699
25627B479925K669152L06469B565321B84114a733368j621884k406519l81287M91841
25618e651217a296759B595087O28935o21773n26136K270893J46210j560074A035236
25608C297395K311385A971559r47676a316651j265685J191298K30706F16162J206236
25599A822398F20402a918670j265979n72134M11225h06827j964827k652488O01548
25590d822594R8880l497938K937099b1771C211509K217938o65452N87022j22203
25581E228814J055445L39267j323594I52913d815314a141520B410586k89639m26572
25572A694375E69585J134588L720755k13812B110041A41232N87343J071160a911050
25562c697374Q2384l93128k139077k76983m53455j419216M27800L655501a617493
25552a338843j386025k089546M97098B04194O2342h86353G33585J7587a414930
25542a453823B198496N71379b493210l091813J991856a173304j200353g5228B394310
25532B469846r93753J185780j154284p05258J77930h9022B94764e89357j298655
25523a888012n9796G4571K03117f65965k162288P46900L95724M36351k18392b61228
25512e07662l698322J028369a189625l47968l028359k87828b300877h89351j902393
25503b791744j977782l765132K775014p60063J347706a222596o37444j295829
25495c155869J68180j170372a787457c48674E51656b302507a60962C360444r97057
25486B363387a083659k94639j667880n56402e51329B54051a02530j224969e27418
25476b365874j022250J131508d97108C179896L795902n28725q81367n28725L35699
25467E372680j494284A648858a57402A813228b645946l342522b743571A00807
25458a17804r57026l523283j355992r9417J041222n80307K205792B439064L652838
25449F091902M22529j914151j780360j285796f57392A35564a419596m9574j54801
25440a623971m406833J143670J577462E95817K087630B9669K030555M498604J794529
25431H353357m29519B797914a715146Q9630l04764A390819J261553J60703L66712
25422C179787h6196j157289b1344A517835j43935m25841B86275c663944j274020
25413d937964R28085J524879d17003K9182A143019J435183K6597j86109J671876
25404D090566L585458J136381K4091j433678k590075e46511n02778M16074l0219
25395f63434C190209K305486B681747b95163l301724k113306r55946r3060K726870
25386d032329k47432L26962a167698D513423J347930j034734j138112j03677J29138
25377C713968j303161G50619b162702j137452a558257a12548A074612e19337f199
25367a063324j239890J002969g0225l744849j916276b46200D762632r57334E64543
25357B011262l20772o7901b62231r19104l80867j227128a245268n42727j326571
25348c114566R34953A338042J834343j431292o80756J548650A233902b55696o33452
25339h89148J93685L11870k596066L73529a282988H53892k54167g53418j244756
25330a998174L33884A716828N298465j989557k133738j270347e27721l11067c15800
25320b416778j714701O06258a471165k082040m387217J520093a443017A432509
25311b96966m629855M58657J995501R01555K93296l08825k603879J206068a12869
25301B420367M20146j113800o22995b4245E82847a91516B385392O60697H27423
25291i59316j362290l146958K80114A04121M192291R63343C9023b884968j046465
25282c931433g17965D441170K578286j240046j28546o13853j738189I5027K948159
25273C043186J392406O30216J516000O04747l039941E85496b309722N29496H71941
25263d05965j767700c28760B682227A130428g54126A800469L956990K075626L432913
25254A1265998j034692C833699n08620Q82893n46868R53877J052358Q75199B481282
25244c93994A276992N57003a664194j928116j461843p78163N20459J785664k35719
25235c761912j101993j023771K819416a38866m703493K25174a979994E99100K395005
25226B994105A089221N3349A25701J70361K495455k90073J460660D69011d88276
25216B267528l36605p54050J730568Q44858J890465J635209j793030j766859L819217
25207G537301k830344b051317j672409K89240j12675J621130R46316A891098J930596
25198C821694J042533P89383I47289b656946l411593n77069J294457a621294H09550
25188d44035q91402j034227C206617J910442A551863F23082J329820k80441a082963
25178i44237B109996a055388l451688J980415J173946r81482k49046j002654p04521
25169d290418j534378o97456P23612l98030N95735l51480q25167J744546a310072
25159A80441M1503A7067b921073q52435a321466j90770j753291a157497o04699
25150a762196i2385B839509r85989M67582E18275c88787j157534q44434J06116
25141b284639g50243a74797B984404j19983A328489C25565a904251l30026F66944
25131A7068c008143k390650J730195R55383j142797a700645O92838A495914J563762
25122C059676j111603Q66571J429429L604030l06323C282659h59083j301960I90874
25112B116100K64758G17031a342764A568723D94214c188658o35441Q11411J349691
25103a662997A283598l97000a818723o17846K17861a022245D25808L906058K74933
25094D606799o90427K892710M41559j290171j484914A981960b191291m542685
25086f733976n28794K10438K688391C42426M698801k246981j154078J573135J743126
25077D956429k279499M15552j153789G93488L346176K961215k431379j969785
25069B699715A324523N23832e49138H95254J142085P60249J195175j500653a21716
25059g15516G74140L07624d21601m309813l781556j20951J888548c038817b36117
25049b415219P32368n4073n38724d41253B40248J436363B42001b319950a078789
25039i47849l70144k107751m057753J885981a933660E76940a312333j015935C89783
25029B228155J947030K289134J122512k913106j575961J676670k048565o84523
25021B041346k3682a184017k229387Q02879j367548J448400B448158M324576J213524
25012G986258j490170a56572n64557c9753B793059k41954n79967K512449K129234
25003F612821k344003A263209b612746j487154j530460o53725K537391a846212
24994i40463j95844k311729n56835k91629k081880j077634L430624A311520J104191
24985B415711A16190c916897m169219k392620J192332K279922c444598g72585
24976B054793k1431P8520C95832J756811J363661l71898j526356M92725M007154
24967F117929Q3880J215054j203634A715356i50524F1567M141548q970j523478
24958B670667A076288g30098k04280j305733E02101N39313K89543f85148K83830
24949d01318C39843a276875l007954j138636b612384I9518Q58072J068603K290247
24940D316440L784464J070866m026640l69940j665555n60233J681478I15931i80131
24930E40477J945153j110852k8468J925448r06782p27109h13061j894426J208692
24921a498795d71641H49829f83813k394345e5891k176313m629784j28723J503725
24912e486986Q08511o65542b587286K90237J45940r22570a301438e88332n75887
24903a164219J32C87608J588909o31732O97161J564178j274276C02560J971280
24894B273840J738344j47597A311153b816038g65840A393861J143925J0449D03539
24884F30248N3850e98286k450620n68183f1712A017535A58216d01099C798614
24874F248545C045444K022569k010032j082644J771849k26029A609300P71043
24866B380343K4530B28259g50299M139D99941K61617C59619K179261K145694j564578
24856C119996c73813r31305D53002K60945R61174K924600n40114B23469c669838
24846c382728d39990B616060I0845a816621P57845J11391d04609e5921B713090
24836C470143j027225J846853L767195j092845B317865i34476k109419j529100
24828d572995P68329P58561A149457K508426k16416A141651e01127j66915A365689
24818C352192l73676r13195B20709J592317R13373j234689D03580J359859m61679
24809A301760E36801f15008A832869J618698j612598a63084n76920e0707C895820
24799C827075j2918j357890D28186b26232j318640r37898l021882p72053J209690
24790e067015R71458J557754d87535r12299L71481A503935P51461A49684a880815
24780a631625O35826k305490k85983i22643A238038k81525a011709b39823k538261
24771b778084j052653N99576J414352j09945J07241l70114F90558g05140j458485
24762b163625R53828E90172a30739p17733j570920f87100a73666m839248q20155
24753e833069b177077I24688a955019j741689j382754l28714P65374k690902l482501
24744a0816205N23249K186311J555116m64542q46517K705538a032381A497860
24735H07030f54562a69330r21712A822979J425613A7111P74772J965617f76663
24725b847822M33663g97736B019988r4559a467457j325640j721792a915471A059437
24715A706792b85529l99444j309777L84616M68563j24081k174006k618687j678007
24706g736352K36095c649752H38466A81653J40805J89070c76645P6799k07148
24697e06994E68367p3047a477445k759244l244195J542272a957541K62763O34312
24688a060466C57843L692043J576206K329695K64369l066057E80914b459234r01306
24679c360540a566584Q954j596170j281029k110377K178414J858044r63294j855440
24670e327482J313713b97850H86731b5951A932181K224341J177644j972320C43296
24660a590824l226910J107166R88424L78499p88528j713150M10705j048353l863448
24651i346419k82805c336677J076343l211457k260778K6896K120663J851495a54597
24641A964219f61688j050752n70051Q07559p26622O66121P01323j49149p25821
24632a709080g56302q1287R4609j072335g32213a6479A493777A07057e29359A3696
24621a40178k971887k228974n8171m72136b683646J180188k599039l29997a213719
24611B917089K08004A09471a895842j999368R39120b29069A269227E23292J21737
24602F45029k55900O97910a732304i0064B567056L769A147712b93440a9152k942774
24592b961926k578270J434848J576961K87695J100254B337524p58986a975994
24583a403365j044213q5476h94028R8517k25461c80605n57832I87954L368931
24574D356885o64544A568862P77648m56551G58019g0113C986317Q94136B150632
24564a143414l034064k228316K253038J937849B98946R92738a128727o96081m81356
24555b306164R1086g94304D062344N815206L07757l792661A872890F17506a456101
24545e084843k0256J193232a409823D201435j020439G06324L346990J59375A297542
24535B796955H87732N04404Q0054J888454J976527j911443A058801c49002B126081
24525D062508j026152j325263J198024q71233a714500Q02452m7545m578905k310981
24516g849479P76123J759306J871041J210504A3237J792874a345132j789100p36399
24507c870631l575983R97877K598649B674827O23720O78196k69121C82205b004829
24497b393119q11858k056104R5275J748513K91036o84861J7219P17464A410194
24487H69245P5514J866320b24723k57588I04594j76191k80040L802544J557478
24478E808385K014570M40617N93834j427949k083111B336671C08938g85262j692782
24469b478044a39398D740635p97705p13993K213958r18919j761189F27339K20078
24460H47417J775828J109066j394488a623979j739970J514341K96101f78344C122690
24450D931674k291719K12859p36014I70657m00119f61962G11278l53768B573b981113
24439b577449k116685J331546d68603B507a517097m111356p70280J459487J086501
24430c852745J810215j605013q7507o36776K049306I23096K757980J932107J369537
24421F982720O71691p93274j158713j671606a179215m34985c06234l041506j262083
24412d609823K48998a883059H04883J577582F35340P66131N11234L10618p49612
24403A473711J69956e02660l908606a556870A181986a738992p96052a262450d67657
24393E64337M74878a22803k476922N55194a48789E48886J104158J625886A095099
24383b766694j097902j204617p67594K542198j01095k498113L65441J133589l26929
24374d721716j399351a977098A461624Q35034F5478c615013J214014B034452O81395
24365B715847q62756b836552n608030K32414L409405J522763J128778j094949
24357c246171a516607h931D83368h45022j808112M77420e67934A32176Q93688
24348A025864K328938O60099A228492a64330c6525B335806J275428C46420d582976
24338c962282J795530j088143n22984q91493j070836K602938h28512B135523Q57343
24329B992866l3145j121847K42064J459012A182973a452781L64315A96660J509359
24320A706019J096673J49802j75372Q53685P27861J072334l93374j41232k232075
24311B664321k90656G20223A01794b068690F63416M146904B323024R00824K28437
24302C452285G6247b528064C68831M26260h4468k9110l566080j41520E3509L095941
24292C149450J99976m12591A286609a4225H71264B01293h85836L99850D89136
24282B19353R71129a791534r76617a64020C380366j082334a415244k298025j249385
24273d962654k74525B3365J473196J594985K652714k044473j152072R68941r50463
24264B566193J806020C16581a910919c17425D520a359035A662579K788462P7093
24255D528134E07725b536872a43333j125221m27835K00540L96283k62583E77398
24245C789126L26806k016142N1445J047846L89895r75779G06116K106885L634647
24236F447648j453480B214420A017527G1922a22864G99613b847515M05839Q13576
24227a628100j541714k82886q9363J436441c91405c7885F21682L33005K62983
24218A217670D49859J221584C89051b399394o84674a04821q92679j680235r34023
24209c611758k96302R02443M24141j250017n23765j962289n28646J413228K657190
24200b775775d65303I14413K326973n08640O08733N9133J861760j840876P92474
24191D213970j813755e11245k14852I61796L49510a060137F07410B44160a655739
24181E28018e25165A513160K905111M57027m15537K22382A991716J313689j111941
24172B193464I78263i79648j143399o19925D63495A55816N92701J717820J004550
24163C470887j482568J435154j13314i70778k904164A609235O245098j770600
24155F083733B564576j218948D31978j7533K490072m6758n31679d63522n046592
24146e510114j89469K556090Q08937A19477M216295M98820I88209i61992C12067
24136b363506k188J007354A520443J606340L98658n80719j11909K27318R15530
24127C975661N99744A764260c311673k689579n58756K806163j70017o00043j073321
24118e597226o2737R43852J051106R41012J256531K64966j719778M61425b203
24108A878637I10541b788870j379072J010846J017907A842305K959687P43923
24100E545915A916661D25234J399782i4929l581156q04935J739452O15961B412
24090I47206j23812J509631E76429a399885B80916K262290f11160k597403a006717
24080B361129J740009L54904A920210J319093J032391k82900b272736n914362
24072h187098J377918J143257J65472J493065A07595J628392P87417m75686p74280
24063A273438m73556e88735j122422j310558L69354h12462A975950K308235k87830
24054C996355G39513a415986f35566B188645J159622J27542a010871q43949D29643
24044D98010M22533f27058n68577J96166L49138J07159J67184j174308M27260
24035a123036E55393g76214k18232r22733r57115k314773K456304E5300a538144
24025c74639B88639a059886k2171k61084o83519i85952A774903a42949j840756
24016a983705J44770a81730j252717l065371j102467N71164a948399A434678J826207
24007C260885q82964A016394a800571a22082C007325K393803k23384o49415j191701
23998C336628o72898L99923Q31068R33357N99341L681212J502987n169868B29131
23988h12890K45664A456104K755916K226143N41270j516609k152912h74893p18388
23979a593281k529980k162743K108967J436876r89131i53062C276090N57424A472284
23969A985073L437292j273685A457383K056544K236052Q72710C294483F98594
23960f3240j256303b6952B249308K471822J44580B022721G62783c90144m11532
23951h01676a50060p79587j66211j116817j758411k638643b253199O98917k025986
23942c580268J181500o87928j596504P17912J023427P22344O8581j982996a812045
23932B451078J355522A851612h00851A095106K903652A739166H18946g71160j694632
23923b465792a73851k496391k2423J231390F52399K998451M006496J916725j376433
23914H197638l87599J569066O35445J916085K76798j503438k695224k617895Q82976
23905F273852j376695m83651j319619A115369c490306j27393a368058E19399k0712
23896D98687n9847K173708J437168r198j211540A126169C86037a709683m39955
23887b149638i63461e063A522953J785367A575118a744307r82927M53797A230595
23877B776533k73090J225346q08178j297089L77662B73623q7573K112524q98775
23868A399799O60329k07067a017256r77532q84365K78099a039162m15913B87197
23858B491241j020256n86578m27527R27250K877346J59347J71732j801446L65096
23849C156205K061437j878492f34129k364256l99072M32476a020983B896650L295379
23840F192029O5544N46156O78791k237849B403107n159l5678i07857j710075a174680
23829C0418a15599k20731j44270A416672m44074J268375K23149q69445c44298
23819c307080o0186a175321B26034b538776j346535M84166J552423c3761A97230
23809c104758K29662J357273e41637J58973j692713k536207o74876b356753a020870
23799H11777K854393l35548m09056e77399H1079L277276A258253a94722l382740
23790c577462l293745J801754a751890j266107j514477N55197a579264k881868
23782d461132p32884B412697K972265m83247j365641r63224B21770a809208l5755
23773a844963M77354j62482M66078J58140E56282Q85169J935707j143438R42150
23764C175870K188501l93653j257923k79384A091893a089636j447078i01113A239712
23754A637552q0957c28091l298268k368403J331693p09017b677561B018807J920062
23745C938869Q83344A128248a359533d68517A926387R39565q46562f17393p17217
23736a334610A388643J749312A030264D51861K795940J536418j676686j126904
23728A980629k07609b27867r59816L12119b37486A726374J029027L036902L194819
23719H987122j94632j708879k654601E5987a897228P75896l329649k939502L57226
23710g033257J625388A69855L076979J872276j431971l5891c50121l77380n19130
23701a246631o90050H90404J936234o06895C65473a645138A10128J879231j62858
23692A826501K000012J610485B513647h69311l86826l52926P99196A157760C66377
23682b41606A811548L88517J078103j558462L49688j96633H77628b160440k048704
23673d209144J982774b63869C691973L265039k550384A196240a01103D06465J935757
23664B342222J969819Q74532j03207j482460m93641O48438B78214a22906l075539
23655c198445l880170J310329K671824f05192j150671k235776J90847q96711J058837
23646c638666J619014R40534c79345p84622A519185l99478J33380J626837K635636
23637E515560j782919a08346r46458D01047b59996n02542k5482B386490K64941
23628B651431H39961a370221q62632a66783n31926j840809k012717q21109K329035
23619c044309p1768J354423l00573l00995c83296J4510j355099E96756K016059
23610B612815a762781k118034h64248A20330K674905L358286k099588I55468d06147
23600a488208k750587L29448J129899j72064j34633a420023k82148f62993G9771
23590B315251o92365L72474k65049a99133C65489j76280f9505j923762k13099
23581b206366A201511L403546C09290e982202K202910d77681j936407k698518
23573e112606j477618K808955A259440k88869C41505J974005M101992Q95459j356824
23564E956137B210750C06013g69810j359045A585369L017202A565715c905439
23555h835859K340317b206166P61924j66834J91063A913635J958650b259205j707743
23546c966948h66041F66326g79106p87661n70307O55179a1369l16543A737134
23536B370282J917205j3814k83773j791640a335275l363657J356408a490526r44142
23527b434668l27990O28792L10985j159745k515169k123888K204063b311367P59619
23518a551748L72556n62792n45410r26601h64463A298745A00938Q94693J952348
23509B947979A440064j23560J176503K052918A926692g04646j30723k70860a8809
23499a239582m376427k817550K417417O66620G81635N504986k3428j976050E40291
23489h39726B494097J766099a61153j989130I77725P55585J144898J604882r65192
23480C517898j203968A118988J852654j250533c121651n697744j368294L979580
23472f208109K571680J552080k789067k515644j495979J130255L199185b103917
23463a866247f02319I43481j02094k9681c149237k298374a858645C5187L87358
23454D22545j41746c78572j758217j661564a161855B273723M431563J219956k122095
23445E803147n68644J174339n47248A862127d228530o773629J790150b345872
23436a102034b67348l91652A953039r5143G04009J530435O49740J591850A954332
23426b186271K67598N67409K17691l60419l513288k59018M48017m74096K401038
23417b891339F1142M68005K128123J725542p1967j325525J267210j369908e73947
23407A302037K547508A892151o45882K259057J283711M63736A505402J332626
23399B838028K411413L484773j68712o9121j424860j611821j83316B262285a02810
23389I35858R32561n0931D79607M33674A36634P80841j32784a828674d38368C400110
23378B28398d506276k708966K499695I07515K417730l17339D66867a916995R54546
23369i62449D98787d07149r73051o10970l22332a12630E29076A67141O33699L128053
23359C928893j368668J77548A086761h44346A970796P49753M66545M79439j85697
23350C480836O2492A337958a724515p49704Q87644J88976A059076K160475J904025
23341E123576J1136l897j262519J134424A699455o61699K240303K806770n2707
23332F032122A812103m33915a003628n641544j795049L075943K667421B14454
23323b119417j266342J658376A08949N98814L304273j54250n43317c709168k902176
23314f611344Q4625a045477j39396k199377a422199j66116j035227M82845k256111
23305d396808p29760O24843J242275N66875P41126R73875D19779b812411j426453
23296d238864K87265c95248G29906k87150c97611A42854b540885m064519o78837
23287g284241K280544L7876J275048k40331K65672l92434a79954A858997L37804
23278B196801f81610k587426k568704J100991r95746J615721K012683k077350
23270d181441j346827b260364A502511J268024K66214k31057L123795L373361
23262I302848j759721q30388j501538H07099L170330l44830p19251K649605R24263
23253F487216k078535o51095p59941r13721K40744a301850l061980b165738l57855
23244b523593k335675k18728N34900K040973i03406N1611H98229K613419M15797
23235C927445J548553Q33664j550345N53275j119668b666491k36875J025639j540818
23226c418545R24718a245778j231491l15458J293857B71007J517610J793980j247383
23217B335214D30958b221202M26165j65492j715882P45622a03553l338786l322183
23208f764522c251008A77642O54537M47377R32656j18475K114877P25373Q97683
23199E831670j839352A705595n37905b68452m171722j569933N79601b648473n72121
23190c220594P81735j61392j637811P45798J280586j179219j320947k947295J081599
23181f577540j242349k079990J333579J653603N29790b699301C65547Q73382D25625
23171A333221C35372f66302J95155A938207K933768K10772H19684P86038B39253
23161I04511i09305p72811J33985f68261k82292A644952K044343j300274A52355
23151a481892A309575K699516j619631k89045J876334A663581a862298k29946
23143b092244o25878R84598c59841G59759L256357J406144n15746j445494K53472
23134C714492n60653I70439l67919K189840O29398N31476J623471j500065i7302
23124A329257K837619l46757L322870L705885m054337k056871J792960J149718
23116G680344l336037j118903K421681R91534j067139j36555K166505m84602k966700
23107D150128A744373c670678l473442K015324N55797k983291J493024J521018
23099d542248j619219J585355J681126R14971j586132p93437K057012R7727f92167
23089A904661E98052c639687l903344K079022o19570m45961K975831C32777R49335
23080A282112a224735j781951j797418b072611B017600L255797K188704j010908
23072F451193J432523K203542k444867B817316C17504b23618j094352j030423
23064b348393j062800A68974J628032c34835k461188J067237P04348A35533N53171
23055F88704Q31853a309348j914119a139077m03329a5838D380369L065861O42250
23046H088480R67892k828147B402052b54105A447626N725205j724074A543729
23037D769169K876958j159603j684283A573101J251690j029973c08969F4120L97469
23028D61589a984359D60015L376736K49594A860394M590377r29884j195515A774710
23018b362905j178123J220862A024602h63348n062714j214777J308199a920558
23009b050453N98247D78169a411721j454842l09274e88431A691052J126906O22131
23000C440089r42835e25274l55625j957967K99884B578396K790571k316025D4729
22990a265472h9230A179925J954575j208883a118417N28334E33233i00015A12835
22980G69093l80719d711656k350291K337750J791353B275654J040140p7747j421948
22971A816099b56632o65970j551044o83621M72220N54164g26331A65909J945875
22962B111784J1552l42180a359536j986751J35943h93247B281789h72966l316374
22953d189340a815128A192805O282673L155788J400406r17889l486822C576028
22944B60570J163732K381815j347579B83836a971616j60504B19964E3705b23561
22934A273453a148172k650277j658532k391134j06889p41641J546717L90819r54454
22925g713563P38086K206043K358527c46509n23563k218342j39180q67851p35019
22916d830464d02523G99330O70104k69939M72167M71801J262531A336658f71169
22906C80673M492468L737288l823020i6627q47708A476431K414621q13732l95317
22897B682003o12373h78201k851731n21184n31836J177448J117643K62811j272508
22888c497558J202880i63656E79033L784235J860353J077769k347733H03442A32975
22878A86493a107465B56865K124573A064173a091865A347497J355602j097705
22870A605394e5519l038690j850917J17234K376307R11971P52284o30091J52118
22861a265303C10277P07099K564975M76844k60183r72660F92373h85596B452070
22851E895382j206011k14064j778803J78421L67500A546229j15321M53076J776092
22842C660076n75485A146442i00706j066887m8672j536716R13692e14659E59676
22832g09489k35681N5356J76460A258892a733763j398623f53876L8708b7034E556275
22821G666202k867642A11961l364g52402l030687O41748Q24755C18061d82411
22811b493115h57682d01232H75043K666465J585562r41599H46794a43301B506150
22801A076251g38424G84704J821091N35556p87409K95087N61299a995112k187314
22792d182426J842687B427585L543426Q52872k193073C41146d16574j647547O12446
22783a451675G71828N83704D46900J082535J31599p12524J257095r04304n19903
22774G81398l62187J49661a072706n90501O54843c54373a4720l007385j212327
22765d234432b073233e53579l576415Q12059g76496B274003J546827j738918Q69844
22756B951756A433023c66211K2129A575190o19511a943123j873949j155695J542122
22747c430645K34602k74191j006109k392603M77753K589290J273932k623859m72919
22738e624749J188562M30210a181573E23453r4460N53394J065580l27874a668513
22728e080409j14281J330281J12761K87150j588324J075602g38745I48133b80063
22718a839875g48104o8659k292417k838629O24053a779463O38159D87732a152696
22708a691757f3863A658322a196560l606021J341223h89926M44475p13322L80156
22699g78617l76755k986400j840908j203897K697686J003777r0916a375719C419365
22689D074325j498291C73274Q01336K274468k06317n61752b301990k959540b369773
22679C95114c146004k286955k76018J452813J738249q82192L01088a248750D042761
22669D307313D2814a299211D15684N79580c334125a128010F72278J038150C94645
22659h17406j186376Q00132B672000J097464j041962J78990j60287A269215K027320
22650C296535j348978l91169o1440o24022J468409O20758a294841p02771b45538
22640A90354a497294l530115q8602o09672J020725R77635K12701J382517H60829
22630f62514J11501B152814J083785A281430j70344l99370b955803J003920H82180
22620B121099P89993q77919H04935d43265k848844k149567b304189N25199k855441
22611d634431j85152K239784g38280j110172h40716F30559L230414K224196k578617
22602C506552a342974J10988B4596b067605p60293j823683j49739J73849k16222
22593d843693p54097q6979J134704J483966N08603a242585A395994K209330J450543
22584E055867J949859K713861o31464l034102j308187q44014A318447b47064o55877
22575i02941b12736B005021J311800M69015j243558q61754D78274J82922B67232
22565d31309n29963B52380R82479C83878J342393m71475D3165M5064O62149K096184
22555B846562p09428B01820J402488R13395J427099k47769M8830A672378n95964
22546A076414j99437K474387K531666O37391J020543r87918k573941C08690a056518
22536b692714A184117Q21902M01557n51940f12529j506098l11516j407060k216232
22527f053435K0127K798608o8052k772374k90242j722343l29996L793027b259098
22517F35799K224108C0306a064558A188121l41265a585777P12366E98534i62784
22507a875578Q3774P21583j518518k650261J514462A18047L06739A82285b157660
22497b853201A636598L835028r66710j443465A035246J981914o86498o95321p26037
22488I09304J495770J403328K050979k531537b004830J40410A364788C1372O09381
22479F40753K89574p9479K71718b36978A851996L578614r72901k056537K92986
22470B694158M70742J055579k32180j649981q16558a902536j710789J195635d42650
22460A319288J897491E57157f864205j678770K634578b644898H53340J818211
22452B671551j303110B15287c350831a597154A206686n94417B13453K51523a359878
22442a870143b03724C474790K79184j004189A44119a690346k317310j183397a874645
22432h26561A566372M87165B42553L81344a216159M00857L97937C218664K775101
22423E993765k692043A038679e0384k315166j380646i24818N0411k537345j063787
22414d475539a768916g67519q0235n26095O32520l566902l92744l49785J120963
22405c929797r63072K94822b209627A011162b143284k337430J839112j476425
22397d118027j093591p33170j749928l33012c688980R48515l979828M75269f01358
22387B932838A105632Q76286M45184j001385L13925L221647J521481k949087b37856
22377a561159o27672N59156j984925Q63630J084288j041795j817361b092286d66499
22367a144889A62856J844958J489769J666928p20802C93368a573447j550410M33419
22358b690438P4501J127435E47609a612621m62157l008151a475447B314336p16073
22349A598263G6142K20880K447234e77171l573860j102850J093976a363937A657409
22339E524930N05537j245617j461708A379223n52772K911061j27987j773645a731489
22329e9775A112024a178351c16548B378364J307379A649315a481568p64180E88591
22319D861401m98599A221351H497h80511L48423I90160b186675l932590a757570
22309E123067J118043k799172r17405C14586J824609L982685J037792q83192k258093
22300D018387j510065k70151L46708H96037J385108n07495b755136m150859Q1979
22291f824016j363177O463M30797J646471K946522q43205K19409Q79454b19792
22281C937645J304432J167126k855576a39297l207064j99248I0430J327196B23785
22271b888073K59171A775358K933080j349045j525890G16637b04051q44579l11553
22262a360183N28747H36154J415818J462278k93817a030588j628062O28236B24434
22252a02187k57689q75527M73910m86498j117113l651912J53083A514601M264137
22243E778738q96369C53176b984750m413813J252542K941917c42829j54169a47177
22233C025662j056133a79103r99224j813274Q03890D457853M856884k279243B550802
22223B703210j288188k73800f64328n34070r2808B244091K000912H65883b71477
22213i24653K2866j019344j741623a30328k9656j047492k114503a176229j217618
22204b393847k212561Q98789J089461i27266j916498k076147J528874a435943
22195B570401L261163k253082j275875l7049A025100e20009A185800J790540K522505
22186E498845L78000D33952a842628d48179D24772g24850l893184L30054J75078
22177d112902R01223k649761b738157A808762K847376J004549D65582c475429
22168b775229b08772A398683a103015l824750o68258k65549a282714A811712q20774
22159I90938J323204l29704b30375j579199k084262j448103b252190J91949m3270
22150b103511m021453l83070a812221B529598R60122b33248k136417b06226B488019
22140a58929D44997c52150k031632Q44707j371566o22360J341761E55102J55671
22131G10773j1716L079370K526349m2576k202904A916351g44321k496707L7121
22122c203907L67737o22282l015753k40480c140786e28725D061916J809351r34302
22113D936965k040572M77958A347572K84813e01258k188344O06764q66856j912840
22104d862534J409583a174138m83940j050495k441377J812217H81916M011145
22096D893061K188352C023455A245040a468202k600003e54187C7548a232346j687135
22087b919481p45083a400330A818244L851146M69905l053331a931172m11395a08696
22077a75301l005060M24467L34168l57285J124656M03951c49353I68821a983004
22067d561350Q65215k767023Q65596a904113p7446g24068C368147J599971j047506
22058C920612O3675A155213a224290j780260K16697c65915E68442R0476J04475
22049G63393P84195J606574J959444q10869j763431J418758j59445p58548A024240
22039d39398a07626n94815j67669C19545Q67786J106828D39011J049268D84329
22029C52702c336663J142076A265833J533312A073839b255261p64026l78746j168303
22020d566336J450386P90633j827271J211076a130480F23447b972378k240367
22012e212745J459546j433539J106653C37012L144604J689425k121536D05388
22003A826599J887306A449776F34543a209634j762286L63683F6862i82389k393758
21994c376147a90311B117090G29339Q06862K092443K560974l78060j766030j627930
21985B417598J765707A887147d45125Q3829A580987a9376E70154J461902l28698
21976A703358F17261j15559j18396g34443b06594B489266b137114j468902D94463
21966B337819a831673K07704C42605a504191l341234R98169N0769J195038n86050
21957c187499J08741m17030a404046A450562J158716G93876f55273j964129o96270
21948c315672J179582h90144B483768j36552G10580b645512a095508E03896A81955
21938G96672a095345l29564A468202J812007K102930k360959L07791J258717P33445
21929E322133B568734a242354k623009P33924j306326J137782j333863j781711
21921f415557O87034l39889k728018k199875N173959K299777j191556Q9483k35106
21912d859748n41936a419873H71706h96946j767405o27060o0850j22104B58740
21902C735863j187549G73844J2286N16956K815562r85235j62836A023918i35726
21892a989419p67785r27140j131308c36934C339402o20822A280994J61782j34358
21883A308418O3660D58966J056546M98323a105031j546826m00957h89736A110438
21873A075259a805399j081260C76976K012829J94999J248735Q49073K817872A272843
21863d091256a030408E41991J189264b042596l816596a999076i94583M92622j320410
21854a822371j859638K09317N27886I97825k41908P45852J598802n44358f889
21844a485766r7605g16017K82891A434535N8096a128208j555985j789463a368618
21834B142248M70451c05933r55569c53769G19253O86299C41366f0736k731253
21825b791989l55026j84545o5689e94905A278051a069409p07496M13806N08633
21816h54466A800100k70343g848C866070J337645A219969K188715L353204J165617
21807G927505k344213B127840I97075L88178l95857J095023I61722Q58567G49023
21797f23041B89273K663718l61371a619242n4480j18003a69068C001110J0622
21788C011732j503139a43821A206219J312226j161878e8330r40542j807332j013018
21779c819222a626821B52731L492193J752682B636296A240803d21181A119230
21770D302407j067728j332584O3246Q70429J27947F84718a903727C72162g82913
21760b869326i85964A464779b96698k344991j11302K99311d32783C310071A25802
21750c237060j341729j788799N6109J446377b408504A167610a086227j891265
21742b977492J459835e04018k78203A151917h57109b56887F8412b09040j987161
21733b196201L02165r28473j609621M13247J495488k54121J132505A257646K432104
21724C689750O55246A425910b184068q42607I8557J282446g77016j92845J53846
21715h16015A071588M40543D02210a353384f55712j402274j049401r85437r79952
21706e072776K165680D44665L029271P44493Q02996B240407a091229o2390q90288
21697b043907j334410D58871b417812j61862F31143K450198L056143j213150o34609
21688D289725j62669j680729G10716d04815j847212a023734C035866J789803A586736
21678A082949M65808a259097j467626a265800A218341P57691L18891p557k54494
21669B032872Q26463L292516k896118h42020m98878M5749j466986m159162Q04003
21660f117294J009884R76433J942697O40152A088249K512329p5304B7967d04474
21650D42395a776523R3674d09362C942864l29176q40031L98281a76152j778873
21641a955025j134725J160791A84507R15194L68805K015554j019443a221566m578981
21632e800547j361839Q31427m07347j077704L641569h71199j197463k55287e38831
21622b220931N29123A67685L381216R32295k123625b241670l150806n72275K25164
21613e739587j206630J987380J691967o95524j953687K945760A928563K493302
21605D421865n72764R27666M02167j183912A910081b985434i02950A732204L44345
21596B076549J5938O13640R08758J724493R20456q99835B503512G76004P2486
21587H48490J057670a730170A76899J420287g56721k118876J169743f44305K95697
21578c48608A216017J900493J150065k116483b160498l144861j190952p07390
21570g203701n75895q95498K885446b082467J001746j953689k704159K259452
21562c479117a425057D35800M70457g23147n81277p36037A098080K280074J018536
21553D396690M22505J240721K69190k852535r64947k87974l223l32746e62285
21543D02555a401103j812580j687136a401685H27068J49398a67366A032259J30446
21534A162705k88818f27623j808122B16122b180763l966994k789229c966022c80248
21524b804512j826759K06771i30439C228817j478882b534439b21686l42400l967188
21515d531274o76605O2488j492519j268046b440289H00342J813551j145017J11047
21506A579923E11912h02686A9610N09086a953039l061717J422976J298061G1939
21496i93602j338429f45026F62105a743102n76568B47622i03675k28864l92337
21487a524876K14122A004337O9128d31161j98068j175632h44958L45929j295582
21478a794611j658639J32982j891429L51621L71094J098379O5211R18962B63543
21468I23826K052453o70540H11913K252457C76515h49131A375787J612113K696202
21459E684102L975809N26298k830953D67268J516333K775843n41620j925403a920217
21449c703182P81951B41659J887591d7882j79837C503154J717404B543921J309220
21440C853141n94200j147286N88894G89483l92301L41259L28751J528778J199614
21431C795584K804817K927809n08839k800147B209981R8062K673739l068N59320
21422E538034B351780a772075j956648m12879j99307a737568D23705R95155F56056
21412h77583r40705f1446K644q62825b13100I76021C35499e01592j068665j551767
21402c122024a11413m35400F30663K12799g82223o77958O39901k364068l627065
21393f811413K326272a801725h18505C197645K221104Q4558k218346i96913k75926
21384a272839M63610A317018K859775r28999a621273n22031A22238M133411O76557
21375D932206j339418e80152p4982k132764j272190J599103A165979M06694c59365
21365b182900j465083m35134M93853a081079B770215J714791j478366b72186j703889
21356a976075k90518P7271E05065j84220d6510o81538b67165j372340J82335B247161
21345B285540L73753c09854l716502j746702j344766o17239K268817a936721H37474
21335B232537H27717a045008d06765H86443K672514r09602b98722j711576H49393
21325B784790j318265C44401a175273j43339A065885J704295A127610L09746K192609
21316C629965j531300c007252m69377a64497B800294j134696J75461L287189P78505
21307E906753n77926q13658j922720J02509J2340A304435a87913A677754K694009
21298D371763A279597b614454A54245N211922J369465j654588q41195O34506q41567
21289D032788j768401G31166J078516L2215m33150k77810K154509J619772A908848
21279B510335N84930J443927L8313J048325k226045j639854c59499O2345A479843
21269E233371n73922j694462k39929L47937J704795K926899C138445C36454c37697
21259A081013Q78903O74832J90473j2366A288475k49992K160026O77461L38722
21250D214692A580731C15832M89042d99055j228333j512637M59914g32780C150696
21240B166117I35389M9965B14661M40864h8710n44332B70630J17571L01038Q48452
21230A537691f20633k340544l79433R70256o34405J49712J258535k80754A233738
21220B430088n05582j21473J815487H62953J86424N33867f39401C72647g69354
21210b491275L57273G92117J475817M14382M3653m43145k349M13213J22146K995518
21200E811352L25937C053982H4454b782638i05853j452062l298091J977834d0303
21190a62048C45732J690347K58476m7162j93609r93991a65849A484072Q74730
21181B358802d88024l150196q54294K080598a78512j279847k14654j289774P90986
21172b171801g94648a82385C097J369940J588149F87388J08382M569941r8335
21163E267376j865258a251942l125604J018714R84028g52172j738753g15773c32522
21153H49631P93736K74883J576263E66080e3627D018481O82504B229976c85929
21143A798771K418252j638779A96231g46581l332471l190487Q46130J50771b169875
21133h50387k451702A072639K740818o31985A427892c022749j834832R15026a367042
21123f76320k661719J73662J76310j650569p852j7024J928411j475589J625588
21114b585102C13796p5182d031803M79481a331431p70327A478756R20687K959139
21105E358582J099385k19526q87119A643599a470115j565986E03900L659941r27808
21096C236033A353320b6565I4806l9666b161077K59644Q30799C58874J150282
21087A509156R49693a143038n84023H5957h77508k53425k503872j316846k486799
21078g438450j159506J931574b23497E288827j435276A392404M02974g53893j010522
21069a764415o32705j231569O22916j415415j73449o37281J029731J364435M17392
21060b420360b68228B714959Q93777A417666a493855j364855j418013D06291J532908
21051A939199n44344O1449L592509j261623m24104N63973k47451r57889A158438
21041e51144k451803l59517a417115K43265k013928J267471J29015b15560k034787
21032b250347m014174Q0068J468596Q44118J898196j751474J40238d38704F62118
21022A594951R41985b80689k37035C600821l0329a471753F07826K941910j260660
21013B289076r05156K160389L971550l14562l448840q18545K97279K12053q79265
21004B563979J106543m06481l01851J115529k1453l09459Q76160K67491j66176
20995D724282l20456j662501j219581M32910l94585D79319R59234a963414m131786
20986f095200o81900K400329b143729A362148K583453n52431A352086g34493j883390
20977b617883a172379B131995K541360o33265a26974j055870R1698D1132a858800
20967c267289l108172Q11622J223457p07570n32137J472415l003888j206417K779922
20958e538057K759393R50738l82217a086826j198888k100715J642058A205073
20949C800547A778722L55210a349565j464051J53242q43295j324150a754752B398666
20939D258041L8352j645258i8922k535233k424220j37139J529712e64960j008992
20930a573952n486915o36753K722556a921888A241829K902748N36953B252237
20921e71512k732513o32295A49195K507538N83793j476361p91664b38523q50865
20912a089388I2568b34441r60776j867357l008594K227254A009924L34227E56134
20902E56126K48716Q16499K010660b88045q69713J08201b3610I10750J908872
20893B819622L227251j8782k980486O68345L448845k672940A994215E61853J935039
20884B496892K341819j557453A231662P82729G84085a007121j842210a238514
20875E07393P48870j42156h60974j653731m93871R94106H28241L36355L3717P91030
20865A989343j59040N85805K120172r87499A763175G98854a635986j49176C5473
20855i65270j172545N54554K30919n17823h11100q21133K87207C06842a614850
20845c198429Q17249a073802j694189j751111J739626M9701q29617j88775j052835
20836d801002b199128A187050J130767J289380A085824b530736j273425J068487
20828b735674M58673m7009R72779j20401H08380J220370r18084K032410r56402
20819B186674B71455c64618a26207n53314A66587J116878L94659P81287A197471
20809h1333C36695a065012G05223K368221K749924m58847j103023m81176K01222
20800C981544K431003r74977e15771l536130p74847K56481L11061l811361K489668
20791e580899a995218D94111d05855m492341j097646j340215k54312b827280J233780
20782a593500k17179o14396j062730L70574B254592J767685j686517j48374O34741
20773B822127r24350Q19401G07542L11596J051346G60693b79401H35475K54807
20764A090282a422090j360142a203424r76359R92615D41746N99613A25815b523441
20754c743119l86515J549467A781750L746882K93760j843499q6108K740842r41640
20745E691987j045797R91960j173376k150065h45312o9441a4121j074907b68752
20735A857262i81647k441340j82072l16099J489043J88977K63034B785436J056041
20726C841477j849572E01534b320392l565176Q73670J874155o80632J888177n54116
20717b484314r57863m16062l436803k13285b262325B600265K109458J130197j286106
20708D553814n12305A305999L38001p11388a082082m860604L59017a375485I75727
20698A296907L73609L227260o8409k44365A823610b651985o72767h39570A788903
20688A933965M83074l66344I04236L859884J559415Q45029k589263d12633l605538
20679d018171k243930o73771K537230j339203j271106J191962r66213K755465
20671d027737e20543j261865Q62404J34553j70990d7504j023103j816080J198998
20662a687689j211813Q57452B277536p0406B175c763362a336383j391555m99910
20653c227848k704525b497229A89750L083392J098783k89428J902494o92777A403982
20643c98382A23143O86876K049434J13154A75912L36359d63064a77106D992201
20633F844819k077499B241705I63970L296081m46329f38857j237715a75000I05865
20623A232401N54360J627720j606765a719838M52565j344461j069443J204905
20615b476272b5771A743461O57518G67097k16538P54012L203564K01327k237147
20606B472315H92163a269108B387702K021966j089681Q61963J920668o03687j210031
20597D288900B70913M04870a836466p17103B25489a308508k528220l129600r76793
20588g943121J898964b279575G67944K092231r71757g47041j1155r8027B36294
20578H76734c533791j403569a978423A54937J602799J263591K067652r18431E29240
20568C28484J03324J573111g848B639020J186247A615253M46396L808438k790192
20559C079895i1167r57032D677067K624253B697831b070065m69745n91889i95267
20549B514635J025O34951l52014L10050j370C00916a144546C683760N149601m50775
20539H382586k011928l64354m12526B156428b362803j660345C29801K468043A012422
20529a020580j525851m182122N69995K020355J893144j320230k381800m03036
20521f350125j673599L167389a98268C206703L908287k027862B127125C18765
20512H2b88548J41734o0366o97062j20142k280672r32382P51611a419733B082276
20501e41376b23199B74292b026118k323020m99601k97081N4670J051853j512288
20492e551585p09837J686941J191466J368840A804584J400875A58543a229019
20483b847622o82934J610311C566684J041523I4136J207982L684889K266724J136725
20474H390456j507316j581445J637691J36810k541212A215169c15854j312305
20466a628159B246849L597587j880744I90996c090664j882346o13973j594402
20458g181385L239093A514271K859362j684465E44512g44708A17817Q53746b172370
20448b432291H41623K470751Q35258n31339J884288Q88494k263216Q9063n28652
20439C686270N83440j975142q64471e6733j642215p32175R20606I24669M66985
20430A391654J2374g53605p35383a08422k62553k070284J60755Q67186M3489M90689
20420h79140L65358l59887B32641a337061m93472m51532f41040B269797K908552
20411E178349j943134j129387n42328e12565j88957H88335O95606j02185K331571
20402C813327J10070C20605d68459r03967p08470E21285K047970Q7238L782924
20393F439417k301798j134614c15664n589026L44877J412542J919645A467712
20384C206506K54325n99066j8124K047698L54488j531897j7426j396209L73212
20375B673507J539326j31792k25446j198422J899573k149158b423584j646285
20367d069869J439917a107373B386162L609710P30222q96690B198269A48082J56736
20358C04818M81362J547831K5041C3124b026488k778622l463729p77288J727347
20349g318780K109488M7667K97768O50833m8973n40320L5023J099424J69706l88616
20339c886780Q6185a006445B654933A227029J028580J063146E35610a467778l298897
20330d766675P163m81195R55015R4068a036485A118427a177815l393781j51300
20321d722896N0579k9872K296425C32554b139035m720793L58548P74837K443849
20312c282594g65776e3479I4070f69006k540038J71740n25288k25642m34658c08017
20301B774435c84016j640991O45877F45313K390824j269694M8165p8225f3118
20291A344893g9203j71595D58895N36110N28821B24898a95302H14415N364096
20282F178511L838339m033065c57018o721846p29357L587882a192433k237764
20274c430197j65213a6752C26887j44362K250401J877595j162624p85604k82602
20265B079691b153314M89775c00147G00312O96534Q4116b178605n61558p61170
20256c501333J501880i47498n20527N41073d39504p2367j429491K47674o92296
20247b385984I0208a229041k119507K32850A264816K035804K652528j380837G31828
20237f35298C60642j43874a8683k282571p93629a48132j490426j239422C51134
20227A67525J076195i94744l628116a012601B283525O6266J178655r31495R49987
20218C546938p26675c90022A315092K052071M86960q5568q63894J789250m1156
20209D652755E42947b439325k340285R98380b12767A137551a459455j649013a530558
20199B52374d39276k597711O77021c06358C85935J487183n69125b215251k747150
20190d962401J928749A843844Q14758A152751J671951M22063l36186C30146i33850
20180d48512E81451P64661F35995R08501k29463K50155a266050l26822j493768
20171c086640H80840L333829K204442j423391B414944r64949N29077j89512J014840
20162B804400K892342J311243j578103n28056j468921R10710J222613j672428
20154C893800a077597B23602K395821m42679d719031r78528b691413e07506B542968
20144E369910k475348G04595d89569j674140b40188D08522R26443L787458j54251
20135D968172A969985O88595L150117J864374j937098B799383j060163g06768
20126B729365K929904j189149n96817j367914a686620j986358a377378e3198n149506
20117e202704o07840b784449A804827M09100b240182p99922I28445K126290r01551
20108B153184i63157j936177L90096G2276J32877a104726A014649E04210K453350
20099B957560K233453L06467A864764a193687j2815J27647c63606n8590k076283
20090b498479J023690J35456k260262J619432B869872J189531p81415J495867
20082D773855A709991D39498J793848J904834J752232j643003j781972q94578
20074A570859J506334Q66386j46748J705019M510348J066961l492530K08828L62098
20065H157555q73409P08001p40344m37557B745860g13651b2680o32035A047655
20055A418876k98576E51110b100785k042090k072074j246792M17117c052515a232952
20045i19771D15414b08663k733347l973009J853011b470424L82050B57520L57919
20036F15439M86520J319668J934341J042863J677433k606939j467212F17703f31724
20026D10712K29598L262991L031945j532501j668367R77735J27253j369248A317024
20016A478539J739221m86716E84203K032900J329721j61221j04917L76744r92989
20007C064441K37783M5126A378271c95516B19687a89077B872016K195897j868012
19998C199901j145158B1364a100669E63948J985308K955365j432332A344886E48084
19988f74413A914679P20107D1847b031825k498909q56204b384603B212237j034862
19979A177375b716080j202081N21223C63427K11638f97810j039215n331224Q00417
19970f267832a171103K33596j633739m237526k6421m74086R75580b677017J294090
19961a382927A09611a960666l513327q29405b692462d2259l762638n000287K662369
19952f142815b879384k46385k249520R91368a930117j123463H58350K087146e44539
19942c993244m94148m29288a596344K08799j41495B27534L813906n35339A618814
19932C64312J212956J990358m08216j125339l68817a156197k553152J575509l81759
19923b515599g58692L14875I75848J051843Q14178e56486k652402M62144B282036
19913C201963a018463r78675o92634b31531E75673R50403E16774d46496j156892
19904a603388J76042E34665d01874J24029C94308L59591B22449h27479p00250
19895a527729n20287d14063j589679g91814D43795j58843J942834J043740n03838
19886B767688A50786c796220j290592K068168m084534k338098M490178g08940
19877c07598H36874c447204k116199K706346e35845B956514I10311c891352h27724
19867A396405N18162q610Q8723K638435J5935B49632a303233I58885c09619j840878
19857b150497C16188M32210J292662J766330I12335a466006n97825j388974O90361
19848b762444a126872k97657F97149a05962B907504j97399b03525j808666J768
19839b010423G41000J496505n90473f51186o17315L8309j49109n2886d96325b27643
19828A92933J498320K425657G80121b169760i12946A53362b58159F65930f79031
19818b796102f72187B758585R32643j282402I21658A43850d7866F60005J763312
19809B423317j088356C03243c089707m063938J529252K070843J230842r8356k085076
19800d506140J027930a292127j549887O68305B083702J356294M84614j068062
19792B856548p17425F80735b015435L063l73249j300343J179523i81459p50543
19783a732002j462918k36494l94645a513862K60144k049164b96362l74974j267520
19774a938856e86062m68198h5242A058514K312429a271878m034168Q21856J762266
19765b721924d23746C734280A529496c674563j465337J508160M24774l31472a267527
19755A727378R86734f61037j46823B976588L691308J301403C405622I3649a953238
19745b443665g83284B320501J579622j816067C63912L050704Q40591D79665c29008
19735D93360j37021a735564k354165j94186n54722o1887a08387B852430A371767
19725b075744m77534o70071M12263J367031i7814A436237K19293J104483Q89071
19716C649084J91511F29532b041453P19715m056851k218514L017182H18018C80253
19706c936284p44470j686508N73921r23114j720191L99355J615285a022321A377072
19696E71134b47069j760001B6125a73724m479056m138371p01438J835706M50375
19687g206508b939454D57701i01284j402265n84886j299681j084486n27r13450
19678f186579b867357R64049A587944J519890K087545K434905j017726K053133
19670H665691j819205l049450A824101b23780k488328N48386B084149d32114n591143
19661f023257j438786J288736J87136l04J161137Q40220N17196o94062j259114
19652e421098K444497g5396r04851n277479q51975c117042d37084A026089N00160
19643A526249L17677O86101o5134m85060q68836J282334r22304R36060J427594
19634C834681j851923b90638m71650A72381a187242j562397l388167j053660L183679
19625d007787J621344K62325l074807k119685J284654b116455j642453j148551
19617d907459K216876a046368B77368K678001K108645J683794j89426A804990
19608a144462E56897J492411f82184m606101M87465J728652G63896J798266J664225
19599D226387L082679p39719B952963a587008l921990J754194a300292d17763
19590B111003J213105K27989J420024k12723A437963b227768A234318J596816
19582B831134A124598P63652g26216k797974l64824J700606o74383J02720e50127
19572D306164K664675J16428C326584d16311j072547j545433j054935a047214
19563B396940J457560j060615a158823j745823j573578k056267R25207R39776
19555d669508J627538J223064e44160H13336k0126N06667K62461e52395o45538
19546a197933A691160b148o526571J111233a862958H81357J959612G24811A109
19536A450963Q37572K28357R98143M84652J053008n86363j824491A122049J309949
19527B431998J30517P36817J002610j409855A018442J789610a284531m246530
19519e531061j81516K694641F77806K551173O6663A36931a350934I33344Q76118
19510A809462J5549K083038R50319J838224n91187A037129d99637B591547K081206
19501D672753k87240o12071A146782L70319N95156a70641A2156L337917q91848
19492B458225m12458J009477L37977K086334L0072k072895A230543a384244l012416
19483d396660J380347J318576p60672k015021O82564P80243k72301j577103j233851
19474f093878j73608q57844J397753J407237g7570H44524L62790c71104j832231
19465b203335l470612k706258O28952b340739D44842a600427p03654g45809A503474
19455B702134K277606j29212k082797C0472A0607a375251j517686J362358F39521
19445h99854l016828l569064O49392K213473Q11469J545698G95128M419150J387133
19436F601411B066095a582839j141641f94879q58726N33531H12093J521274M82620
19427B815987L58221l41383i68490o03333P73815r02947q23321P40877d36143
19417c342389h01780A307139k70655K302593P42299j171425Q39726A45701e077776
19407b269466A358596i8123A314581J509048d53388k546225P9451f13199k64145
19398h77344j116251j629873a654164P87091G80511M790201j956836b75217G25422
19388C614572K75807J222527j268147r4769J28843n28312A038852H4091f31205
19378A376468J328950J71668Q48300J736339m68199Q17228k715287B49513b319902
19368a373039m65574N58243A111017f4266k087503N15408o86067K40143g65601
19358C443100J727651I42250d618167l643462o24057Q09394J155019J513833e9213
19348C38002b964041N69617i34778p81799a21725j439284f33081H95921a204066
19338a708900r52244J46604J121950F93641M55617a704074P5277A07532b850987
19328g220426J529848a954462D94104J660383G55166R02190J756850k51504A126833
19318a461480A640902L683025p65520E75217a295204k132970N17213B498847k01112
19309B297735m1084Q17579Q243G95422l51395A88787b684342j031091a469903
19299A836078J139196J873108K345271k334844B058252O37050l84925n69471d007985
19289g189282N16236J145840J782353J215843K86805L24609o47132n7p36740j588223
19279d889748K294125b04349j083918L01342j300571k039883J322529j905968
19271d910818r79037J796089j143895K42572b352871B083527o66264i09165A897801
19261C874532J489243p06713A606943a16384o31699E93262K941363N04939P24786
19252D764350j485164J479700r76802A054988K87516Q76447Q67610A228484h35664
19242c351228j743006J247474g52991J52325A587807K832908J858737J244405
19234G523857N37594l677438k92649N41777Q21509q18297C50066b407715J051978
19225a355737L09932G3938K918396j484322L50355J202725f93278j988040g74167
19215c45076A896703r29245j10781a418373j714757J427124H91992a190776C08341
19205G45691a32815l207929j88887J03012j915306p27871j856390J93967J053777
19196f678442J030516J725402J395519A012959J037344D23007a024362k436493
19188c460855q53659J862002G85315K501908K21996q78597A249014a36300k92636
19179d28936C502888K936586l38815K185894J98672l953087A181782Q46463J409407
19170C437652j699361a65099j827189k087243P45452F92122J791629e74197n34201
19161a108398j63923e25523b4616C187461p4257J83046o65127D21266M79215J710412
19151B610893J231523J800281l50195r10066j096031a073846l980008j776391
19143f830245J48619K654018Q72868b59755B072562O13342R85713J015614j036364
19134C650867j301452e38451G33192l46237a170939B478989J762511N65697k270390
19125B536807n31897M215338J22427o16549J390169L20010q99604k688568C89865
19115d22796A192039l19351f46973B081771m53318R7494h59558k146250J56316
19106b849492o37132J546601K34050p25343L84796j251110m714635Q32721K948083
19097d231461a13953C941116I03412b439719j211401a431038N54814J72502H22503
19087A262702a326942k723078p61846O02756J791848H15282j60611d372329j541990
19078e914319K896640J015902E71708L113902J066633L64701J470242j09636k511072
19069C966478n01817K84837f61691j047509O44924B17863J766835J937947L81494
19060D304139K060700j824710A324635b887296J028960h83734m33816q90058a055506
19050h19735m01837O0508e3663A69378h23681B18119K174416J404955j839946
19041A957544a71166F8445J246578K24403p00894C73892J156066M038817Q12003
19032F380778B483313k69129L124602K533662O34945l030692J99178j069765A009719
19022b388873r45544a593314B280739L762952J871980C746444A76163b878796
19013c827289N01741m13363k61943J461665k83885j906494j131126J184803M79220
19004d196671a302939B256120K189581j589194H89306J645165K812010K747305
18996H093786B559034C98591J934333n77178R6915J004597N91481H87906b477251
18986c479885j883218J451274a099841d68210A412753k30958A95712J941155O76594
18977B813461J880149M95513l76275B150104F38348J455485o3642P73727J214860
18968D018778Q15030Q74300j887455F48239G7973a879245n77033g29559p9415
18959h08974D33761Q01832J814816F30867a266310K7425J78468E90180H4449g32543
18948a242071b30370B569486o82544J778814N17546j685115L65600L139228m07127
18939E595888B090761c139115J057544B21361k890c66116K2131l221996k910401
18930f476382K490409a878825j004474c11963H74876A13496C8272L505599K236073
18921E779944j634081M24424A948539B66945J94317b985750J169360A604246K630149
18912D234395A948201a362789j15391c50284j268526m63314j965589J614287j545895
18903c979321m77174K010636I73100J698791b04265l57717j326750r27934a242461
18893H43349j36678b631942k612448J244218a507645j381079J002626N41650q55842
18884b200290m77119a229652G09579g83310r70291J89600A571478k77749K85108
18875A578837l21319e13016i0064l29607l666727j828034q88679p35137L058596
18866d479652J428363B82509L076271j236708l90972a884558q74999i24496B004782
18856C389268M87451j3069j404664P52849J329535l26135L31122j324450A577961
18846h77248C56932a115934o26578O04149k656885r49639n82532L46029J840973
18837c140417h27265C255205A213932b581474q10590J011736j047618K84195Q28940
18828b314811J61132j125622k748187q18693o24770J454769J883845o9746a113277
18818D658960O94221j869915A101966M11375J254740k1252J495483j462852c68051
18808A019959M050804J214268k039984A012839k1088D6626e35581B622313J244809
18799C867122K8297r64753J894951J734430j887857o51521q94118j155269P6450
18790B047732o52929K816241J336889B440499A077174a303533j137294r3718j921988
18781d456533J523566J199487B83116L158277j605592J21749I18663a761623A74426
18771D146740K371519j780852A272578a418065A756557J322947G39969G229a970249
18761b106370I21028J943445N03201A462540k66912K080231p39038k11711N4971
18752B380081K699670K240921J685828k698662K084158O53604k476746q37409
18744E731445R47295C316803i0228j483967N18029J67996d00509F30679K320228
18735B950907J671993P62784m16748M94802B163870A8286J395886j48328J146306
18726B412150h858A028540L275706j276615K443260K931951k234258A749128B575
18716g80871k039712n69003N00081l669365M65435o4079q87192K568777D3086
18706C084977O48405H80817J440238R98624j591131a650333p05895j216168j18226
18697c690622m609942k322284L067069p23671j10117J921378K142641J893739
18689b431809P84287r46184M58467d6978q08822o99214K79086j348410n85127
18680c209465J106936d73149G68318J201184r16397N01191m66518c0169n81275
18671f11444j4340F74331N94462i87582l210273O52555n73592j395020K371222
18662c142690J361280h26370l47708j86901f45102B040009J307067j011131d4995
18652e03296A102169a464324k408540O09382L40725p2185C24304P42366R54556
18643B021226k52391K40039M464616j051139J123333B858972f04809D66874q3180
18634C83694a412860A272208K361757O29938J508767j130138C3751J96914K699636
18625B930301R14048C15850A40602L080073K662727k844622a596464J68003j677217
18616c105678j440118K116076l48639k291960J957107A07267a170679j477933
18608b648612f69428K35139B679114K628375p51431o96342j689392n47661J796545
18599C419208K696350k190426A165538a54508m63143j677463g22321K19677A726551
18589A304291K142566M03665c54677k633658a055989j141907J45858K39102I2185
18579A44390K89792a063620k842694a077168L13383j544208k013006N43234g39160
18569C53418f25402C67288J846660N70921J031204n54155J564632B07567d055356
18559b275627A238767K3949C32384a6914k089100R20762A242560D96168O60455
18550A156623D41195L41413O41387J497553j329317J46172R5631E25128J792450
18541B317578K605797J25849A666031p89569L309055j026669n9762M81707n5496
18532C525297G57592g33949p23883j321689n66769a335885B891629K695188j005755
18523D581062F55224q9756b233207f45800B38311g53616b33903D690284K576536
18514G266820n79884A982800f123H65982K02617a34634m45782C34121Q63736J598520
18504B796377L011713j311953B125255B97283a357656B46824c44566m64382j810946
18495b619894j108849A999512M133617j024083A882345p86162g70991l85722H8850
18485C45079a315891j810861L39331C79321a03370n34952A189588J076327J172247
18476C438162j575380n69227E17691J800822R98963o4248q51454a819908k00671
18467b020579b44514B393488o3283d2302D61957K935407L385547K335522m45834
18458H672599p90088l623555j230542L197189J018223q14089l039938F69057J176377
18449A845434J804696J681466K7813A492735h26417H61529l15949i50506F04723
18439g95101j895419j153568k347089R82549a472698B099502K042384j815037
18431B326849h44337j263842p45388n51240N57390h12235A339615J862733K857328
18422F059676Q16579k155156o68975D68554n9487O8473a357678j589281O78673
18413b268286i81503H44366O05931e22641l55020d13635A400364a158077p59438
18404a917515H55160K152944J450522J371474Q9570J2231n78610k10407B518408
18394C031721L020421k482674H21098M03237J491317i37682C120130J626482j423690
18385C322922D98411b94747j522789h67538C51430K691827p4621H14912b072435
18375c339822j402849l27905J843442p99282j535248M7454a249754B248940N716493
18366G965433L508730q73994C027332c297437j204472O25136p488a195203b77734
18356b954292k608653j126893M96119K647084J166241k243879J842133i9298B90970
18346A995000K091665O67776O80309j017228R14152j805674r14215J566000F46939
18336d619371j303521a151412B36351a215896j600314k127161l416064J692307
18328f667128J558821J996240k241578m174926J89393L771615K486318J084609
18320a996636p60598J255907A77858M54504K214982J22931B23785c069210j047993
18311d117203O76231B27646L740112F43242d076560l350376c184861e05236r09456
18302a414692k502279j689928K59510J343764J750506n50368L73860Q11765r85970
18293b603832j235585h75231A305522c46079C69210p1236a219452n24471G80117
18283a057865p12733k074499a731557c03091l160417j272369J382370J10619J29930
18274c112958Q48043M65167j55891j098138c79243A117406n46482c828157j315512
18265e143669E65324K595899E10657b399591K9021j400978m40627d08448A063993
18255I52397J752687J646392K173061J956689r85145k837091k073133J314872
18247C900729K550895m34803j721466p42204M8140M203189R26121l740806j217883
18238C771912M32197j248717a414006j130609e60096d6651r06143a16381j702557
18229a818938k938699l416460J872366M66194j985972K289573b737912a144317
18220a525155A19874m3577a530269j109496g16165B675048o3579e46784k143807
18211b690591n96639J248475q142n37487f05230m47310o38729C29386g82549n30789
18201a313338j754329j494743m21043J110427J731964j425974J210694q96814
18193c253156N10622a94040n93100D39685a62461k02694k202747l112355o3473
18184e743730J017189J786000l60204a163837H2672c945122Q12659a59223B718958
18174C460877P91513n7078A772925J617345P95491j543736I87899a916126o08252
18165b524378J127873N99661J75217j745096P6151j146346q41601G11058L774445
18156D485503J254643K219342k130004K15959K384112k950694k549766L86860
18148C315955o2983o04922n78355K79330R82707n7476I04864j83111N79628j59968
18138A141413K167809L20153j269081R60505K461709k424854k21666R73966J395816
18129E505770J97801M68819k260006j463745o88282J2140f45800j158630k241256
18120d045686l00776J96706k56140n41042q25978j136705j28843J091278K126921
18111c820265R3998j22422R98115F53403H0485a698676k774853K136410e78081
18101c037482O64269A56079J577558G92370M25788D42661K65337J152966J944324
18092C805288j491238K11702N82584M59384A040480L20484c212888l167111n59577
18083f939576K639823h6524A957296R56024M76057C15965b496508j576588m38579
18074d511675k13104d56763A267862L75036d12472j840100p78263j847784J43270
18065d735349J847575G66181K429657J412919N49912j817475o40394R43653j389729
18056B254724a49771j141008I43022C21530M30562b986747j069851J057020L72461
18047b627117q22347l107346J032635K718214b1451j908916l965561R53861J180558
18038c761509a489347G43801J803764j055606K726728J25733B85238e223981j423576
18029f647557l577471k180949M112019L901161N00323J927679A685649j80183
18021A505466K798984J794485j934604n61258j443501h82650I02302J404307g50876
18011g003949J450050b661810K21007j425588R85759A233378L564168L023820
18003G821366M2665J21500k525575k149820A283796e70819b70327G01991K426923
17994C128914K00082D93536O66749A3856b884697J393473A021093Q57078J243398
17985C121569R63303m37912l40466l47211P490p63156a001844J03464p18086j453298
17975c069764j099070J434069H41596M104769K772502C211711j403668L157223
17967D965266O76531R80411l231069j661503Q30011L01909K12961J733707K05195
17958E013419r7384B334540J819461J982487o39884k061870J199351j63675j431679
17949C038731c14411j01385A931840g90297k194836k200027J034625q97451k573497
17940g621483J75456L041555K059987a037805c32635j083599c45060A29301b374786
17930c422777a065201A123063J633964M396705J241895j770767k2658j061273
17922E540929j460257o13783j699039p23705J456080D82540a746515L11127B971411
17912D822377K285318B982520c49131l599379n43299h64210B366769J75523A236677
17902A233287R85899K906121P54418G77200d445449j723512K014578g64266A268824
17892A152161K902784J551132q44464J41119L322161L257670l47016m072245j470862
17883E592440k62097B198448A18101J757265J63129l75279L96521J513639J509049
17874E082425j282452J03519J112286k53577p13273j588670F87476a430423l255314
17865d685737j48452K405081g06046E05414b25845k061341n92049i54278c55492
17855D24399J617455H67151C53415J177165f4429k100373b64678A921394J805228
17846C726622L93544J957326C014875n43982k33079a0163j125949k58603j050807
17837b445522l83687k98113J410806p83634k657410j99237b156528A411566m89521
17828I22045g01008j703267J94117J098334P1459D94643O48696g8477A992897
17818B554107A99621Q19550P39697N56411K455292Q97923A208784c539594Q46594
17809b693000J141492q60183P00360l932907m851847K445377L069233L82926J236145
17800c362404J267189k06304P10613A37511i64131j4728j268862r24950J186061
17791a986610a20402r46344l471969j942814j070932L6071J187774L67670a397840
17781A763866k49954b199679J16735A38247J606510c280036l66590A421758J491573
17772B913331g63996J79772C464334p21383c56063B245051K486337k04568K319076
17763F845896L48893j138594Q1094j685818J12276J002283J233350j773585j322384
17754C703411l01223A648205B12535A02746a694250O68966D54485M405739m32822
17745D427402c27968m365642M06506a611841A157424A32659c42884C03851f75826
17735d731573o6262j221333J036033a850165d24529n62996M09279j79920j168277
17726a926443r20225b23710F92037h33977l501206l541388L47644K842478J227877
17717c458572l15805m01786J246307o64885a180650d58697j127295G90678R36644
17708A727322B98536a185543j406798n09731a399038j442712Q8072D9458J600899
17699A650357a251964j897571j125627r85297J625167J282661h22909A481902
17690f35749l691161J214957L79666f55289M381J71068E08241a381322m1975j044292
17680b467589j29870J12669B00966R46487l53665a18559j316935D56830K009306
17671B466136G09822g91342k884746O60485a110555m94204a59446I43357J90907
17662A134264J174422O76465A329243L83262n65124a547899k412433J936924B591257
17652A929356Q99884K912478l87054k263793P54989A032056l9471J194072G59748
17642A75959J658974M697788K091815k474332j989913I99918k92332J442838E6230
17632a259459j774900l033146R20479K01338b273376A664834K92408a088491p20454
17623a808945H27185Q02567F10947h77767p68626j354831k014405j063395J583795
17614d495229f99281C590449J840525E02802d306343a479290K7535j342521p08670
17605c502946g79229J84617r89170k859906P6438O72787a072942j152465b99556
17595B692182K091756J744437J44873d80977m298108r50345j438805N70284M61088
17586f136863b231835a15577F46214J656853N80390j024494q80955f94629j280641
17577a975270h39992k304329k023773j6248K502854J326118J26274l50031d85378
17567A800928L351298p24729m55256j131296m43008j048027J394595J095679A518840
17557D68340f49244j925374K99499j995963O23561n33254K048095G5621a950814
17547i7513B926756O27369j559022B95200j30232M39448d0767A258901k07735
17538A051166C80605J927561A58530h68812C347839l27889j368666B98602P71616
17529A070218J876610n68237b07873A317638l68048j2156c669480m024151K653701
17520e039930a891942j655643l027508k94395O06302c048815B157808J220537
17512C378345E54451a957640I68914e53229j753936h65149a73845I80035K469567
17503C449602Q11233k72929A948388a762169j130594k420789j658987L064080
17495c908459J671685j537731g56388j369296k469562k352694L08836J667280
17487d971824J277419a650481C758330j154543B56342a75892k851058j175851
17479d202801I16805J734344g63191j269721J08500d0783F7055b364331K63901
17470b100430A92417K479999J269460J598036m58237j826274q48479L85167q27499
17461A964590O9728K435739J881925j30423k435253C30141i83063j301717a062712
17451a759815E74674R33874a790067j236914a07734F34079c205541a598690C09358
17441b089159M74828E72489M66957a763427j476149N2077a278969A622834O72485
17432B295319j031933O57924E20382g61661H34522N41469J77036J284975m70278
17423B367724G17117a009423r82483g13961D003616K026120K968943L276897k873268
17414I402308C373170A111633J178510q64721l53221D34830J683540m2068E33541
17404c179043l267582j162270m71495M18333J819657a384589k745165k287588
17396f417342a602514A637870J867939K557456j056002k445551l99650m01748
17388A760314R35557O06118j404148J00289C36700g32600l36782J88020A308130
17378B282410K29091q3345I47644K79464a699450q69863A327129K577506A694884
17368A072480a809549p70606i86587a99278j676326l5871g38227r23370q0419
17359a742016q22455h67852A463037J321373B6255c401361P80475d97206A030747
17349d51905m687235R42712A30077J657421P61401n1017a46316m83129c6152n33487
17339e69639J75408l100421j869028K070480a227265B236017K634043P83902K04311
17330E858273k281365K87083N25460k74225j104313e67190m737994J814744B246498
17320C002492A367747b864457k631301J273028D16501L494163b215262l972043
17312f187305J55500a870547e07124q25896m06160c46741j190933O41950B482815
17302C400343K053139O84551j134434p69407n48053J23246A314852a889455H04703
17292F122152J067046Q91077J519270k655996I81554a074384m85185e28382j90694
17283g19076A8594d10717j699196p42850J318083l511583j425051J807327a532095
17273C004757O49859E1602a967236p24666Q14976P95305B972129J813424r55076
17264C830477j694255e80934j1279k849434j8354A320204Q97747a90528j062493
17255a253021c44896k514153j477064k374846J174836A012622L331910A926141
17246a361247A38530M301145K135197P36224K082643m678289B226693l02763h80650
17236a843029I67809M89789a415992r16640J150246A960558J878217j56971j418110
17227B263694A15187c038315Q61325H34040M0452k39284P38880N497044J80273
17218G051405k54202j173240k417294H86427B30294i0991I71917J549740k43022
17209B278635E77828a880471l019225k983645k026993l8210L024632L303881l93341
17200d013372J74521E41987A37453M62936J25307a387134k244244j357627P66987
17191d222018J378696h89989H16738e93665j594563j328692R10769h94567A095365
17181g78892k980524p26950J586907r38712q12283Q09588A019114P35397J14577
17172A869088p91206J852361J025365J351067K214299k329206k402059J279896
17164D069605k96639J321077B324225r81315k33291K155763k67446K349947j39278
17155E208605A358736f69349H0455M65347M87557J052737J461872n13720m09239
17146B625009f68570o045334k024936L588625G32886L482146Q27597r49828R46879
17137E039680J139482j486200G40497L38606e77970k951232J724007j697913q48903
17128d352011J356981K53239a186100j73201j129708j588647j292591N00037J183177
17119c687033a006930q74240j991703J458128A66993J57690e35483o0049j422873
17110b018405k479079J910587J72280n823700n655393o172608p291586q852792
17102c6210696j4675449l8884582q0265013j23963026o1318831J03905511J07262823
17095a44149263O1574290K8973056J1662524Q904289Q454812M209966M34925L059857
17087a6875544N981944L236267J816634J015103J012036L56760k731998m173628
17079a0362426j731644K253493L149599R11419J603051j570756k73690c004263
17070a500328n75211m012575q21907j84919j671227K59339c192407C957215K008942
17061E966157J573562p35367B960781j319888C47288Q1473Q73650J942002J892947
17052E137360N65083B483576a836649m118673b787058A18080J24189H2875K418130
17043B501005J339775A872129C16777A34099J496462D53713c784505j387678K052023
17034c120160c44169j071136q3516A189223l71666b387764r48104J301400k55707
17025b290175e99869B501061L31811k79263A089526P39053G93699c41711G12275
17015D1534M78839L70735A07497a280531K17667K34252n8293I31397N04916K100086
17005C536399r95666q96281J837592K236705k337236j033189k10957A91401b346860
16995d69913G2880K007838K135445k44219m61359P7932K018750A65804d024664
16985h00241A882683A55640K18447J627475L351987R50L0878j3504B259570c561481
16974f431497Q88960K572118g24672k195468r0472Q26786a008477M14174n40259
16965a134562j263112a068582j55156c77840B206040J758845j296470A03748J00069
16956B03817L93930a022490B01086Q43158c57247j547262L2133M33949d71484
16946A85480a223663j429165K15964p08346j589177l65231J938339n72589j491953
16937e225821k106648Q72675J466138m6986K65699q84411k458436J182969a695532
16927b27353l682787a641021p68876l282620J992137P22564j998719K063910o12905
16918c525530l059070Q09010j130767k86072J172796a755633b69397j655277O85500
16909a239174m47466J59548G8718K031244K565298B246618j027212B20763J330555
16900A551318L44386G56870A85974J974627K207399j41495j534878F45140b219842
16890d001877l89533J393615b75754A325824B4783g18460L56897A235559M05529
16881A641088l09247d90117B921298J607763A703653b245991A587502R29710J2734
16872B529946k33486j6649J66187i51883j004305h71382F65416k88247b703063
16862h06188D01566b114855k8555h34938A103593J438972k74270e39279m548006
16853e087285J183682A315197J070865A6586c109886r43531p54257J029320a711469
16843A277551J365395A218760P99986K332912A976375a285604M88786A065515
16834c89776l019562R64325A601899A36039b788549j943710j293856J485538N11606
16825d028971j741561o86575K2651K491620J840032A95855J447411k06596k92612
16816A144058J60125K479499J113217j965379J188176K660804l23455l88571k608744
16807C459730A507041P06343K407709Q18304J803295j93739A60046d278116k510431
16798f788547R19985j003878J24780O10497J512884J66279k229874j15951b217693
16788d77854j071913r33783k154378Q99694c08233k262163i75261L74850C81074
16778a96703q77141n93275m46743j322132l62054a348293B532809n90642h64007
16768i61352r26576m64960J62235g4962B276160j037474b77196F22737P57567
16759A380304J280223K61154d33137k845227J190628Q80069n93062a24802f000
16749b200516j670066R44892g17150j433536k201656q22671j190006K601798J810431
16740a952790a91764l410792j293641K214214l97453j689539g17925B504758J452283
16731C957041A675075b731129L45315A563642g03741k829036j553312K534468
16723b551621j051631O40586R87790p73989k018569J365474i50373d55274j616091
16714b071365M30774h1132D346198K542093q27891B883910b92365A525301A04643
16704b471733k366406j207621N31065J862797J12008J675288B96812K028967O156454
16695H482233r19075B972021J371270j513812A036007g5259n72304B76977Q24852
16686A101829K081052J361057A023379b178230j872852j045809J497369J259491
16678b340031E85441a745465Q18486r77388B415101K164177R44429B139239a24515
16668A039858L666845k11094J391262k429981D4339K874135K626449N03044P47422
16659F795389k047331B009514G82929a562540k374624J785874P03481c65602a67279
16649B24687K592592J02100a078708k745396J447988K35665q38196c55877B584143
16639C464637j102463F5335K24873a465149N35026K3551A2130J042250a416381
16629b577440j61674q90028a605996I02454Q61747a738229c28282C902795j940479
16620A962316A42989b139187b64103k12167j831674f51685E90064e62875k686156
16611c249031J152077B692592K053756A770234C71847a016444N03017B83250g0154
16601c480954a529190j230295p45657j368633j19313K164592L9502d53136A017056
16591C848056j269018A034652b89230A751957K495739j157431k35714A366537
16582A85026c14955k88314A632772M349575j439747B183745J148620j417454C08828
16572F40021J851827p46682J33737I5037c708357R32322B220883j042157h47888
16562b861474i56500A108201O40147m96830Q24531J218268A551761a842272q08249
16553b650521h78904j957390a326623o38484l907679k053590j410871J510913
16545g826334L853868A37445e72119j508659L77003B148915B93826d72764B906363
16535D308685j440406A355621R98217L43910C12224J782987P51526J004624K706950
16526F558311k460392q31400A04315b27914B454898c13110j798991N08858d32728
16516a055707D56953M95935K20622l84817K173785q8971q69428J668948A201314
16506b49277A501879f79223k30148L56000o70998p15490d79724h7485q86870i2395
16495b586201j479325k822350o77397K801401R88309j507880l88826O77332K481827
16486b513110m9859j027979B059106K814225j373517a46584n859213j64632k35393
16477f405822b496514M62964B095356J038098G22501a028979j921849J31035J347618
16468a472175j937572j844205j799893j422967J537921j472073j51604P6144q47302
16459i333726j132998m662907p509407j2467507k6777567m6655360q6874198j23774532
16451c19188202j6025417J15135136R1632214M7347564K6746973J8039079Q461331
16444b7851322L701016M970323O528804L139810K95212J396203L063214b133649
16435c509478j202799J148062J614345L82826c79775j584359M64051K58609j127457
16426b368931n58487N33879N63630l558240k207147J226068o56120l979420J794613
16417i210155Q93477P19103k75568J676723N15403j363994m0941N62075j08436
16408f632313K676479j689233k865908Q27637q94861J368427c233927J330824
16400a903103k451494Q81606J245516j571606N82188j90707J99089a351932A898481
16390A290921a073939k480247l37861L81747J403450R49193j226230M97253k99843
16381b186477Q65372A625930K167317O93161r9894N11508A510774I1220b708347
16371d512467k662621O10285K022870g313D976336B260200f8444j136300D430
16361i06736q68880J80932j229113L26058M12773a5261B242393o48733K32876
16352A826536l53591F53659c504042J455004A14210a739971j315696J134434a28695
16342B185800P43444M33058d56668l526160J067412R26513k629523K101206d43322
16332d55310j20896j100087j866907O03546a256513r7762k932710j510832J718401
16323d079416R9287j288035J31520K081655J515811n0293j449698j666794N34110
16314d171853e03843A265485g37693C536906Q79420p46971j816361f78994A80875
16304B458103H09527J437147K171267O68370j514572j334290c881j917087e50079
16294E75231M90882b28900F23827O68087D09331J877514C21131L19548J541150
16285B181829H1108a422980k943927k951237J454479b308027a94908A94219d17392
16275a443539o43801G30361K073297D62392f90720q00666l307945M99786O21144
16266c678401N34575g98543B29445h36556j372785j567384J269497j707791J113365
16257c101654a376025j66087O28226C737555J401213J511696n61726B706213f2814
16247A98037J261536l21679J172263K479718J593088k703926q74085o66420a09999
16237b185546L68646A750a561484j831965N15634a125512I09117L732311O23659
16228E265087K005821k945834j761051l50970r082K87406j17047r16422f99745
16218E06279N50846J414184j36932i20028j88327C331764M250991K303738k119958
16209G766535k89786C279901a448001r48423o44465J98917k46437P20904l61811
16200b729316j086103j17798L23739J043363M23630h38632j337733D91432J134409
16191A625841P44847a96747B02473a43271n55992A40800a243196k672783q31400
16182d747379Q50789a718563p42188O95895c63625B62680N37603b660154g19831
16172B231352A036202a862897p85509i10306A001367e23996j761295k759414k47323
16163e292028m28940Q24081J544777N06132M44588L1415k955130k682315J786836
16154f220584c084834f04708p91119i2547C320383L067361B551347e23810m221969
16145d745779Q34814c61100m79486j341727b3007A348195m05941b94015j331944
16136a625959n09769k707191a760725A749351J491569j158347J485064K867999
16128F435636K592070J784165k443735D160784D04251i95407b68168B096948n91449
16119A505499J11738b525300o39521a093418B698669N61107E78559J53433b816855
16109c475783A61063d92034m06571r66925J72433B115195F66113e40700j889340
16100b430040M60712h58765A258720L749567R13931q07260r79467I9639a038957
16090A447999K250200L62224A588804R27869o07405H04097J863188K553540j408337
16081C812488e05083p01423J095j283426m891294k05074b084153a24985j30374
16072b55359A489443a020486k091428f92065G37087J384800J664372M72914B14012
16062c677802a799252P70933j638095Q07174g04599A724739J728676j070740j060655
16053A322020a327090o56218E34648M26324J028972J631875a20222m003682J409018
16044b714886a323677A470517R05620j008027d08075q89807j756847l02597K46209
16035c111117a403594p59589k90582m00054f0136j452299L34431O6294o75291
16026a787001q78919b34321p76833k160732o49723a093767c02197A152144P96350
16017A948494a511967k003070a712524A159636K394407A235798h18608j617377
16009b435985o09290P04627A340020K069313j60925N66068A041291e62651l5538
16000e98189j987095L84238J697l53686a180995n37885k382907J950266c11139
15990C746156N90263j239989B17608f02386j72748E56863J45413a920333j184322
15981c104655J028716j08754l12275j231522J49270j217519J03178K151258O336
15972b535967g78726G65026l79978K71029R86849J917441K170085J542859p02508
15963F570803k122144l41137p23740L44737A256296M60935J932152j144779b406700
15953g442528k533624L186529b706456A143078m35562L93818J288882r15631a393805
15943g05470J07331j046767l50268k321795e85112B626946F75096p2150J672470
15934B275416J046709l21813P35966A329005d77878k001511l430622J916088J877915
15925b116008j70523j445996r62746J194530m30403F1543J399426l27889D79484
15915i76306k91903b61983E8402J32445J563204p13522l11920j70973b5057H04358
15904A370822E36558J698985m97553a536716b31360B181199N36780I56745N05595
15895A462340M433655J80948A793737c22027r69300h1064A446838p8951a46960
15885f1174C28534K224869I25887b09968k195517P27931F41852a464608l559522
15876e024130j020584J344108q2502J358275A251096Q33562K228274m319G25252
15866h29168A48411K38663f21093f4313n02346A01565M184692j243712j347767
15857A694778K271818J533785I08785c478960j215055l0925a543387e45690Q9803
15848d55887j190136k92342k970185J077846g52755A406605J803776J495285l41344
15839D364322j423752Q51185J02381d30295k029780j56358C54470K020132k33683
15830B140919l1489p51855J74314E91941J040276J224533j007347a39655C759152
15820D574060M74350k163137j23186j308674J033090K600158j839846A332091
15811e34149q06373o67052r93088N3969c51833r43177j490353f60679b86471j443292
15801a729763b11004k342607k83310I10682J328708g56225j383120E87272J177315
15792A764587a093033n53185B408124N243852j028330k573957J34207B024916
15783A943188C51549L286981J680792j596290J280591K831089q66933K861260
15775I829039k697377A031091a624087k541731J590031D93578d68710a9585j988456
15766b008041A112958L014352P30557J605465K749447L23783k381545j987093
15758E167924j648464H0605b164074l17698a002627c99653A464351O40875A85075
15748d87353l029482j283703J876402J371458A651984m17512M58413J952010E81751
15738d529164J534389F45052a478880n88838g51791A451418K750778J428659B782367
15728c07743k540866J4096q38222j923957l00923M94155J672625j146615J091544
15719c785906p84103j56842o26240l337270J222220c013903A930915r04036J528484
15710B555363K864523B438873j136839L10160c217691m491645k278875J008030
15702h980181J585683b825412H00434l62160J386611J450809m92420p8175J374023
15693D079122B031327J37651M43K065271O55259A765255a011467l097931L10572
15684c798826R41731H05465J535365a14159n83430k2855J43322i9929n30972F54500
15673B810602P37804n7112A475576a385760q29771O29445L17381o24440A887208
15663A086980i72202c05174q43465l325475j508800b918379B302719j5001k59653
15654B028065M0838A08890c542945k501996j159876k15162J059220R85136J586647
15645c788976a788547k71957p57129J4523R46636A61508K121819R52947q26053
15636B410221e47369j033098N26879d90995l087940l034738Q40093J905564J065756
15627b802260j89417q44697o68839a163159B596668k83307r99840a234388k21471
15618a455859B70988h4518A791521o65531c78832H63227J719330L03810l37793
15609B548574R6217p07126K32988b2746j289755c40053l44925b46196m104285
15600d350481l083273K987660B17717g08748j251108O98263B162384K832324J098376
15591F093084B854123j417674F93985e24404j416547k028930J903182o0386j597042
15582c724127m32851h52890H12284K41691R59757J098052A364267h37263I80068
15572B117695a564985D08337M991488j34079B048444D91138R12754M31230J709498
15563C544620K565736J340883k660360a36564m19646a12125C787137J608326J60573
15554E556036j342774j337369H91599J658855J573939K77110j651933E74857A18295
15544d73500m181597l08178K285459Q74834A700298k39296a482820j203411j869287
15535d555518J736929m62677j286743M16587h43342A411216P27367N07780a176534
15525d349170r88702c58924F747497j313782B479395k11163m44443F51530d61945
15515b849847h19484A355058l05571m64132N44432J872193J791425A946659b558290
15505b546707M41949m67412j053890k466620k68003P14714b158976e98517j032356
15496a630873b15323q15380k154929n46794Q72997I44771J176355b87741n533642
15487e821383k486533K944148b214028P14567p38771Q47275C621757K847907l81832
15478F087832B839719A044972J93085B98086K061211J746493n03108Q39053j836417
15469B605318O39746a901590j249372D94126J181583m14596A58869a583887j38383
15460a722270k942552O76185a564919a89524A987500l50925e9949G23891K037031
15451B760922K393991k395373a039925j84471F99960c31757r73933p71826G38519
15441B652597R76508J648984G65083a398842F73324J831176J227926b3799D62069
15431A38762L056255L085843o64280q85537J75539N55601A886861C50586a236847
15421b101929j783728m454059o2610d107621C00414J060669O65705C78218J072184
15412A450402M926922L372272j443669j543821j179067k570809P9290J859383
15404D950903j684630a558493l359327K031403D39380K623710P04115A723326
15395e36323p73007L14221r09913j127J63068c37786r26651j458119M05503A971867
15384A733797b47552C24953J519308E2066J407957O22889C48905J217771K53562
15375A820238n23016J391482K011292R01233k112928a158640J63251j009537O26776
15366a378150j652483a057846L50686r4848H58749L661755J410545D38836a975568
15356a278646m48453E80421M290636L212105o32867j426299j312918m6120j870273
15347B794685A278606b2318G31497l06665c93461G91361J297002J120421r81842
15338B226942H06384k13367a078194j333006d97562E16382b494093i27523C417737
15328D494219k087775E56616n2236i18952j887647q92539a125204I04192Q60902
15319A765094K357754j255328a646145K0220A418183P59030D0448i70502n15206
15310a485708b69254G31216d87253E5075K122634P91615l56164C88474b852883
15300a326196A585951Q18669f11728k281555q12717o15680k225117j904140J395401
15291g055536J597821J554896J491325j754100r06410J89783N44619h76929j30218
15282a007147B00225N645440L270025m071915B303172N37723j95193L073055M07102
15273F125859n23151j253822j588858a381130f64120A572088A36027M09920J188626
15264A734573f16893B6929a1086k30645G21673J673674R1846J175636r6769j553386
15254B012674I19875d70624o30919p32611L49695c20702C600114N23925A755216
15244b30087n93940C33877K539489K279781K107108l48768j939463R63322r86549
15235D948797l53336P95787B144723a716429J33800c72202j251786j365529q67157
15226c856674J42657R00721K1899J88859M64666f53309H40320j97023a856763
15216a598248k23503c21009j556063M73094C288652M043731C339291m00021L34461
15207C273731k34318m71220a91690l523886k079709J922079b83292D289224K600616
15198F889840B963800F41497O29241J900752j489211n3679K374753A964130b933859
15188c644273l11583a399119c34776k441079j218036o47912Q28770J46541l87471
15179d053963g67836A011056a555357k07540h14574k372405m73437c36227E23876
15169A848879J411305M256943j216443B593367I16437a417712H65989A10339R32295
15160A042634j58752c22032A205321J122125F21109P44308Q15402q74736a476693
15150a215923G75513P54584D92935N87570L13867J9045K9058O14349B57231h7234
15139a84230m23416k038915r80926J096466i48060l29306k140589a441816d59656
15129B802980M392576M16283l802918B03568J383771a69035j968173k263511j236466
15120e637185N38664j404200a581702H75704j24754d94649D5908a048234l680861
15111d729095j327125Q63221p48089K341387J491757L70065a0522G06475a290095
15101b414555k51226j045645j99102J041166a132592e1456A304919M106947j226328
15092D185538A208663B52296K310653N85545l6348J284517K592056K607147j86595
15083I409271l837769A646033K25374a335448j027874j267919J176779A01315
15074a123206r4825l84748c32520K3581C86026J119176Q31915B03055a735249
15064a668628G76794a2070k332623q58250P58178f35421H90137J813079a870218
15054d195692J767214i57187B541083J283295j040465a263j072925o13352A10399
15044B076502K223424o7746b00902k051759N26423p23394p35414a178517q75569
15035b054086j724233P92372N3586j112650J743690P90820B063147A78078a047460
15025H13609a199219o40404k346123M25050a191565A508154O21002Q08686b46673
15015c812788e24445A744440a496767l883991j82705a407652A27556a087424d5575
15005I4319J276094J31926J698459j599800c052258j304566j86698j318911j806297
14996g668730J104691J628896L26508a599618A169767J955854r12746e49507k670019
14987c219526J605849A029974K372593L09791H35154b344818k101563j029506
14979e475887J53124l24462h74549B259049g33434l309591A062528O132893L367794
14970A0563215J00809Q86941j899762m615264A991502K1090K301937A341699n02970
14961H38729J822966l65413J440281Q4355L11523k90469j261585j227663R79533
14952B332257K077975J467424k88412N43146J898427k490142F30249M04780J739843
14943B774872j002921a762183r05578m57224j018485k936212L88882b436425B071108
14933E231908A977692J947052N23573J076042q33470n22927p02433o98398n43459
14924B223672r4378M74667J23280j289506C12863c701041m978314j39677K424727
14915f394305L45085b698010E38279K987281O02044K99672j58025J154386J669072
14906G092709q82356j776469A081415m67871M834782M022994k331977C129458
14897G15363K408268K525665j831500b01968l120393j59410a263343r0956J81662
14888a172637a80947j706936l42306g47714b84791j407324N92985A771572K063419
14879C834991J451114J010685k760302c95669k25369j020331k143982O08501B759560
14869D425687K410934K231471N66238j285689j7454C094915J92680L404503j279650
14860E412448k441758j405628C42302c870518m19179j322171j76776P76736b352059
14850A351512K536592J564466j49153M01388k573046B3976c311725g16879C295428
14840C690134A341579c35967B068347J492162j181725P75826j21427o26320M99093
14831B905956J571102P71781J20183j863967l79633D66896a483886K80465A158289
14821B577948A215312a365014j017920o69660m57602N04261d51537G37629A33163
14811b676272n60439e90910B283207D97447a361807F24649h01368j007689j153819
14802b962876h21390p39556j344172J65760J083544j239251j524244J774136J33179
14793b511994A475784J032191a927095m22037B547583k05188H60326b061910c19626
14783D998899J688813k640367j481618a964564j788209j403701J653947N44151
14775b958376R83415h93306L47661A277840L281556k206644I90347l88205A81658
14765i19520k555230P27862j79375p97769a680032B18459P20260f16514A98409
14755b133490O89378A213138R85874H11956C63489m0732L04814p9416J345829
14746A893984M00549J2464j068310E5921d87824n519174b582521j78051n18808
14737c279380R14836L59905g38856b37359C129040J098122j96067K34425j622392
14728B643128A02279a892524o4476k230680l049232Q82782c021712l173236K749415
14719c445533A755057J740273n41755j73397j030870J194452q72389a294645A590360
14709B458462L709960l23399j504053j356470P1557n6246N25903B05323a321864
14699a038103M59439k246975j697444R16009B78619K025859a90715j455178l41205
14690a987098j858414J38488j277251b094178k226329l763107J475373c196472
14681b988917a219529M26527G8504g29719k57157o26451j024574p94738J06335
14672c326304A91943L307878J335366j715886j344366G73841K230060J376734
14664D380635K27339A991054K13797J893427f05179l177775j8672a417372L9147
14655a378225j718709k75306J006237n49904a224225j742250R28703M81844b86142
14645C556210K448590j572850l63605K196090l06028j377145j496285q04622p60363
14636A519992a669284q94525e11449C940686L176496J204706m039184j507698
14628B775006K472311k269895H26992J775411N37335B4474b783571k06206j611760
14619d601537N46963K3215k931339j332682J88868L046927K383934d18740B148561
14609B538436k0792a65387k795974j708534b163443f18898F02091K551071j553948
14600A599214c82856j418234L75602j692580J007861B792698J610053N38906j267950
14591C673707I42085a60786q9001j779213H1387K559671N75393j5547J385796
14582D586700K461240j186624o08253j129088K437835J726737B469587a66697
14573h06231n46088j799375Q74784g29166I45576K886227l15350b45206l523544
14564c768750n95213Q88614c92259A07419b891080J295309N7303A398648m35931
14555I62717a29920j39255F35163k39278f33734G08375K416215a23954m342028
14546d465982n275186j689893M461415K712862e36769B030310a387386k701998
14538d089384j09445J692589f53240B170555K537180j722713o71858J667668B26715
14528b642767g48490C276596J756307Q89993Q78710l057926A090278i90369a34743
14518B63866Q25748K076549K316371p14096j270496J99988K233633J922510k297135
14509E556938J061772K015884j238889J019049L884995K425573M908851O544615
14501B6178788Q498981J3706950K4815356M9013927J03485375J88002579J59337793
14494E73039749j13674182j90941076j13795952n9237386l1795798j9895028j0135575
14487C3564752p830008p687678k303172k018044j031639j170793J021927j09406
14479A2435939l132330l608467M73918p96411o27929M70287k377428a392944j13437
14470a506381F83943K161266P26778o08878K46521J59613R13256M70362j5125
14461D737736j286794J048944J153068K91910O48209O90640J426660l231958G68236
14451b878773a302015A556817L12592K110900N05955J668383Q77677j732859r9338
14442E200127N44303p26778A907762f33884k327233j053131k933656k696433j81624
14433i825961c714071I2572R41174a99020k020851f73918A269073M21023J24359
14424A814455F46155b165391p41915e10873A137648O62560L987159q45193A033167
14414c004663J142814D63334J220513a142219r17946O70473M63773G5932J102720
14405A178652M7654n06245M22955a451588P22501H11529I1143a767134J69137
14396a597997j124629j449927b017031a6472A762738N87441j3789E20039b096563
14386e159393l840817J228550b233672A119213a442883l15408b46219O3241H57352
14376B036167N66326a78729G08428K226192R13278A919561j84896J319589j214105
14367A840149l00485b61441k111187j035510j595263a776030b80873D86128K74251
14358G60379R94567A08731a865161c11802H85512C01351L163897J508676j775513
14349C198411K37521j050527a830241j173288j19453J433875p06696l79499J215893
14340a559409e94248p70365J32220J03769m86602e3070K6013A016123R63513l62940
14330A616696B079c272939L69559a131899H16434R29770j12197E19910b97211
14320b204206l11697n57919L37278L01938D30451J564778P75044C2784M62602
14311D95386J372585P70985M24369H8218a783864k797347j438237K967779j260646
14302d312315j243776f73736B389634h83868o396050J623516a642196L22349M00360
14293i19487E19652J874183p04583J583527q74824b160872n50571d24986C481194
14283C035330a66070j233061N72917l63212G88110L477099j178516P27369K964337
14274F778399J035367k994130F24260c75501A18486a794507j401648M02873i46745
14264b007014M68760k96414k247375q20933j900979K798064a179890A230077q5488
14255A144589a107077j177071a079209j242466g02870c16782D5320e29258F23821
14245g26524j133710h17743B652746K408773j688087a531083q77208j64539n56834
14236c129664o71802l015970Q41219a027861j263515q76170J98849G74775K922890
14227C697665l52357r22677J809378r34976f07775j519659k503934o58931J709611
14218c580688a619801J16324k36859e60333Q1080K710A824890R33929j143605
14209A615214N11208L585512P40034k14020m54858m39018j562050a17666r39516
14200a057182B082138J367575O03063L416484J056490k015803j059994j343719
14192D106234b383275j906405R85530a317291j062941j195047O0122L15090a595422
14182a432036k73387h52345O2869A126909a767897n30025J46987j071266L49344
14173b872857J303999L45918A582722p89672A1050P66536j31289J081793D33661
14163D77492K118452A001408a019239b31180l222151o35820b10670l68115n38684
14154a117469k607048k565060J967548a280170p78287Q20589A102318D52865j2048
14145D40817A38727J227977K075977q27607f30962A484154K812836l36005k25088
14136C735897o04342A562507L23333m71718D20835M56573a55181p28028j032328
14127a915537j183947a383456C06437K000187c42583k780802f14670C985126o58729
14118C326397n65815p79694O15099M609384n59550g50710j458869q30633j038229
14109d078441c5256I00389a099731M63075l05885m60651A113130L67433c801422
14099e717062a835219B228890P96416k79849l8595K85652A231269a135899K07409
14090i28490K98349D22944K927949r68576a411754j285867P94412O11335B84142
14080B437112K462860j247391E88014a891163L38325c04226C90192J680123l99338
14071A670977a208230j797333R32093g39106D70435K425027L434474k143960H39764
14061c869478j541809L9235J937091J237528N35247k042640P83201J282291M15874
14052a223460D38058L91679b347744r17416e23749I73031N20129A50916K111404
14043B262320l73872K16636L54674B62215a879571j536407R223p91547J750061
14034b448241f70275F73021L29040A22100a5461H51180J878688L543223O10985
14025F884076j875168A390057b176609k056062O7497a76093D77797L181384M073201
14016G732382Q68670m228367E72023a090356p65406m51799Q98023N10191d38521
14006B95739J97974A26341K079906K586547j344724q47358A221806i7579I67421
13996C104272L163843J41595k836647a16723E75417K644962Q45723K299008J178044
13987G543154j462530B900364j236111a841972j707467c91433A804707L14065
13979B118772j121K073018P16782m95742A604373Q77922J549730N09218B027036
13969f33505A979374J733803j05042l48049A327063a090429l490741j590726J802796
13960d369100a942479A271865J399011O01059J992738K668645M36127r25783l334152
13951D109510j725847P7062G2648O57976l45824l1073a36128A14451c28938A47515
13940b084320e75460B010440o985a954972l00788n21620j353873Q13808J087301
13931b230144K78727P48578a53376g698k498369k315393m30273K588256c04222
13921E41078H9213i26955A108678J789705Q10539l04110o52189j176574F1698
13911C01188b48425f7728B58134M88426J725744N37791A124932K235762K199371
13902E560065B172609I0082c6433j635032M07497I80044K044244N30958m27352
13893C127894g3126l970655m872280K111637d49459E56894I7600N53164J735897
13884B386661e30631l887755P86956K92093L41192N32539j072539J445139k166033
13875d259039j459279J714776a608909A465037J533978Q42950L98721O91003J045954
13866E977643j083673B13523c734910l69480j627662k631921J048035K262444
13858e053494j334829K870N24097k137276n803677f559060c49656A477258K234510
13849C711768J88926j295552O97864j449598a33728k550142Q1814J219402A624014
13839C495086k66190j424678K90349a18049j349792e29076j006053c29468B828111
13829A536668d28700q39421A449535Q36041J839690r56312q74247O95779k90612
13820B699874l972O40567p76180E213J505498Q33429K78825K260764B154344C87485
13809C270538J575298l20160n49446K680046m56071n36285L82188K201939k17228
13800H030819k165549k086142R07092N19077B549578A85425J732579J556808l92407
13791C082405J056870j180503E08221f00569k173278B37205L513905J553539J512885
13782F817534k517329a87281o85950B02853N23566K970197L427375J615191n98406
13773H140776B622279d99800j775438o45508k34279a520871f35939A24777g54660
13763a609798o61335j168470o80738r22013J688592B342281q28971a42842j619398
13754a762240k960734Q41842C87697K226778C54140a241745c34100i8471A053861
13744A058287P10056J411104j027188a700159j499792j191853j930471K254482
13736d067793J510974J022248d62147g6140j109577o81549j410077a521768A393414
13726A749718N09272a396647B32259R3066O42711L714266P35182k161232L56904
13717C613156P5072j479082q04224a829554p45925o65095k438735J620214a758000
13707b038512k010998a785372h38635o24454A295181J394286i14820j269831D90286
13697B491245M92175c54299r39015j44712d85519p2862j926716l13801A047419
13687A273064o19578K820449N391656j506049B06363a096138F81167J165663L41643
13678B188473L79976Q22218R69192j479472M73296a653875j573676N88664k212892
13669d851779J687047E06694e37496D02652b420810m48177l71990j403620L26111
13660d318486e90795D927657J53276f25140j006816P11119C89322N0100J142667
13651A582089D9005a590641K09390D47998J27255e36408r91187j165973r9961
13642b793529i60011j771418c26619D842440J4344l6020j641646C76712a643570
13632A43933g3735A01560J632872n56965J481579P97767p40924k96011j070415
13623A349463K263620k86944j197934B25473a222077k933617O69605a039463A268299
13613D024476j789063b582128n94013n83539n05784p1143K152742B241830P4454
13604B316284P21114H68196a748091j188458O24103H02404e2601k314955M90600
13595a876956c04305k34025k40553k528446j235339a352492o74812n79997a080981
13585d23600j170271l90936J88779K7853a65649j554736L74762f60960j015700
13576a676660F15440J425909E72744J37745L319123m81809j594045m47122c72024
13566f26829L01320C895620R51358A658181n27259k29225l06769K88201P88454
13557A671583G22293f59261C40436M82439k67224B45586L1760a678334k411431
13548d089765N24388j20580j390153J624087k829176l23409Q98885c71596G3971
13538a765693n38102J090385k31077C12974b07194o51025c5884o26553B80807
13528E5630h41940A062294M02881J289606J404964O31341A860382j6440P66260
13519B610202G93035a120840c82306B459224J795701j659361K73189K258797J300981
13510F428531j359407B130140h2663l098829o80199h39000C55314i77540A675535
13500B142523m8284J880682j58103K616452J99904k585012o96007J121921A138153
13490d414193r92478a648984c90767l89882k036967J112895k94763k318883r92313
13481e310680J977282R21125q23852j880456J101614R10425m96410f39157A61012
13471c090553k251399J231850C06122P43276C97287i6622A037252a733556m37826
13462b171382L10977F98694J116111d22497j762246j564387R47311m16690M07956
13453b810553f84274B795734J817799j077273r92886k34334C47280a329863J72698
13444a157165j378105k360656j118297q24318J627132K445824c22651B109831
13435C278041j062969m06757P36459M66942q55315a891547k756784J289451Q70116
13426b488764P82518f39185A571336m63463K94874c84576j636246l898576j06010
13417f025408K357392l43072J090344q34488J622754B118677J918606l1263D35266
13407a124907C33300J63155r8871J91675e59715p58857O57532i7973B478629n14274
13397A964355o25146B24075f21828a12399A851812P37395Q18128a073953l072386
13388d146339J418351E97109K591917L099762n70012j726369j217631q62875E73218
13378C93745O36856J991873K03856M9350L014144J942185k834524j693748K278513
13369E982250k043984H91893a62603B31162a055251k522296r45924a380037L79760
13360a000277k465200n3274A768308K458515k037325a0936m537374P11948J147266
13351b689096j222679M96500c65109G26685J105039J065886j290077M45482J727092
13342C780107R76770B151821F94285N247064J867034J348583q50433B414669f39988
13332G40546K440186P84384k17613o5018j682599F39805h41927j647719m42757
13323b932403n414017j262477K238252l06856J741103b673267c34403k795730
13315c130133l164532j489949n00861L161307K255985Q28692r89581k713234K88453
13306e453853J226511b091024K6687B283041J654222j104449J337232j467827
13298B702219J154552K302387j262207K375193J102370L62522C955737A879541
13289D177566Q90214B498022D61825a216207c2957G163K501077j17509p10790
13280A679941j3015j98761i83320b85781F51764a242298k256243L71521J353771
13271a773249g74879A507177p40572A40524b041904k172035j503217O01604Q86283
13262d229269M04862J064753N79506j260821k855015J651327J380733J152750
13254b111174L31206j052416k478456o83973a756227B06841M087974L402786k253802
13245E443799A655133a440442N78741j085755e41816R9524k825665j192620a788735
13235b392657c14741l762081L46256F33985N487921j916179A691946l05128L68188
13226A755006Q60974G44567l66947K964279A320685a519515k74966N23417r1574
13217a362638j083993M52326k26574R35314k112013j32518a715524l48014A306552
13207C484809K419280k509677I31826k86936a540077j624444L04066r50455C9195
13197C592976J096903J040993K577962o83607k406167A605147n07340J857069
13189B954876n24199I01365e12857C878a32410r29088A451780J421291k37289
13180B635782A42743J91167j43b489453a118736b31354k10653j943107O59579
13171a725535p97692n192732j971742K852782L123592A600612p13832J65621c894648
13161f101006k232537J060043K877382a70280K2518A314241J921008m50001j01062
13152B684186P8977K239832j765265h07042o95853P554A849256L232307L692052
13143H773615j944135j453502A424130d284784j163570K630380J297934j17608
13135a637648k654324J117526j083339l12340J446526A161886J958084j253357
13127A866613J587366m9642q678K070348j106011j85401k028893j040512K826447
13118C931637J275158r07922a96380k416247C35126B9971b732278a054767B854777
13108H23257a58453l252843k800177p053l1987o97252a690641E42998d8231r66732
13098a014963r22709m11477F73071j0350b088987j850357q68896K140822i89127
13088b14152A14530b942314k50623a385463j610194M10860B982222K861172n09558
13079E333836k001720A171281Q48790K744230j45530I42515b381069r11582a581414
13069F35235h16555j286314r86608J8182G81366K047096r0492J888462L26035
13060D952467K46497j587002j662833l34452J881098Q6762r48021a06842j05109
13051b11951q90436j042367A67162P03534D17181g44492k801789j575907J981016
13042c141172a248117b0589j658241j219445k60704l89455L57305r24923a690806
13032A701358J10265J570137F25716d493026R3332J475350o18877l799614n00163
13023g842998L141523f73253A428341n9342D27484a949398Q08124f9524B86031
13013B089322J151243K081192J245195k601310j307327j248343Q71393R27624
13005C208989B38945d041402b25002D536361j44829e588I4262O60180P08399C23827
12994d121146a441564C887168J992809J581177K700693M39428m048402B895110
12985a296339k314362J576086B247204M623148j445370B063760l97098A9739h8413
12975G02297M61535K173289j59393G44181J016489K601377N028488j893041l157901
12966D339593A607366N49323o77913c86306j4393L189k503039p56330i10916I35729
12955C18720a810711k509348a386714N19695B485428I67719c915459j819122K470087
12946c264494C43460J146214b03739j87026o48141B431300l70015c00375j002951
12937a303326M58414B28100b161803l351139K471182M05900j598928J194389i34557
12927A957834K490472m63927K38197j375725F93158Q44459P68013F06311J305861
12918A912172N39213a599322A01651Q71746A48076O39047d82977l160008j526188
12909e169173j694387c368855J293054p18636j426659J350524j418993O81892
12901c607673e91660A28056J425309K077483G96254a559725k748792Q83714A685753
12891C688853A769792p16982B51106a568224k35185o9139N15246j38177d67703
12881b147579k382579J93994R13130J36110a577670A940418p26225C13692N01898
12872H15590O37592J141145m48452C55571J371711K90729K124749L65038L88064
12863D895862n32653j352949j472987g13885j516512j05439h37780A535340m77203
12854A058137K95044g3074j831966k408335k624792P66021b708503J331368k4925
12845a402060e92049C863329K985959j721448j638868q24448K61561K846344j494781
12836D277648I30455D07324b257480k224562a209315B857744J414835j708924
12828B563655C14245J219098n56692a370095k287369j82424q19255j530406L94097
12819e795452O42319Q97429b003342d53428l879918j807300j090888J924099b395895
12809b515921a168462m87030j664799p73117N80008a673124j798244k264243p15287
12800f450898K040299l120733l506504M557698J854969k63495J367658Q5722j524587
12791d959871j278699j269924j221824L080929a016311B350951J735896R19389
12783E006236A565852E43508a348351e05560A853989J552163G56762c069949j276102
12774d346051J451543J214655g69253E09400J230071E25370a998189j894087j157766
12765e050042J171130e94880G52197c29967k327609N09914D46104c80742k842746
12756c223488l299639n06775L46693b140730c3189E75719b44450r38662j60671
12747a343783j140916m20836C5210J674662C79197a80776m95049n76746K4520
12738a228051L87985g323A769481K160903o54170J524221m13151j733574r83858
12729A669852J055168K558075n92546C35800h02543A179857J026654J97368a571432
12719b045635A370052J302996D06580h83616O3771L27883B214826j031511b715251
12709e504188O12800o46609R11652K193575L51022j26461B205242L396052K323918
12700G925212k331973G79638b028101l360636J439609J926642N54033A002290
12691A266684B10588M93276R17805K953072Q43576j098784j964678n88709K234735
12682D000881q0310j294703a01956r51089M47908B847093f31302l073497J034470
12673b670329c95572n41394k400291G69706K824768E43365f05510D14610J832529
12664B247139C88264L59372b73057j255807q14354a6193A753089a520023l08906
12655a828929Q43397j457332r53043L74342L90996k135376n67073J111273a706349
12645F76598Q33150K98362q72484P4707Q52871F57943b090194n39679c17296F73688
12634A428677J737953k63660k84439D33265a216650j022452c09706A24559a900342
12624b846868a059990A34086f24071q42569C17299P1026C6697e6801j71660B024328
12613a45m09010A725656J922683K065485k851285F31755J298036m65694B44455
12603D66361F6585a674953j322731f82213b87320C20870a178378k034880l5192
12594c248450a262886B214542J507299j618851K18936L017016l0375M57142P53086
12585F518795N95058l004606b097354l427007J707874n33742J959340M45392B231760
12575G251405K384435l185459k825346A263881A90146M08129J649806J596386
12567C844467k62642p29393o15458H8201a109136A184058E23131B21243K550067
12558B771310M03471J01023A404174a868487l013197p34524b459493E53204O43161
12549A196365h49857j378709i65722B326332P24524c81384r97484j2085j094974
12540b485927C7868J525179E40690J025121N35526J619696K256246J643608R06952
12531H527839p90379q54137j426247A947141c56163A440379l01599R16912K696275
12522D751967j246674a568227M59418B193182L039293O41224o56279j311248a123378
12512e360477J94723a707456M64365j922483k234362O08525e27847D61686J520418
12503A982104R508G03735f36248j533068K55641a48832k887963k727862b882127
12493A763991N96464M93565Q96272H92633h9933A436615L59804a377038j4034
12484a391072j97544k495913k086143J207198J901091m70969j720041k41092J915899
12475c578586a601035E78430K511066K156303B346993h53701G50190J712937q0296
12466B382831J285362n42009H06840F8715K207212K614985J548810q63021b017
12456d95374H10236b97992A351377n83075a550901d75156B756520L483859P7748
12447F318127o95515B540512m4907K93810H17799J58191J995047J598772q04889
12438C764920A824621l70822h48808b84489r38243C26979e22939j403667F34249
12428D789135J8471r48751J302502O45280B714762H92805C34246Q24466j07755
12419A050957a20386k365350j816065k79187b137568M44901h9462C724553L898022
12410G622575k194776B048065J338997K825289j415895q56157j323140E03975
12401c06300A377472a067312p18775b11318B661956G1691e166759b558741P39855
12392a818886q6018A353873J520226I80392C98533N10598h58116K9870n93525
12383a421771k301250j206550j382050K213515c24967C454732J360621j437878
12375C377475j08405L616590n47850k306883j578932e34990C93164L80432K669918
12366C443514K27104a747045j829420g15178j329762n82715r6394J245541O47449
12357h31059o44203B29224J807534j47232D87697a605844c88022E17126j36867
12348C80259K96384c35652j789580k279413k024942K629245N35275Q95201k06246
12339b576112L5244j51509A390397K191681Q19950A452286c32366j941590L64721
12330a909235a84655k859618j335251a488885B6380J419041K689052N41317K34681
12321D910471j932381N70781P39148p92020r11425M29286R03370n79983i94822
12311a703990A527051O231966k36022o92773J599772j254487k381218I77353b675737
12301e308424j261895L096604A055791K637827K38118P65930j680497j472189
12293A544980J182638J78279j290351i83157j055736l73804j27539J22128j117010
12284c535118k644308J750451d03526B80199a79594A399258a76829q21297c33331
12274a395681A752430K570592A773838m70926L171795M300753J155231k160725
12266G769966C375382A044785c76078p67844B159646J055954d60704k44174D33880
12256B123968K374889A989602i08565A257593K890212K54742f67007l999921R59672
12247c707256J662595Q72573b67395A489048p16466k87684K64894K270336J232584
12238D252712J27283B006582b146604n839303K73997K854364a406646A548981
12229E42538b015810B374979K800833B248119n16337K461073l82174j775427b197022
12219f116626J901331h36166A680663p04541J321237J017084A579905B24344O3255
12210B87599d93806j328948k428588k43870a700512B47786J326923L167131p1325
12201D670515O8149J493914j893043b16932m361676j606837k28069a011475C304920
12191E586458q9449B308355h27756J02952l424040j129519q94944J137614a755357
12181B035569O80260J988658k195665f61217a41135j697340r80263o95290A043403
12171E950710q13653B234579b38388r54856I15894l56141e71051j328067b56426
12161C01625g1813l852456a600640B906433K327816r22620A981333d1556j719556
12152a761112m27833A327147J731261P87833j50703C91013a436327A602420J827452
12143C429872B71369q8270N45878a100840k114651J250842B88149a241554k778578
12134d020132J021317i95386C25552K819223J704417r77609n47625J354849K484441
12125G163248l540700o54920L44452a167591m735973Q88110A232151K530817o27365
12116C135603A8763a925627j178041P59759Q70633f95881j309288l228865j334611
12107f568645J774464J386357j170277J505230p17199a003732K55444q93074j690452
12098c331814k836347k27316K850622J82714k871762K990166h4687j168804k005954
12089c259445J213407b57402A36356J77518c06437k900050n56186j45891q01604
12080d710168M61962a779758D85492j11226P6389d06973p91151M39846B323115
12070C306246j259650J228678r51028J327358J905394B695941J220749P86757
12062D703447A177059a927343g55969A663481l38861b881410o50067a657250A032106
12052C209044A489844a054310H40807A09782O07387a408915l267798K206454H25826
12042D464597J06497j915159d55898k076712f34153a26136B527649k56822G6707
12032D122592L071860L48607N16124k261017B143196r82607q5609K854922J969500
12023E899402Q4992j686830A075194j66322K222305J56905k8242o15484J29193
12014B773549j50693a017819k095179j210843a077258F64882J046889p62461K356539
12005C305849M166634k874680I54601a28607A144318g35131r34924A232736b64957
11995A297248m65016b90288C000722J564080A336634c472127l271215a871259
11986E12132h18378l64357A472850J381431j399346h99266j743630j305850a777390
11976A17428N212685K63738r78712a109306l282028j405131a937590e69032K65770
11967c03262G49277c071519j314708J666246A57203J273431J001419I93908a520293
11957c595880j316204b373176N42878j339114K06849j684244R20278L29792c75681
11947b88150k6074O7067n39351j383736j152850k8927O68654l71529N79801B293756
11936D301035K516430P12087L49693K030272j479448l192897A769570f29790F58519
11926E40529K46481P90386f47359A766442a906501l552190J117863K049541G75180
11916A622332f18663b67019B203231Q44067j419592g39108j703391e48962k75524
11907h24486m716516j258831J075565K048965a334324c77403j56084m56961K92915
11898f97533k54431l193259r31277j696601Q42425K415508a439619f07702m56170
11889a063872o42941r93402J251536B109754J313793E95256c485625k984105L012756
11880c456974h35293N7703q02238n61433P93430C882633J87234j126770j238456
11871A704641a794733j810670J708337j740082j729097j801468J040313j362972
11863g490372L200611A935087K518295q27449j001433d71273j758938J080195
11855a150016L71487p41204k357941j169835k7454b227852j78296l103384J971981
11846c537551f60719o16765r2280F91740M67341B96339N67673J543328K48791
11837B656131m3057J357878K06086L62094A913763a256335j212992r52644a96461
11827b651899k363122j054527K582112J324673A41760a8559j570340m14843o06314
11818b610056M13152j043978J093467I36172J531440k16574j102961K49700l80044
11809A017733K468632O092686O45630k480201k433136J0972j973386h0317G04340
11799A326358K037757R9365a273277n711773o86805c449398B908890J947808o74136
11790D182562p79216A388909b597918j112596J525022a06202A225595a71204j790992
11781a962196M9952D09011j93858N05815e36264A277577M479848J01918B612361
11771D60383N91087K048052j234835q52990F3808J571555n00594a049293L24662
11762g24631I31732J037652c89665k670252k81996a555791A548484K567375L16042
11753D431901A694661P09580J770169G87147a74914J1979k453595k96923J318192
11744a595261l245772O48169J749779g49894I20963K67537a006753E26445J996930
11735B523375D63496O55817a537320j133537c73942A721371R03346A073629K29092
11726A302721J441174o48404a056203k906902j957258a271970A294702J773394
11718C068096K084767q38295j310172q24153C90363g89257l15054m16236F8653
11708A298536M1085D18427a641580f32316q85043k85598L08735c67242m57180
11699h24422D53871j9988b135998Q7191P03952j696895j397622q38792j953910
11690g232074K983561a797003j481492N14724d57290B79885K3342a063950H71046
11680I14554C88400h79484j368921k456767K20095J036880j825159j446870b115071
11670c28383B064840K812731O39355j483824A876949a807979q69047J253414A385963
11660A345975i64345k083199m18363J422733E69916f86191m95332a32727A697882
11650C941295m6931K51573j798962d61109j743846c00521B183132E56266b644975
11640d232647L2634J22136j842032m91106L191182Q29233b19919b7498B251627
11630C406002G64721a45409A192801c45547B18359b986333o10509q15406J389181
11621c023067Q35862p75116P29498D62996J932399K603870R050N26542j718456
11612C816401n79912J411823J9252B207479A025705K442796o42988H79337O23157
11603A502494J178249o61386J079427J695041n27791A093179h47976k473232k48144
11594c569352N48413N66672A076091M951185J176639j888224A918384C56835b167437
11584c218566Q83372n07683k609361q88510K788651p88353l265896j277455R72452
11575g911349L695603a341554l30039j300038R40212A569879P17574L63419A181096
11565B39355J930087K185835n63553n84124A387656J192205K534566o13656A656678
11555B851666M571061J619454p71102k651687A723974G31078h6885j881240l54319
11546b322444i33069n88320q94933K07646K0063M70741I90530J66936g01642j388112
11536b089754j813835J337801F08308L64139j80451m8951B7638b097741e49572
11526G62152k85954c008249j593670J026068A042023i84948l594362l31971m06588
11517e317869J215836K61119k01063a095397A051255a602312q83527A011965J264802
11508B276767l45559R41564o01931m89522P47581o22926D24293k8515b908531
11498e350778J288405Q48719g89332B056940J087125f28431q51133O61255c82550
11488B730183K049499P33373J276083A251857f80359j848979J040984A946462
11479E87749c946869k148218K917186d54393B380928J214602B34529d507616n99975
11470e107591a572210P67784k522220a165562B573875q93894e12624k256286M94492
11461b274418J057287c51548G26545J035703n70619n91519K078138q91615o10057
11452A176576K036793N88627j75015n72391j83515A227917J273688j95912g72924
11442d111788m75446a363903c45147H10867b82127j390729j454732f14734F15048
11432G3002a817517m166187K909870C20545N29770a405274k963914M24765p98364
11423d742787J104497l12473j173543K525180A403309J636838k28513I26144b754049
11413b533351j79199l16110k04026C066352L087755k555796E19013g66816k081519
11404b848335J18601D20408K993354M225107j085311B930983d31092l001200a638682
11394B152409L674208m77854k55239j164473J65401J131871Q2347k377618L87541
11385C318593J456918K477302j359784r26894J220223A093318c262719q65184
11377d127903L50727a4515B081228K710116J661942k781443A494666c40814K1913
11368c18901J33962A877836n40894n21124J436086H81544l79268b455927k413353
11359d869280b294657H76689M071821J490546k890675b40559k844991R86787B752348
11349C878940A519840a068232l42386L24206k963846k531322n89502N50313K59614
11340f361155j52036j056100L631813O8031J360829f7853A924204M05417F38003
11330A420207J01489a830665l862796b570633D19470L89334k55913L117111o05810
11321C064192l25019H69881a646037o77120j727611r34405O70900a318419A642021
11311A464805F99117K64421K329799q90367D66586a781763a70227E8063J767604
11302A825667p78670c205625l339682K094045a259302e42500G65264J331186q18126
11293A278324Q57272J312701j622952d97988j944565k212979k41904b413814G92825
11283D45302J318381L86044G56286Q29442l84646n18917d45686J62602j266689
11274a549773j637896d73660D28558O80308M565098L812357J838567k898269C953061
11264C007726D460J581924L045985j07865m38076N26624n90403A629006e43328
11254c251883j90403h63983A122259l79925h67506j318725M04749B280636K845235
11245E125871J711968j931540a59114j825025q54976O68592j93902k201431q53299
11236e419155K73650l80927j246889j297826L927349E36332L31025K054639J535385
11227D457381A283553f588761j491336L601481A10550K239414j90535c333378
11218g351861K75547j20839P33415J175339k945328p51169K031678K348009R36520
11209c668689J280622d15509j311615A693484J536390G60990c025443j037016
11201d062459j244437k664912J59782J408372J292101J656199a137367G68591
11192B334780j080313b523753l519887J027270J508529m161717j659118L623072
11184e705604J168255k092306J15410J590825a591091c24518B423M51258L16047
11175G69728L154228p18956j380683N03991q38934E30189a35203B18280L20565
11166E38845a349976K97693b11018A262943j72091h62754r61022J10552A249589
11156D542400K390664J61143A177526b387638A139976L016323k004087C86746
11147G03949M50391m47838Q47235E39575b77491m40401B094208o35338C94690
11137b223421j5413i12427E93748K873906K768285r51604k099655M21499K719323
11128F325502q0431k878686j155474R29479r53762n41343B67132b385883l823363
11119f209246b471423A109498R08234K098027p46485A301239A94703J677620F77715
11109d339682n950916K17878L543136b84696A174951J386667M488418J689392
11101H739428k393091l047846H34654J08728M3862J311423r03888O7197K155398
11092C617374A664875B52521c0106k627854A354551J334997Q53420J483085k64112
11083D761941J148739M30104J981103k772242A711824B94936N57552K82984J757903
11074B893375A444135C05293P41898h24548L40201J95941j103825B64103g55230
11064c238985J302152B796270M059360C156441d3636l290939f75591B872828m77502
11055B395326m87697a115198k316861R84223R49127D37175b09890j401158A53028
11045C235908L420334j225586Q71501j367101J53371j267916A268059c26059m14420
11036g40479j662476P43332f75805D159125A452786a189512B36154a703932j370727
11027c074659a287639k36843L24885n16159l60260A448267J025544B81020R96652
11018A277672a708499k09784l49233r52230d34963B742949K275786M79929j90094
11009E308570j740522p35626q34515q14787F3510J84102a154525A8111K766995
11000B785106N89277A680241c17822k017348G31423K069340F55503J091602q15776
10991I31329c247625c91416C2606a580232K06732M97219C024031J395596F45418
10981b479158l040170J485955a551140k129125k758810b601760A377200J739415
10973C116615A433005c98000A310099L309813L802M02145O63302j164430j510693
10964C014038D27896g91591C585980M181205j210358C034621C22497K014600K393486
10955D730583l69962A205199b127533f02068j03029j484941f24734B071860o55590
10946A416270K75337k92100F06714b64610k48659A293098M212394J265374k965001
10937C805865J098218L762746l539232j989135q92144P37060J038429Q53635b64417
10927b689792M9859J66031l816289l012630M030053a772789j577923a427818A182277
10917E56198b431942m064626J082017K118026j162816K067329F14833c77996j740943
10908b118939j107953J384532I53973O96651A45451f76598D99605K197935j198232
10899A499308b203052L11011P75227D84721L894994M98364j338630j345538o63677
10890A530234K343516l2401r50436J928887j169322J641967j447133p56843L455933
10881F544402j63300k930531g46597j053738E72389a133614q75859j078580R5298
10872b992755J102474n19449m02193g98201b56075r46646j07975k024985l125621
10863f461302j331851k67823o11054k459612p88922K601018J626992R76794K669255
10854d046505A03288J71862d49654j971775J122535m38197o93491m43796B41134
10844E817553o00463C33667b906938J405412b04960D57368K366865C69721a562631
10834a942972d74600j139989c91320p2504p40125M61392c40334m29901m81287
10825a251522e08994A247620J494686e49842k668560J166515B21559e51179j863879
10816b415058r57885m64577A37297L296501o380P98288J644329k169753j119457
10807B580825m0446a041732o07575A900212J19669a20145j530812k889783M8449
10798d492291J126068n73259j479373r61388k546255c813002g73185j097125j789370
10789c659680q31729p16462J511692J817735j444713a359106b22206k17627j774122
10780b213955p35582j48307j126807J523626A861610j13891A71299c92673k362994
10771b755667k400162J75881d91594I15249a36372B360875J641430q80541j269000
10762A852764Q30693o5744j079012a638825k379845r49508r8258b361347I55700
10752E5020a77429A555062o94671K207259N413289J464453m601815a267954k894064
10743d162018J748346B746791J461175l41114J127907j929176j380206A46773
10734b910901g71703E62854J135688L034015A957276a686507c28827B029561j30126
10725A899435r4455e43910j752257o6799j201459J434870A279845L016583L69684
10716D666112A881266e39093a24704B771015j52338k7873J518081j538444a757983
10706a608261A454461e2302j122318n8406l577149l191250J864261b317465L4934
10697b282531k136674J178406j359457k115267P06325a414331A762151J251461
10689C013612a15360A016274Q38922a481869o11860n70117k007867i50952A948945
10679D66843d57419b05976C29863J310779M464972k396540E88496J224783J633660
10670C446939J228562J962203m7391j845404n45203k012427r56161B51377K20367
10661D71744q3619Q62643P66369R16429J58547q23854K77096O30105n93865J55596
10651B737191k23569M3852h11609j265918N14579r18169k182897q05546K385163
10642c084397M26023l661526K536861i48550A76362b068478l230948K331919D608842
10632F862059l77185k068411A408046b022168j01585b66667k239040J076202l71904
10623a801409k335786J798275C78866a129726p4382A898906J376639A465388c50003
10613a958731N2881k72217j436833j445125J115081L01047J731303G5946J62481
10604B38427P75498J28105O12117K20263J8525K768527B324172a0087m99727C22365
10593e47304B03380b145670P20889G96256N639523J650079j986519A556662B01839
10583B357966M99497N56721n81464E3965J513032K12726c285403k307740K725175
10574b867968l378451j38007K222135a758409I47067P07436b025231j413876h47486
10564A007812c35361l253826j081555J419956a266548l116973r22069j723821
10556g029411K896805a048676N8642A518099Q14575q64515a410628q47126d3937
10546A235903R58086J211320J16599J22689H61242g75577B136133e32748k01034
10537g33782k07876C48555g55453Q2653B928750J150513G79373i17844D41397
10527A038128c22484k210247j416023a754274b24045D416101A661931K99803K588507
10518D550241k95495j3783j79411j933575R83547O67983j343537O05863n11914
10509B529919g551B98298a688295k800044n91613j774499K021021j70646l993
10500e008069a335869A057979B55484b792882n60667J238219P09468p543A440961
10490H16540l97000b280853J15725i61248B550994K060218p65611l85679E44705
10480D7194e56830n8592l88814C60517c45770j994731i92943A604063M58113a64959
10469a859468M61769j187039J233454j479833P37504j354702m37169p1346P85847
10460c170983j279621M9287J086042k555084o94948J329485P58722a052639j95985
10451a248624j287837r86450M66015J87032M13897J48372k483785o31306d95862
10441I30050L95562K748371K334509k2212C151871i69144r89767h12206E7392
10431c274878k364390j009258J368374b471924l83995M25700P55840j28927h06419
10421d35412k008954n37320j714155a427543b3203n47578r36873e12359B959724
10411B226914a019300j014028K07800K96770B478086r7426h80253k223345j381396
10402d484994n26250R12919a525913l749160L63758a617409A432929C69616J51237
10393E20853B0533a842445r34506l423774j817129J961555R89771j797931J287148
10384e577311a488033D23855J298108K811017l63611j189744J486464j672707
10376B793382A068696g36759B944768A115584b585380j80159N6977k41438l6007
10367b986007P87433f43497A872860M97230d64843n488931K350172i95643B5837
10357C572P48889B32930b015106K95582N02342I05383J528349p28331l60803G6186
10346A347159a503290k530487i22009b60986H1004b461446j88596B958219M59569
10337C417788K23118L01780A366776P97584P6636A67076J726631K426418j116001
10328C204124i41287m190569K390920B514532L033353L670919l113705k123996
10320C981103L200315o88210L37639O83625j677737A555186a356797L75082J16622
10311h65093A451378J095914o80740O73279n23447l16638p86419P1952M847756
10302E833035J323283A836959q29865J313241K920548K222063k590512m66053
10294D406381J480229B568621j224776K605069L528395r38547m74979B489162
10285A055490J300244n74262j23955J100365O64700O09607c39505m324402q33097
10276e497004J239139o77187J415742a106247A988007J598181A331685i407A281738
10266H07598c206601j449820O99526j746019K523189k74737a401241A737785K366441
10257D104226j276426f93761l735524m69018j450608J0802g55623I83806g0713
10247a415325K88848b64294A168329j64657J840749L74924j386555k10521j99407
10238A422862A83110c057622j15708f6240H34106a811115l248295J233570E0267
10228A675884a564191f26499A722923C35241M39815K533282p19072G74428f98644
10218b99654B20434O61983R40579K489892R03647r52801j39659N80718j783209
10209B921584j399213l57931J847804R5466j423808D08007K52790N38069g17124
10199a508052F41744L258197j720750J59605J608746r47872j268560C1212a210684
10189C71309n0342a178915m292117m392081J033370J989545J826748b449573n22409
10180b971982o2374A26777R83236K3973O69582J584790k56517k48136k1115A271516
10169d08633e6889A283045K28124d07592B96412j41768O74834b333132l202661
10160e535793J479208F27361K317907H13460d280703N92832E31155L213905F22079
10150a518931j163654O98593O31084I85847J182823b39571B095304M273205L01688
10141F670197k676501F76440b40185L9646j477205P73838D47347i18404j813499
10132b731903A017671J007035b055871L84075M7404D82471K036861d41798r83719
10123a425517N97711l95197M89440Q1685B401084J347334j77341n73461o82624
10114B314992p29933L73530K588675m96045E40294i61945l838177K59154p7952
10105d618920J566732a199255j426248j407371a616835E93149M854999J931892
10097G380040J17986R94500l310254j899538q22746g23084j436274B29065J329027
10088A558092D28676N24641a585959k497411Q48799d04177C662768K200862j172465
10079D691165A587373C8970M91731M21189J144217M2892e87870a70591E86191
10069A451039n0198J362107M724040K734748l641260l135185o39830n07525R72074
10060C270010J685910M35360J85338O93867k348731p05998m2431p9096Q39281
10051C933510n41476r19930F59604b226313j43221b20142j134565K19087B066285
10041B965221k03360J245906J0953G91680e18023j383550j039439R71533f77114
10031b615512K33181e51050A801522k76232h05753J37912A29659N27833L028381
10022C685873N37022q32259A311754d561180j698773L00556J073445R79200J375074
10013b531678a227118k157414o96006K94425R59908a337714A731744Q76099M03537
10004C011380A417581K27006L141433N3879j706234a179324k636859J100071M95730
9995b220382l40426J11798L01727j580244J642984D761136o32486k64288p16236
9986C148126j336238f1688l186882k935901Q42482K257937f38717p47933J0510
9977a376140k932822j531369J996277O93476h5463D168067O6309A505705g14229
9967c051165o39872f66320G32350f38590m698383m080069K314359K46692J449147
9958e406844O84908r31973j248341P72895J013611b256216B269275N63690j311623
9949A521342e97975j658940k51623l20482j92412j838149j359711K629848B819598
9939F083746r45237L759753j934541j392120n03097r90457P43459K106383C408769
9929H92027K120224o76272A008232C3582L764055B87261a645250m9809j105400
9920b800459J74604J059196a24258G22684R52015N90867J238852P62337A672880
9910B023781M90929L72008J295343O00480J902764j457689k167557K481440K538698
9901H080197l28935j676067A48967a437807H15902E6697f14305F36688R93123
9892A629811K81317l09494B08403L75736a66248I96034J640485C78206a25612
9882A264066K059885L55597A587540H5663d25630k67480n70134k207190n56010
9873d026444O25512j268935J370169a97805A718433A70609e57490l637762l112666
9864g307918b280089A233325n17108b598023k33090O79418J029097A722345K35549
9855A957894L58651A102056c48010j418633r06701a163738O1191d99726A067662
9845B687983H2634J74596K227235N95117A391849F05065O38735b58142l108686
9836c366828q1553i64230H11460c473101l708030j621849L694067a512007B625457
9826B614823M47477A216664n65272a487974H4161K241895D0424a039571K84981
9817g54590k056927m096162J015065k3074j279324J393490K756268j250528j262871
9808e558653K689164C183827A583870C2610h18506C8222J202312J691595Q12430
9799C744559j234443L138672Q5019k731985D54390a789068j199030b00231G85150
9789A164358J678364L84818A180024R96863q52956k77693B2628P91700K450432
9780C264760N87993P54566j418599J349543m38914A19843i2807l481144h47294
9770A904299B32556O49612R19351L60882R8927O96675j180248H77356l73500K392129
9760B895985J761013K272923k69745A712297g84486n2176k690213m76335Q45817
9751c157393j282414l88467J319809A299257K794594Q017L76112j369586A215379
9741A75788Q24184B35343J025478J048428J205529N36226q48409m45722M61225
9732C218098O95764j344707A25150a378199B4457K5153c59122n80077J52139b52999
9721A056986K696662Q23591k68637A786844k47197j26049m47049i38767l78665
9712a317432B414807N98199a488773C23687L729100J924035J23832B097677a015650
9702b112490l28659m38579o90691a142200B167222j9471J512445L122973j188541
9693E594628k627736j409144b62752p42463j974746j177326j110161K192284J165677
9684a909487n09337G33183Q96071E44576h04943k525409R04377j575861K82338
9675c719498O84157N38102j111980L5756o87453R90217j048322J903579d95487
9665a007495b32966j710600K15206M50627r72286k57918j424421L85078o66370
9656d213650j256497M59462q7642j165490K374655a062087B395562K242377q07027
9647C830912j245787A277467A49023N31240B4835c88477o9206J04802F49253L05781
9637I55034b17942o10330B181937M59295k8510A133567a069426A67651J47606
9628C15257b225305k1715Q67785N66203k485734j158410M76128k881149J740662
9619e121535a027991B220526r76076K229537p29538D45937g08793r80647d51540
9609D45600K29791a972876o73570A492471K502896q43710j375250A5962c998049
9599c587375B7338M67945A03563a294508m716100K882519A804182L058096A837997
9589a518437n62747j553362j99845i24681H67547m07208d83870j059222N13630
9580a029462l16412A331890k58751E06462K414110a00926l341305k088884K180400
9571c350715B037154Q3450a642467j801151J523451c3272A799734a112330k745235
9562c857565q37851O05414M21303J832508b56168j19230C343776Q54569j022340
9553C176005A283613a096873j165574B0635J990106d6571p83642k098727j476662
9544d405602j718455k511016J054629K280655a331386m30885k269879n47139a710021
9534D36766E3645h9639A119772b83580j535311g72852E822395q09176A756143
9524b333802l915533R92899k5845J678638a097506M30526k724127J582208P53700
9515a055199A791884M416351o97308B171550B47386a825560d50006N841l834766
9506d278931a067673B806225L551308J419977k578763k574697Q47230J067078
9498D538358J077262J489207k517583j986681M77964q11168F82301J607923r53595
9489A336629N62029L986265k274510A183873F4426J059648m26136a318131k830098
9480d148229j973727M71156K523553Q50442H86569L410405L07645k288510k7818
9471B288291G85316C43404a597532m59454R10920D53391J662595n81530e64971
9461h91866A084867f49631k722782k694034M56766K150130R3440A79189f29374
9451a442635p76088M83930P26752d60943H01072a273153A81944J437989J473317
9442C093250L98733Q85813j71618j605123j141629e44341o67598C95779b375797
9432e007118K493823j81962a128230C353033K671855k161539A826630g8182B31960
9422A423596k54136A60929a390695l53916m21601R52697L21453l33967A506233
9412A412330J247172m47393p64324R16206L213637j259655m54454r94088j230679
9403A638752K142415k09831J30388O97009j016669q17754H10118g33467j565301
9394b298768k042100J06541N99145a558889A63236a037451k352773j614003P63525
9385d240702M28609J03964J525074d32375j340802j709786j946764N26247b3649
9375B607448H03859e94983b90843j559847D34722C5773a331111n17852k19142
9366b068105A081299J056939b592037k012726Q85485f48087F32510P15813L865534
9357E213857O43017p97430j88248k343427r99019e66752j312682j275076O68561
9348b485949a116875C03996h24569c16717B564605O80786k39396k47343A014109
9338A385671J646429k97655E53165a256301b73697C17312K727186j033941a325907
9328c810964m98347J937928F85582J755468j94506A051351M09008L79747N3773
9319A893879H74644a102960j809648r904j329149j099171J223001a533523f0630
9309d180074R60279G81948L551672j714141J21610l73952E15920J837479Q56540
9300C209939O9666j528196A55539R32715B23517g06375q0783j930927k999968
9291e718053k941733L766963K445841j070416J247077b62466j417839K92076e70556
9281c36146k449097N2825j331347P14320L64750J81960k482780m07532N39483
9272e153564a953039l91977k810530n1182a208048C80787J391402F09773a805351
9262d610021k694196k130538o4328L504733J366564j899794n143848l303695n66335
9253a5541458m354863m873895n909457j3347698k2920161m8519321j08286999
9246b23753852j88199072m3681093J83562572J28514510N7892962L2361163J6906949
9239c6395861P834697Q500435K169464J118168O237089M357865k31195O56711
9231e752627J179194j121587n84305O62984P18786R0556P67806J526095P12359
9222a800739F34054m0460e022595m118227M99955d178300D30913a02010p69012
9213h71022A50537J09402a546962m048098b366552m90499k017296m68240K23366
9204e119221R28051J825969D4545N186197A450526b749159n47044R54191d99900
9194C85417J670255J723664j158080J764650L05623p36936j066314o38792b385267
9184a263069I88405A46047O28073A18466f37134A633202r3450k68804J075745
9175B346693b035702k49295e46569B164974J077530J454367j15787A165638a400614
9165B282803I01755b166665R1453L46015N08594j769456j427536O72672a712050
9155A86629M24534k11332f83203n32180m500760o45592K695402J197816G04784
9145E07357a309400E72561J004800a329010k724989j063796l73918a428882m85905
9136a914787q90966J350769p9237j820473j518128b268277B725607J635872B09544
9126b775362J052594J3567a76316j225270A101757J308188J848518j727029a564382
9116a444086b84709j383333j39244C99687L241813a031599l60242c14403l876416
9107d190819j926419K633343b02228B927695o63385A42760h45551a93815E089696
9097E482953j829798o50673J513370K369323j680403G67942c726017J33027C48509
9087H35955b76017A693742K204931Q13774d10733H86079J732811A206962n43798
9078F63164K090061L569260L97896k449630j143233q8D83517a715948e86689k15759
9068h02448k072579D54851g29818j464429j661032p65446L77248J516883k95665
9059c022259j392729K16345a556946F16127b155088m17939a122054A328831J889735
9050C218566m3356j50175J05275H08230b950345e22007E279836l541A594082b089195
9039f024072J364543J278916M32342l47292m80332k77963a457905k79855p193519
9030h931279q26719K412308K611682J717897J086104P70565c79775m19436B170048
9020C399004A650135d024901O34086C354049J340589B098403M56840N96842J221366
9011D373451A942580k73843Q25326M42819k91802A206058c28226F80520Q3072
9002G63592b702940O74686J0205j514229L23850j260131m61185a20683l77644
8993d98327j043360l25549A308079J209499J897246j318775H2340i65573l58679
8984a324252a8155j309667A726974a295974j705333a365309j913733q39724A236446
8974D2891f675718j710874J962872k981448l44575L892254J887168a584647j775620
8965c360267j752787K481009P30429j049211N40459J014086E86972K996420q76864
8956B706528L53925J94790j154197N18769M21622J060194j139364I75416L13220
8947A288636F28507N44080K565938Q90826C98773h70173k104806j547055J207966
8938c314068J184884J89594k580909k476244p3690K256314r4640b117775B688046
8928d267134o764296l922977Q78794K984198N98379L991059a633625b88170l04731
8919e92901B087263J153790N8036E35372J904376j39596P2450N46605p52756k08122
8909A958329l10542j24060R5880a169203a24620B731495j96145b85979o46551
8900i32530c44190q93134k260674p59677J533116J248463A483161R74321L587435
8891F044917J03903j552823j022134c084752M00929C12274f63861M2470A337366
8881a919597l402584a079294E65241J109794j02467I5532b425533j825199Q80638
8872c370094r57813L33506a595959C927925j656363b247280q88279P80194q81212
8863c236577K10683Q07795Q47077B632400o40375A36807K629654l07082p12544
8854A746835o78324N13078A41046c706540k338489K551834a601159j187088j186848
8845c975095J237980c91519B02931a479597k350550J788503o8367P3625A578581
8835A381883a079356L1643C742731K694272B990659b505760k847153O48551L46970
8826d357392b055688r25890g21867G86838d51918j211459r42137O29219A384011
8816C524472Q73916J744561l89224B801255a684380N88803A547402L457833K514318
8807G519553o53141k918065A122786L83078f4036l742357n50895d63635b1482
8797b025376d13779A976358K214742I10301d57117j515157k286924K76296J051600
8788b931302l45760P54216K71951N63243H13764J424189Q78634H3399P92505J088631
8778A964535P41351J043733A620642a313913j763904L94330j757550k365710j92339
8769f999086J823825J82918J862668j534314l350546J287956L056790P46918j851275
8760d774146P84072i67071A601245k61880F2738K03351J597903P81377E31785
8750g57599j048979B060452n90878B89841K72267b180696j680050R89374A415042
8740C141200K196521R48105A141890h13699j582081j287786J002127N43296e73803
8730A986289b055557l554607q960j963173K27671J747205J562981a443206A057579
8720A768105D56083j24321a047797j641667o43140J324329g89229j160404m54565
8711b404198q5998Q66705O37999l29342E73417J810815p3606a240492l023751
8702d264243d48498B322339j126150j89866J544976K49546p90533l76674B41125
8692A65845K101217K306536k134625A064532O33573Q9962J71069J567673K812232
8683F339041J593164N11382k741434j222283B037330p61176m66315L994760M25392
8674E229991j496391A571592J496817r64969b215779R4845d6873j198236d96088
8664a707878n73954Q99916c9710j749091m13534M15934m699869j166039O75996
8655f976313M75353J945392P48400Q23042a005420A595986o68975k16921d3169
8645b059461p64068r01584q74011a562112L82786N10366l53890r71704q77814
8636b872368j37471j800908j647589J223077L26904j919183J773947B96891J70280
8627D67171L95020a010304C28499K64892K970114L437234l151112a260390m184813
8618e445203k090253P07506b600947a139742j473799k823661m70064a590681D05021
8608b080846C277062J439489P14382J789554J982508j881889j659761j289070
8600D372275J740070j816011A95762N9083J655034J683631P22189L86544A775285
8590h70138b89509H13418K862794r29972l83780p28126m31526J451275J46992
8581B801075C24765a776978A372553Q47916f34325j138183P39769A02408K870194
8572B972602L814888o1167K173854o25071r82508j344420M44983j553037j444682
8563C395442k72577A044221b163691j471307a399132e27406j455453N46612a04133
8553H36093r2274C15122N07643B80939a016623k37778L09034A225750g25666l137097
8543c862763k52848P12636L98849d1697A634223J80171Q50273A16762a466229
8533i81959E99343A23206J003811J894779L9299G08241p404J712218K583431L92073
8523E388559k339048A420100D77460K181906K941624l72066B276421a549230a01347
8513B197142L326489M00965B935769D47639b337262p2642j971794J309907o97178
8504c768969r18957J489707J289601L95370j716893C84240J721461a37972m183601
8495d321573r01620M86907m2199J849594A88573K67658h22826p75342l456505
8486e054673k760474l78573J512429n43490b726309e35415j429130D30007J481169
8477A911176K319841A101537a419587m256798p05827b685245a91404B722108J126375
8468C848483j24531J107387J003845p73841B450237G75734J928289A288710a44166
8458e32798j254523k716295M62340j128263m5301J942286a167904F26687J33163
8449G59850e74934l163883R70980B595543J595375j208333A410734l46539q0854
8440I83341R1404P67151a241540N35387k305185k327083o7261j728423n299843
8431a2433948J472386M135333K571428c55465B420597l64059r93817O29288R53160
8422B645169J564142A883244e58353k496045k305974j56096J570782n10491b060997
8412b36835q51954N34370C47544b41415l737563k332613M98043b352365B738653
8402G22228b34492o21162p82904I96041M185007m86541A676051O03193M532333
8393F811577J189391j788040j940593F44597a664953L45344J66456j068715j492181
8384c714049a032435B83701b361809j850044O98639J308522A447117J572319A196616
8374A729719J682678C49048b459350j94968I25208L002219j094204j0925m80098
8365B342200h66938p49336k316046j119593K288034a180920I86730K472348q91436
8356B567642a38799m067232q11014j267388O08025J799422a729265O79629o82449
8347a732085O60599A847945b50193k509982i39813p44642j759711N90320L48797
8338b505049o21300N93661e21663E88873A80861C9267K845932o0703p09881m44453
8328A670162J214759J576163A485912c73211j174915e93125k065988O44793A97395
8318a054610b20225A590234M89221D51366d49381n88915o91037d84986A064123
8308A221537b30213G77645a156416l161109K074758A462322E940g94040j214388
8299b008428m451030l647339J843843L1295j61823J751265M69658N64812K335139
8290c272608k5842L19548a087261K45891j046603J14394O68840C40356N64641
8281I04997L329360J316408B471476r91266b958168j734492J201154g5453j173000
8272a248453J32640c1035E39577L054850A701856i15293k690538j433941J68231
8263d871541d71015C524295K273358j597967A794879a651627j499204f23614j04779
8254g28393c7413C868199J541363J324963J086727k027952k382077l33828J470514
8245D547909Q6328k223903j24333p11790a336796j041801a015778j296643r09918
8236c222339k084060b110471B879414m49395p06244m56998M02424J070166A349094
8226G84367Q62769a058006k825252a555790E96477f57868A252048N96147b651735
8216d372397b93133B94753a473041d27900C146500F52543a403514j54686k529575
8207d087775L63186J304673i65232k024653Q89661K38024l559034j315638L194752
8198c542120J340601i99996L61990j037573g48815f108m80126l485540k23592
8189d195366a216812B183366N08171A89160h14364I65645C33030a245125J14415
8180a130710j195445k64557j941985a340199I07228a161895F01138J647606J304176
8171C552920G70293B62942K962773J582493j451205c71178j458772e81884A085488
8161h20096k465407J01863N67066l437911J036751b007668I06874L158476A704587
8151I74815M24235h5945k949462j345099j401189b463612f95368B04408a399330
8141b700580A42757K460382q58633G37121P77524p04906J351908a17072j321956
8132a439028j360482E77275J668525J97407A68848b997419k250775j925435K252645
8123d920984k257982P83456K401111P45660J454123K13760l548418J369577q63885
8114d623582j814047R45802K374383b43300A969357O82293p70061l97190J382883
8105B867282o7011G4755c670600l272079k411367N85177L869880a308640k442092
8096c750732j460815j748612N17738P99235J908368i41745K19593A462426J245691
8087B708117A19143a934569M50700N66318A503738G24086c062763j364347J851246
8078b575864l09831M64181c85405C677339N27278a26740j706628j743828j351492
8069d928688k231017K971381B55413J753622j6800K883054J48604B005337g73503
8059a072974A679626n21252C72483K124482K040916A600282g61835K04143O2800
8050d94892B418524J023028R65440J942422q32735p01561j05108K304549Q57251
8041G871810l468470p80267a72283m307880O29566a079860G92877L651254O46186
8032E090317A365632a013679o58489f38636C89348J724722J760076J128733E65709
8022g93134k08694B691956K186245O09015j361779D65960K07821a383836k481974
8013c865810j042318K274138M1476J196791E22214J688715a252105n744101j002782
8004g998988L608546a529814k516476l264284N8394K381761d76306D27144b694374
7994b512098M42523j358343p92387J958399l197552l19264a523411E43057g30334
7984d333350m45920K38540J619780k71342o23905a818572j872779j145322a990052
7974C286596O31539A434234E24611j67250A04400a048902k254611K66404a421956
7964b200218j751423j168294j927801k386142J331570c019454a51165A882947
7955A992717i51410d29A044008d638890k345185J780247n42738b194682g57021
7945f5814k049946J0304N96605q69608r08046a50268r28053C49543h35j06259
7935a07094A517703K231775k00347J523479L339042o49641C587088A511132J361766
7926B872898j58104j050033A35163K465019J222478j36874J935703B419950c859091
7916g154743O09902J740368a788049A222102K67895J148270J500530m32412A325033
7906A531821J738778l64135K429853p97669F93047N0427N4914a127069m08832
7897a535901A297911J946283D03526J263405J207980j01097p27060n22031B70858
7887E11344a697837k89161O44855j629509j016445J185928Q08477H1686a107109
7877c23095m02627j362328I66476L435130L917282j123273C252856d97791k059313
7868b557104h68852g2434j866492O72578F30365f84133l010582m8631h62122f2700
7857a75114A582095J607156K382235J413910j998493F46464e74833k129085o68546
7848c372464J481007j671938J038665A697059p60289I7034a65442A224831J667283
7839B892114a84808p52478F46700J698915N391A053966J36449E06561g76618k082439
7829b859057N78624a15483m21568n77693j382136F73772K353691M54201J538458
7820E020122J167296r20793j766136n05861A244143M95157J44913H21665D5711
7810c794328k765544K699773a875201M37322A245166C42380c353722a343735B256251
7800A598220b225184j137106m73497q29492k068229J735212b290519F22923G2449
7790b220188p21871f08882l05358A371815l66723D63426K210193j07749r84655
7781A581215M28310a41510j127406r57146j460389Q80016A415911L313391k106721
7772B622581C69832a834981K25445A413039L02554P70233j043681a941409j775214
7763c716623r89372b051131a11622j007719j738669n36046a65883A565154g78182
7753c49720A74897e83762D50306a25693l026214R23231B359026j058854b02929
7743b15562A159056J94684J31352c53841j779761i88915o07661j085874m08317
7734c090767j31017L21212g05030B198262K493731K386490J023834k061621q58861
7725E181835A439020E4601J139821J962422J968046q58349B09929g03867L46340
7716c57527A298310J633285J12035F6850L460419A531192a985926j04218B642552
7706B894129E98645g26653j757710n30829P01445L97519J75345n32826r18587
7697c192296j091290q88051m64754m14959m41972K552027a826728j903599l022686
7688f753013j240849O32261J080521K573395J82833J502578B24850c63503D39898
7678I11319O90718k03550i31298A024426K28533J708733L286089K128668k478351
7669E898098B508102b258935o11539h66971D111465M263937k980220B268873f9741
7659a564029A230358j44246b64374j360960l81304F36409a175555l698228K215507
7650b658276j69993j257831J304083A595839R69574l72584o73685b104902D26289
7640C820416j175099K321772J358408K047564J304549D638328B134148J440685
7632C574833P14397J490964j440347m15179r0302J29396i96759k368973L75667
7623b990065j683596J280268A210709R15848O19068K260245L69451n85215k112107
7614B677999j224234G0671N98413d66440j761893k40608M53576r2607A267381
7604C447477B95058b409749a29695D658325N15356k370951J430696L071728j765504
7595E539650B587258a445836j465829a48888B071398K718448q73294j100809L830545
7586F646288M414249k501946C009301f00403b81743k837150j493636K251492G75093
7576A738322K37053O80125j82181R47445M44723J552583M37076B856650q3040
7567B773610K677056n82889G79589a342864k751441J500233D69515M251419K369394
7558G090328j380370J8090k252220A544942J410491L00217j385314a99692j010876
7549a210568b88522B480929K03506a27385j432294l900992k322585J355382b520809
7539I57721r4651a631038a284m02817l98656m33712k182814j348314J025387c82456
7528b307621m201345c233594J95679F21205J528372A65942c410207a164185J4039
7519a150146k201456n67424e19672A148090J401545Q24333A376553a843407N38350
7510a305057A677654J122922P25097N3426H57486b858949j135928c59044A679588
7500C759160J70083p15595K154703A757927a881817j355759k69853i46149A854996
7490a89421q40394b70270B3876J812799M245035J46703k619254j729387c858396
7480d429250J419233a042365e20379A494136J659778J435788l39372E16868a198858
7470b111967k586759J379882a413526l603327L06677a421195b06718p6646C48856
7460A285295F23139b298764R76249D41179O02563l13510K86757k6103P44043g18694
7449c051463O63087B389M257675o78160m51694I83176E1196J269953K074492K1295
7439C416936P9216K619066Q39315j338492J026770J002072B649507a916172n45512
7430b461684p45178H95820J930402J483590j159554A95866a698137M99403A959980
7420E666486O29776N17792J79760k363285A629151b015459f90060l48586A663910
7410C354558D95522a206755p34269M83453H54641K154285L432236K879176j491148
7401G829190j14476C776763A045559K531131K258638j284630j951863r43399j61883
7392A493553J071535K23838P75177m84011b301602k662729P06715p78052b433392
7382C66153K950746E80950r2103b28271k977949l092511K713379a376289e77439
7372h25602o99579j069544J60806f2665A923698L14366G20154j42876J503586
7363B080864a353528l543442j555458j040726K436280K26701J200141e45565A496284
7353B611383I27443h69013I08221M76272J686780J967522J63167A427544L5069
7344A462613L584846o37436A418503b98788C134089j565174L28822a774566j180669
7335b955235A002509O49682a065744j420645I32117N29426K25677k12104O68685
7326B143801I81918P33355J25179a013562b08394n28992H87313a214460b16856
7316B735926j291596A86957J508248j36924o18984j00763j75343J490897I25619
7306A555104K803310A504495e79523j309542M75349e95447G17140a115648j485708
7297b601356J190160b5718l97541I26448M03878B8913J707272L298668B368961
7287B23509a580829j338568m90474k23780J286830B957292K19185j179116K875498
7278D872859J389201B707988F83650J865438K27040m68823P30803k83947N08589
7269C262750j88628A030123L62858C06890a037224r57063j298860J488272d37448
7259i64657o34572a23406H62304b292807j065725a137185o91658j421928q862
7250c259633j188149K57340n48609b169998b89875B404200L83535G61254b427623
7240a427787N19589k201306N75715c90208A891225R31995j384284J580586R81468
7231D000990A796104j61828N56377a868249k674937J583307G04481O34007B61067
7221B053670J33807L306159M332627j666519j689819R1936K828017j715434l530239
7212D144205A580285l17703j97094k27143c73162H09990J364751a794874k800265
7203d595139a995322e80749j541065J4483M17725k439564j098872g67801A905245
7193C414755j029455a50580j010253M13724A55511J62788o8739a977004j042002
7184c019006j531622j505643b243909A499673k39051h60083j724340j167714c18823
7174B594048K376806L88677j739858j208699D08932D3694J676236o97739R42042
7165A964233J85365O86942J369777r30025L78048N98733j956924m37645q85283
7156I73221J598399M30159a404401j393115j310968a385794A89555M25893N05069
7147A120517M261143L244386K203177M42538E039493j307485j192420c8295j416874
7138a455169c73052j010479j275604g55599A718363K328013j694216a271842L46866
7129i24976J11313j283203p022020k621148N568106a397187j16673B39539J389604
7120A629143A60854d330637k332312l16089K455237D73933L024816L66862P34232
7111D599843n79057o91904j453803J312207K70718A522294M68270M95423k41280
7102B244707N92802J118237A638183o90926L309874J593839k355704j628598K94625
7093B161293q12129k96522a953198j120683Q95256J067012J54767K18731A115841
7083D083442A873887a740800f14518a12657A135223c30623B85249J617484J442478
7074C345211j373629h51604l370115L50671a034158F0221e393202l081038j430377
7065i904617K399292J134288J892853q11298j260906K589830a256451J57337r70273
7056b069387k945969o53385J3151K052488j63289k062975K137523b88848j60211
7047d49059B91687a372400k272310b07503F95814b697055k104635a327949B24374
7037e09269G88963A65657c125253k58346A85375J603234O46793J081017k5502
7028C490917J01671J035506E23970a678838j11119p85380E45522J072875c54470
7018e574849k517K15239K555817f42012J57254A784502e6354m724106Q63040a710159
7007h04670K1755C81843K149724j0205a671854j645872k91880K21750r07827a970071
6996a753727L2996e72017k35447B65169Q4397g84531n93027k345404n15512b040394
6985C24993J51967J302312K89335h28705l38801B263426J756983j99474a85299
6975A013037L019463l25991R30351j453178A150140a047179p39373c50559o83810
6966a034369j035895j396003b18141A558957Q80487q24537a98564p01806M0045
6957h60325o23239r72228R49354A444800K225049A716152b149290f62418k5833
6948f88251B500131l0318o95844J011538p4474h90009k169269A375104Q51047
6939B226151A050180l6750J95059K428187K894998J75036k236929A819173k63295
6930A555878J032012J292234J154522A808293a494571l358762j423869p60436
6922g037638L306153N83328L24730K15889j081074R40379j706134k106655O92579
6913e868443K020947A906127L851762L18275j277314m31423j632444J251430l31562
6904C654851j80445A364369J27416a361708m872007l088081L345911K709618k79218
6895c545485J352139o07978k376706o41825Q15595a604660m05069j194141M31868
6886b772002P32748d11061A454112J251518J267059P72978P08022n46379o23575
6877D283735q12347n3253K960543J411223J65684m72625l505004A927301j57280
6868A770021K061189J239181M29979R86317C010712d13162o45637B037599J114922
6859C152521M82188l12504L370104o38414C023009I78511a192802q80044q20401
6850b893247l88798J623983A613541m29663b089688g72315m83667d30025B507385
6840A976205e63547H7814a236921B37836J935618L01795n21405J538734J914206
6831E406784j506934L98705J91507A639387c065062j865986l248773j919162K809308
6822g289675c615353e56054j559917p57938c52982j445259L17806H30003l30969
6813D99034b495462e73681B576284J077213o83383j63970E29752b103445j028243
6804c131688k0871l75337J120988A27541O70235K048320P59319j467329p27702
6795A410384d1444G43454J691371M013768n99393k206999c30430j951140M90998
6786a790572k15480k759477a502016C533090K979639B825658r89533J266781N34922
6777C637828m65071k9077C01782a221791b51633p8306i4446H28495M93691J783966
6767C106152G93327a588795m05156j080470p23631J017837i32236A424586O1007
6758A485593a377943k052148J07845a189837B149148r17942b857102O68677h11589
6748A046703J991126m60191E02694K84247J628252K173752K66758L67351j736021
6739C487033A588428J31092K272111j939976b74089m162126n100667J673283L786593
6730d077006a404220f87928L5859m75801l085565J613619B61114J580981J844637
6721C686732K63730J508732M77931k343921L06514j237521f40535a21607B522443
6711C542421R53896j602126a969801j039066B26680J687721J465571R52185N42287
6702D874444j403548r65949c567118j732514a519636J44132j549942c01304k47155
6693e48459A578596M188613j521036A622666D43394J814734M069659p81259n99841
6684D946687j514823A558816l74426l160J513820g41016l038654J527352A095212
6674a963690k373567J517333Q72581l67347M09440f45265j333248b4632l76526
6665d01158k083579m243538P61083K227840a754562c07790k338160c15657B718646
6655C71345a012707B03804J830440j08842c49794k562085j465621N33926J780414
6646b063160Q0148G04973K356736K06433D16977d746333L34885D65911L755457
6637D221368N94189N61791l13747j861385j168712a670497l074354a638138B361225
6627B956165l81767k33907F71448a585027f73421a09217j501732k461049n50916
6618d622914L24879N67441g42247I90517O44745G12813a691406b01361A230628
6608C41965a077709j927717k47261p38584a021939B064726k05351H64811b235551
6598c769834J596792a19148p46448j289119d42267I72835N090316J195207l052579
6589D205779H49738O52960Q66176b17803B93496j02500a872799B8635K736771
6580B765406j071206a00055j918710N93691B62881L01908O13430P12080p18077
6571A172222b002042j376060J171646b07659A633365Q25384L4564p497L45713
6562B831529j111635q219M08069J550064o1248P30081K222788K006560j582803
6553F985186B768093H87770J626036N78105O48362j24235p16118a279962j909907
6544c189869J10727L95602j168107k234698J265327b079078A622244R21771c595522
6534a072709C181220K08889j231354R30748R37452L37842A284230b866852l69442
6525c236294A271026K731611L77886r20620A421247I6523L225008M01433p54380
6516B968584e02119j018142g04538p8754k694182k350526J884583e83054n58313
6507a141367p70157C45038a384261k693182P48506R60802g62012n66446l027883
6498d356341j063917P81334L56276L90288Q43391a132052d17773B071946B70291
6488a92650A43539d59518D65736K814635J931683j394838b35886l118552J673701
6479a680737K42107O61165A780769J220505I73223j7566c06343c4777j87347B7657
6468G90759j25775N56089L639823J876061o80737J081817k653966j113067R91979
6459D362983d39489j224910n90290p60986J008925j308341k352260q13327K08362
6450f272316O43916p49810J417043b411767Q37211M12062J59078j845909a340080
6440a838295f68770I31469a461692L55315p30973O95049k395173q98550j83441
6431d619465q45440Q29888J021612J747000E89618J184416D63877d296423k421780
6422f718203L079435a105616j713116j452836J487648c68883j259268J61699D49090
6412A387660L63492R86222E87878g76336l45161c88103B41449J984616F38774
6402a737446n92789P95413C133744K406076j744312A43914d07384m262500K7578
6393d642306C40178K722341j98275j263863a450895k994492j294358j76697b342029
6383A367497g32989j20218B77060J102055e11859j494197g96516A171L30839a403138
6372a502887n28139k65955b6615j504293N90353H79924e92444m31585J47602l8559
6362i14986H86058H7527h13486q13571J75482K83435m16059q25116k145128r98660
6352e553103b237823A183264C90345a289190N59964b65010F93001J792795R84270
6343C470066A731964d61708A202846l89324l6220K510953p08970J098205A802876
6333a927944e95745B344143O78761G9637i89381B732075J419287f87217K14767
6324d72450E93129k16635b869163k412075J16299p70506j098217K153492J546446
6315c333724M97713l27559a385420D76738J226284m58289e89079m324910J06732
6306d807257F26429J443808C18174b863758q63173e44767C191924L824409P95852
6297G812185C773147C20576a757385L03119F45787G4824e87973k245158l94627
6288c227758N61884j573405k92402J955155R34654a75473A22813J874490J038511
6279C035814K432175K101304j784696A000980g9271B635763J285855A611584j83845
6270A427739m30095d81659G07327R46549M29458Q17432l57994J089866N348112
6261H980750n34629j703623j608795A703402b051560k461978h95553G93210M39419
6252A232629K162905J440659P55074j052444A984419G16951a871215N33522B243949
6242B263918m76801b8825q20172E35860F7822h39213o60508k062451k784887N48760
6232e798299J689179l71507b043411B519993K424191A505847i93469A348763C08825
6222H82929K377702B02424a336662j612415a60891A229036a292908r40604a96116
6212A708310j73831a814029d11901l66256L04301e8761G85222A33166d00181j534096
6202a934277o19160n21227m80990J433488b32198g9631B22505b7348B99395a416104
6191a681282M29454j419695k252584J510244a700743k51716j302697a396038I39807
6181A442292C00679b86950j342462r53349i91391n58632m60413J15484j56289
6172b051241R49147j63524j371523N03309I93635a024290j553058j199769k24471
6163d001588a567328c66434A69481i50828j139991n24403Q01285N27109g64B000895
6152B311009j138961C60999K535434k97438H15662O94645K404086J330188k296407
6143B948174M53310j671484A93207a311696m6955A775425J211705k73305N33037
6134C246862J003271F93721k09973L56306C8422d15267A296657J15342d69374
6124a459351g02958j519583N40587O17089r63008N95620K83620k648944Q56326
6115b941251M63952k444164J60700h18726o90902j431486a193471K73802n57423
6106a477092p99108d9607A348206f91173l309835J11786N39292J630726K80024
6097a439180e40823G00774k41679a993275c51820B12049K48429R35992N01485
6088A897955O91720K766376M97953B30843M84324J579423n79057i10532n25701
6079a436233j957146a193374B004770J427096J200389A836662C19670a200665
6070b460507k361720J198598a621409c63892A016904R94051A59526L658305K609724
6061F427555n75874k588901j082765F84038j10375K069847J365172n91788j357267
6052B059627P33881C88076b826577l546803p70473J918159K145914a342880j7535
6043a360415j694396k446338a769698j57954P00259e06146B743113l92123H36941
6033a449834I35057K089779F8353e257877k97975a736587j411925N49239b45346
6023D723492O172042r02237j0526j274456k146314R72904k086579k622303A05164
6013c998213j539786J772152A223770J875773D79103a96793A804927Q38534j040074
6004A603387B49155a862868k282866P47467J571353A49870J705574a036303E31466
5994G39382i99037m48984l602374k525396c784678A160547k35100C68259J134310
5985A502569J046325g86151j260557d86713G15398J753307M70506P8049J802036
5976D819296k367161J675579M077178J063967r03409O62427j191087j699856k95938
5967E840996J14527j591889A18456b023397l49339D720609M666664o74823k230616
5958F481834l067524j553443d14333k316738j568927M71406G109J685264L731231
5949E423604J794272k393608A081026a197440Q8682G75106J031274p29453K3264
5940A100191C81640b55072j44726j63767B890469J709559k038369D89037a69147
5930A605253Q21927J092627j3522J826055j226034j327659j33548m50568f96276
5920b615514b38766A631460a274323b75103C469639m95471g99989j571659j142115
5911c513763b84116C231673j023323b299336j959278L31965k238168K019932J23445
5902d021440M40352J28554b75759C808996A204112M078282J379266B955609A045116
5892a959104c49396G83915R01762J563853K947562K788961j27314D326269k055574
5883B270695K921055r2501k202650B82613a983891k101620k440025r4160a856892
5873A016925k13434J069756e71480k306632h58013p74742j384047m65056G18796
5863C711303K238667k4495j135185k368124b78883q48944d83772j37739A252234
5853A273244D58228J171995l66346m53317K719060l14503j56368J688820p8542
5844D669027m17387j24697A993491C04228Q63867J144437I87356J922520P90865
5835C700741K31928K12941j225927n10910I70939b72073A395352M567519p57446
5826E205425l83325J19148j390146A616606k70100o52082g02633k122238l993226
5817f818097j02786K142824l71105M86683J812649a315258l29407A201187J715873
5808B917060n57537l23220q07117a65158A408851J007012J707836J501136j667674
5799C957161j887185j64918a318443j138630a067388A339123L66194D45271f48510
5789A94993f4695j61155c9820o61396N647r21116j722164J305727o52396j672416
5779d357934k817283L303218N59285J043030G74752J93605O34090M24562m2987
5770A984022p16798D17600L56093d41466k527799J148292J83512B651147K774376
5761E425523J846643J296683C672310C44348q2279b79574C385914K093493j156806
5752D322601A233104q0300K11965a883987o39976l769794q31579J136108K390458
5743c598770F07746P63221a947526l590632q53991M89179J976292k60570K99993
5734c887255j938246l80105J967587K085826C5133J42765K791670K522155j816771
5725C674952H69360k08714a185404L38594A88999M12140k03757L3602P62347R87903
5715B181234b12852A351738J100258E64277g74863j989144n85839A186320K975174
5706D161494p27595R47694L519254k723956B540086M69302N3790K06528n1672
5697C218034e98694G03630J065473i93046k992518m72891b133521g45471p47189
5688a492660M49121A640496K326323k85879N62199B111288c21415C919315j470
5679C917845j323655N3094Q59560A576352a800344o07477k139170N00850L66640
5670c679501L65154E4656J569272i01635k03701n15912p60513f99516A537558
5660B022521o82476M93910Q70311K202808l08629k77968A204680A04012J771247
5651A875259J732482A689673L392869K735800j627360A953251e58401j627860
5643b186261j064488q58988B77842K817539R64848q65109I92016b87616h9300
5633H12004a418552k958697a894225Q3735k782933N48403d73942A400550J999012
5624C399562J304752P147j224818k10050A261705D94009A67138a87995H71899
5614A934480P73953P28676r42402J379195B9821L79990M46899a25535n557250
5605e682785l221950M125608A768760J819046J42053m02880f90867l201976r52897
5596d845740a064823C075894j288600e03696m605194n42180J704188A67932J392005
5587A559937J009920E06016c847289j689260K033652J181418C15991K17673N56424
5578A090088A55196a319445k33525M81546I76245J064706l48403P42978M92714
5569B928240m58952j130212q1672C85093P69282D2345f81481j28965A047786j87569
5559H60217b15846B61194a247947j561957K06873d059j585536j851852a420085
5549a561295m88562l52424a106474m51026K47209G25906L624818R39974j906483
5540C384215n99282h0977A155618k16314k33725P82824B63188a34558j741921
5531a876479J6737A522226J717889l63431p04087o60664K92743K61653C76387
5521B56767a409416e67775A729245O88936q75884L40180K145788j659606b27087
5511b919718J101162A671264R44704C19356K97810e27636o09947D79192F1997
5501H28579N19653b407816a115854k404500j984980a361171c22647A24716J866537
5492A991253J607434o94654a869914l334430b441976A367491K28245C79754J119347
5483A499101J623667J668254J468728O20010r11724A742694H54346f15008P8823
5474e36185k565329k584814K548203i09234b19764k305008k055173J16534k152814
5465f616225L2359P15992K373069D74583L84262J336684J654120K10031D12131
5455c51614A72475e25394p92898H35762J82471c696263N24503e94377A174586
5445b8207n893412J12857J633246j266022k264831O39496b953749F15496a87909
5435B373386E18569c598545l092050q2832K809359O41455O03133C833192L314841
5426G148033k557675K041275J335216k860715A821116c36827k570793M27378q35986
5417c316228J099660j333170L06487k100750k721273J220076K675260c74530A343682
5407F74053K37280M61824N64097E92855b852613l33303h18894C970018Q60891
5398D830909A912664b554613k710125k960359J330775K989182a475128A665174
5389A445311J889823K441244k424432m09147j441879K407652L07414A473721K94238
5380A767959j34118C87139K136328Q84778M49888J507856H96078M51461L356908
5371D704447P36373O60235r42496B171176a028239m92839M77020k209635r87052
5362d240745R6868J775722h44942A407368L032056k27013A246510R82925P93619
5353C023054A322428C53930b188457i63376B874600r31203b25785C4023P15818
5344G49841b099897r75472p60659k27828k097443j857066J429830K662670B403978
5334E898396j515396J50491N29366n3218p3052k310298A145060E02116J670899
5325B173015r82917R03952l26424p7002J52287p96647a328722j412998n17555
5316c259275n07969l80342R21854J38398j993813M3111k28861R02552a731551
5306D1503j0932a580110l84706k175225j649581J524587m17095J553651i53108
5296b50353p70428k164545O48591f72484j74079j134875k694799J52435J428267
5287c095535k58612j340662k285758R66521b759346B243005m15737c223446m544087
5278g767533m89425J180076l9867m79948K35136O67616K306584g54994A517308
5268A830699a361031l190462J149159B536248K626909j310858B61968d06354a12875
5258b931696k25730j143887b088689N03124N48560K1202r0863q1139p21638Q82261
5248a027182n15746n90279c18013A193708J272007P39714K29683r1223A584848
5238d6207m50260j00748l84481l203498J15338J099054K4123N91274a027865A210655
5227C138263L235008j346112B310021G60078a8101p57236C97195O57562N36261
5218A591018f74011N9709A63695K789046j222673d72651a10300B188138J4836
5209B202974N8040i2862A491304D65024f94254b94721A447708B44669c39226N5507
5199b83719n89824m696273j433581l70197J273079a901100c51055A789312L10671
5190B099983K386541P99312k440239a31561k534306A566108K189182k59532j334256
5181B161502n03633b510946l500520q86364K059582J727274L15804B815174K596068
5172E411242j263331J104680j545160C00524K31497b0158k568155N04281B21610
5162B301898F86116a61785j601611L78628N72015G73512J367585O17915I06051
5152C56812C8988N3122R81939k18402b909676j345936J819117a180630N10028
5143f70602C785499M40317L46664M21208B316292e57480F5341M82977i33626n34883
5133a468509r00063k526519j773125J960461f50230B346636r35508g78306A523602
5123A740139a665743b3537C007183p5779a814435j533445N86490a314169C36382
5113D396970m1522j193110g43067n53720H3054J392004c49462A77438a656478
5103B06322J065406a342093g1882j4097l112301r65770P21882a510653A102867
5093I49166d79551F73210n4833J578628E36981d204261L65496J914002K80981
5084a643782j973161l181658J75809K295626a901307o39957a104247A685598J91304
5075A876902o73663Q45090r26031a909834k82213k49481o95350O28968J114568
5066a393342C08922L79158O62187K22552J805538o05664D95469e78750D080570
5056C403691d30856j923837A07328J171537a167709k652971j642223K206634J371871
5047a884398k010379g57547B060217o211J788627o46105a167522k246665a269992
5037a323688n75149k780471L33070H54208d14179n0165k84394A165948B22270
5027a827030k478811J996322p53863l683458J97210n13651p79116K900528K202147
5018b739722F87398J296552B48834a279952R2783B38293e77606b52747A984283
5008c46507l8736A868724L58536L151460j65363O92601o55657B581149K059911
4999D641060J178040k252994q41973n6863a632659m546290J327790G28301J732950
4990B461251K571109p09779j347264A259347a646370l78970B2200J455545m72460
4981A005285M85317J690799J817325J357334J780053B908589j146981J333921
4973C095529K331427J187344O61331j467572j696440A812264a12425j53630A09650
4963d252491l005730P08540K995220Q20824P50162k46544i51072j370704q79208
4954c200984g01249F14933M51964J932762q47822o63811d82180A755719J963557
4945C719276m30733A394774f1038j731641j096817q76959M48184R26633J064509
4936a327129j913738a546574G24321C61096b621626k282231p88346a790614B032233
4926b14213k832460a466225C438333J315270n52723J052273J183607k189545l56347
4917C890868m28523n64618K11460J448152j629885J007994J767177m75200A207431
4907c13654k413227L03071K79015g60872F01794J733816l99188a730416p74491
4898b504907b21742H2812b900390j080449J491594r3150O07498q8238N89342F1131
4887B401506r78883F747J916863M52355N16348J57630A444742J029410J135841
4878C609993q24243a23641N3539C682406j15701j199371a590230k432460J54432
4869c868258R92795a083472A747064J230264I88657b819172L755n89273n14596
4860c919286k27827J742087a144813j620926k323134j074269J753661c01840C313389
4850B096769h60674K06017B720173l9458J488727J333021n11497l98494J055247
4841E647719q18697j003592r72103H46941a227292j042690J084804F75968J66563
4832H42531Q60236J332783o94076B21289a279227j028121j011605k363492j454757
4823g137202K154572I41428L456520M924687L904392k653149l742610k365979
4815D465289k230811j049024N00117n01131a426152k146789n36907J436203J247730
4806a425915M92474d45438k939971o56878g29233B569319E98404b870510o8261
4797b938771B92460A06311a038363A807505B89704h81818i184j975608i9314m23334
4787e22648j885024J39858R70448C877276n94042h10305n91866C193802q17082
4778B376720O69365q83731p66506K421117A825244r11896L62893J082865n3101
4769B306005a137980l654592j959918M32614K685625R82581q16230M79917R27568
4760b060415k330711a903831B009059J339091H70352b724535j635840j711666
4752f072041j151092l777590M60841P76624k33799M674935A132268K630261l96057
4743C366472J415918B233481O9840K872958M15123j577923G4667b2460B129647
4733D872949j285117L8103j509963m72956o29379K038969J331176K0106j762763
4724B641125b381926m60452a215868B096950M046565L380292J256117Q04712j279649
4715A0304987j291487L85298j705330l090560c64525m223167M25016a786063F76001
4705H62685c67200k06550l46164k022970l78277q33814k005344N13811J147729
4696d498779J838461F71027M570066K387736j730468A412133a541871j62551k510641
4687d215063o42223b382030a035512E24542J310673p10459g15388j676171o509
4678b398068L6262n72243h19520D96675K62094K717879A137079d40162k75614
4669g15776j555260k499337J94212J205510a501811c11021A162077c18818j964207
4660b283025i69108j497337l346400J216668K018578F89164R06894o67196d71245
4650B064271b20683A820151d3328m740124l03605K015942P65675K25889K0718
4641b058833j866587J368956J109226K84482l35273e52270q76453o37852I52000
4631C246233A381249f64895l985229b201936R44567A812318G22195A95738L00059
4622D95797J28664Q85075g29515M8644a5422r91027E27441J70462f99997j169449
4612a869446M56522b36211C928800O70373j64754B193798g35910B221496L027643
4603E249139J418863k312948E81717b013462k7286j795777J121360h95387o85899
4594a581286o91652j784811j093245j693497J765205K449926j147233J657693
4586b118900d86299n71132e17437A703730K092451j222536K041596K166640J393710
4577H175591l437103j24316K389298A908528g99823B09470J686496K155604R04835
4568D956405J447201n18737k307239K015865N1419C07838b354195l727089k6657
4559f107941L045753I2261b752171k623098j204557j510548L938991i52148C003330
4549A949976a179952l08722j881337o44180a95545C4922R67858K074485L354638
4540F431903B993786d4304A519490l03351a441816l573805N74318J570915m28908
4531c299296k65240p1206a455817P02242B9541b501874k887996J411385J491993
4522b486492k18557J167432J54727L88515A525044L248833j223167A462886O44210
4513B107096r88902j5376M02567M58572a650078p68835M99253b19640B463690
4503D013208o32013A638230b776486p001508j496439M946353H41801Q31427m61327
4494A211901a958918O1918K66681o08254l601222m88582J059591l7117n72487
4485e878390J764546l129128k054885K111129J196417o3459J001826K379711j574807
4476d247040k88254a682504e84199p05312a29171B35906J977285L19475A195952
4466B025036J774693R35637Q99740K44442O90078j275746B339474e54118I3977
4456G98203M19727g70499G60464J910742J044518j585578C09207J18313L37267
4447G64787a088433k851547j052163j57655J846851i76891M58217A244976L83783
4438A628759P86814d2147o81916F22181A10303K809945K497763q21127A658321
4428c440142k332125K791178l32563a130839A015780D82528h09922L2062A856241
4418H00372a472159k954115L85285J980896k159697r44742b270314B162225J33611
4409B295836a117386k041958a250201B263548J831947j447413c61987j096925
4401a458912J29372E22739K423670I34882d037109q68336J05797a230284D59901
4391b662304q79675A86736K949061H03628B53725J859377a264481l305325M4864
4382d524942J156242J18701Q8596D86754K778325d41606j587327a0417C03132
4372C510628A332626B64070J356024O00195A084041j73291A21148a633018b10256
4362C341470K906386k37188K821316J356610l676522B921389G07207g19788l112931
4353c832719f38366E703572L59793k018228q61696J56404K722419K28183C113772
4343A646279K598142K347688l33509n99221k745908i10222j726166A524770K295873
4334C820643K54557A881974J95219J446219A478125f61207C55099c55113A11881
4324a240046j697691G62655K587278o745R8881j383173l19789O0111c04995A239770
4313A449622p03682L819255m46538j452913A152021b593676b34425E172512J153765
4304F326277k762859J97398j787796b082772N19155P31324j248648j204205J345728
4295a939418A450555J988045r9829A600675H0337b750878l542572p24914K85082
4286f733282a389864A57875c89535k707272j683123O66076Q26848l38987K18932
4277c407061A864085J271390j003459L89058F83056e67190A767157J72628F21252
4267A498119k80205i97494k585812j389303q38659J845587J499606l62273D56699
4257a2347A50482J570948o43940P85997o66312N08901o16322j4889A63176f55596
4246h6229H80647K553594J37314E93890R47005n30735b560686M00933N80259j301396
4236b880890j942104m42345p25065b413694B193333K547424k047018M78635M64638
4227C637012L68521n74416J840362k078216c028574m73054a290617B71502i19567
4217E45355J633619N4711B19411a616719o18733j371009J263478A107689J363945
4208B471634p44381J381209Q64478f20032j837984l31068J34454N96530p62583
4199b820683a397495B10564e98350A793511J267481J923436J732102j231095B390667
4189B71351Q9434a636049a60546F928653K742894j038823m256006I49329B69249
4179a127840L99862C67837e99062I96005K204130K471712r69945h3970p75729
4170h59699o1385K56971j433016O36099M99633A185682K19792M10826D41541c349146
4159c300006j72802j430848N0439O91189j471548R1208b666069g33980j328468
4150b062448L39602Q36411A084087L021786J314778k694795A262049n54023K11802
4141I19828K196359O91552A246547c82321D308458L928173l664320K040669J05861
4132F718841j174117K30046p94052A796234a227769N42248j753318l236064J160144
4123d514759J657365n46901R25263f07200A013328L340900l96035a25217l177389
4114c302606j96729k281115k977858K894845P06287p80663J061100b078836K97765
4105a781071L51925q1662O91802A437665L859756J340994l0557B469389a817109
4095b14953k46638m941039m53711J807869k41178J41887J328543C26476d05900
4085A39647O55192J122347E81158b355655q68625k833589J203701J687526F08172
4075A389301C36347M86363A45795M834033L668578l009946g83916l020058J92687
4066c611287a260207d47547n145601m472737L72397M837610E58208L09787i65408
4056d682117b108241A837897m58878E03463f80863j65615B010621D70356a312358
4046B77425K607305M59168k7085j511910B95361Q77844L55202h70801r61941k463890
4036d296632a682018n80918P31802L71756D86750L56722d39410j810228d54352
4026A690347N04754r8482n69560a363185l495527J695711O28205n1404P1524L53735
4016b160941c70170C163491J5405A129721b107886k601054J354100K94244a070659
4006a698989M04667D52964b001988j77130L13053k216865r00052k34253b359119
3996a036020K79281A450580e64143k911055k5906O59708J189671l63036a7085
3986A279950n10312J772803J773694k157660a573864j634331c44582C42381b750327
3976e518903r49447J938992Q32127J262125k016036k871831p04387j70938r46060
3967i144358K007481J622180q46560J676249A40105K790133J40j011747i25109
3957e153202j87626J211459b23897F68383e83678j511817l44364e9643o56019
3948g15662l191859k11035l49162j247778b829916H89166P65178l2835N382768
3939G004277r32605K26906J571908j998871R9945p88792H03500a310387l35723
3930a646110C31761K003633L83421j298507P26806Q92218j512118c002308k917820
3921e920128K16134K32374O60389a56073A166096j42368C27772h29923j546582
3912b376505k465782q00039K040816l86389a885884B012732K739843B346631A108867
3902C751294L75707J017671J552639l54725M25217Q79277o16286J509551J28065
3893H668410Q72214k087901k158541A576085a150992j415387N62773A583275J162654
3884B745929H16608A17624e65827C11879g16660a43354A728370M14099a448649
3874c452515O73483i41453H53759C09411K278571O32171E96642b841480l362030
3865f203510J349706r53590j58720K695948j158069K185372b50612A94428K865899
3856C060327K82615A024825m89996a470250j206959c93111F16254J292236a03501
3846a851276j218658k794398J208608g98209C334530J47030J283538J220255p26014
3837E259339k171879I05603J775558k57751h41536k29687B277894K257269q00372
3828C734791A866149b88343p45185M31536A572135i0080l488425j135623b235688
3818F64009K519388j205870f97181k6017j013544j312639O58401C56255P48521
3809A104776K125733m16028P61675r03717a066795j753292Q09541B616175m32419
3800B183756a859687M47221A162699J667197N239538K214126m880516A281329
3791e04222j35667F79133L931857o70096E86406J443306K781729M2241j191829
3782C661853L707884k336689N84003M39505j549042c44490j313403d87702F18218
3772h77773D90668L936206P34426j318501R43119j260474p92069j126316o90044
3763I17015J75629a447203N46661l85676A236030J96670a596118k264966J899402
3754a961682B0145a933464m84217r88744J506060A418766L553517J100676j149151
3745D923808m84622F7933b900609r64855k131107K02802N5533p01598j27907j21399
3735f689140Q54427j107983N50940n33881c235235L38842q39466J7355J761762
3726a956742A857858I6104b561894R26000A653426J652931j167715h74948A852659
3716B200791A090362J09185A00835a078224C00702J709678L300815Q11568L176030
3707I298793J064591K4038q76324r15021k350749j973568k07551j808479k19220
3698B036510a816632N36340C56089J106692B92991J934345J319108J451882L400781
3689H399107l75067C685697o89495E49935b107817A468418D13890c746953P7267
3680c669686a777729m518669k297331K476963a643934e29098D65795c23653k625961
3671b949614o14500q90748r87243p07863K342163E75242J683782P41569h45340
3661a250267O18489A848087J932081N12217m94877F21473d441686J58105a400518
3651a520455l46833k75708A40412J164282p1065L766C45071h28605n705064k536442
3641i070111J901603c467643C54412i80746H42569L757996N74013K799530J47058
3632H121166k055630j477840p92490f3297o360956j251168J739692K126005l21756
3623d131480j009104n22487J849797e8940A520022L184806j157291A139277K668121
3614C807398K3653p8732A133990b65650B010667L034286o99208n44939A436279
3604D11913b77963m81994l34574A782843R93505R14976N32246q95962A638921
3594A569205o59950e06487M338I18776f28652j767528P42532I13738Q84644q09366
3584I89016b14410n58184j522574L59713R36419b41366A796846N91933n5671J574862
3574C907970n40640f07777n00986B038788H29547i57951k008727A324789J983422
3565C308211n06787l31089C17106a701659j508037p77597J4482k089153n76291
3556f638255J927393b268474J14804f62072C35488K318365J186544j592390a22895
3546e35555B307381K236032k60926A755735E4557J367737K251803J537799q89463
3537D322433I27234B73225K995463K751702N19354j66550k218094H38672K67953
3528A106625J909874q23327o95817J869983Q58252n21990j576445a765j870116
3519a871881j71407q06973K6874a300181b84632B66701F2310i91037j046309B84585
3508C021970l49564A234713e1501o18897l709484Q9812P30420J093419g29455
3498i12422A360561C49741a089999b45204p67187j118489q32793J133219g7411
3488g54298B068728M080657l32802j821096j941372a180192j237278J38313d69691
3478a465360e91162I7100d16784i0982j100449j083471M97624J35416d63871A811596
3467G86061K981510J682305q70746p56137M71193j626703n59883J88652K205617
3458D501869j555708J54766N6529c19389j992314K00676M45024G12304J712301
3449B424605A71958a678070j732904l078268b609797A457575M35375b645964k6786
3440b672750G62213B86814a088082o9154k631p13378j499088J684049A063425
3430B515469J82723D19300c037702Q78720e39603j69164n29519j864735j556829
3421d659850K036199b77868o87771D8677a769092m56213h00391j283373f36492
3411A587032g11258c18456C003953A176564h25014L97051C936893L125366M264633
3402A1326892R59965k709699D333193A607355n07003b371092c67283A511527K607528
3393D119055R06811j927520a602080k044293a278185C851885K167394o23616k633491
3384B762172q21869d22025D01086K55790L61361g443k649072G14979N624044j9187
3374F319836l011421a633897j010624C67837J382349J552748J336502B319119
3365d39407k053119q02388M0191J345129Q30942H30976a346240k648967K68508
3356c726699j323665j199957O31464k246657j353673d368654a958744j451061
3348c409805M1585R16895k048177J204512J527927k03034M47202E40306K076047
3339B616353K419722B451959J296945k46921j507144h45483k120826c32220B279860
3329H12389a003812c38224j634824k256932k745020O33824J034386a255368B857028
3319D686439J351067k925587A270349a255382d68392O8792k549647l066627b638898
3309C057663j271115n22196R88708h57547G3661K25124a162358o61768l204065
3300e028191k716870Q88481L428197j101216J299789K22242R58754A637834O7412
3291A705246R72868J994942A117840b140932m249497M40182K324178Q7465L44714
3282c193890J452804q75592k234672k083410k52179J028562j92717b374775Q39876
3273a534899j09153j34745J14876B078499n03196C46439F2108J337022J283272
3264B682402B61647b571654F30741K013977J82721m04173L42201J782494J755752
3255F303713j094215j653776n87144j043741M79514J318250j287136H81204a46696
3245g26166j316554R20513d66436B873988K266795j1039M63008o14834B203255
3235A279793L692934k114972L94098J90766q52231H20728J446270L883879J647589
3226G798466k554826j160310R54704A875873f47870B98731d84894j269553G4025
3216F64289a19338C61457J099349m73660a00927a1854G40868g72326r86459c93006
3205B881259J504896j387997q71317p44354K135869J146781r02238A258347J4440
3196A272787K330790L9486K209717K139835r66174C184517A471885Q28849E59047
3186e90194o77210L26024A87053K062511I30014b239131o84473A321425L963156
3177E284581P08038k013630A678557J967714A595499n45533K890568j198840e10659
3167A25820b381088l002988J827398J07363a8716C15584b329656k313848R22552
3158c720952d29733A013232O97470Q24325A254184e66827m11637C048849K253308
3149E302157j495185m096J39017A61997h95856a51423j489787L70349a99644A38390
3138e221068l623742M271516J50770m38921K013362r3715j86914j790093J449682
3129c469123j89642Q55765a103612p9638k03164r71350k021924l13538K267114
3120b426112A476283R30438l25960G22170J798639K663673o50347A115842l04363
3111H11479N13299J077666j63429J260993J524606j764932P00353j776332k32078
3102A951625l61170O7069F7763b67741B231081L180738Q41025M07595k822453
3093C837986h57886m024772M66302O52601n05741M00608j605823j952190L323331
3084d103570J242310G32556J488542H03392a577351O76148B987369M56785J88981
3075C633135Q59028j234191A491195j52508K776136j0763A979573l41905b73937
3065A400707L681240j714760A640301j09036M8201f95882m30556B800863L13599
3056C114462F25427g10929m42758e01498b0588j484799a77105j828204p85874
3047b791183j437208N67721a758128B509915N99649A098798i05823M10230C075600
3037E851558k298744E61287b430456L11725e86957r89987k33811q36858j756636
3028d404249b176291B59308K123688K847010J00720C17937K84479a985636l114573
3019e100209k88176q39432K332023a779001r58172l84920d26444A263651J444940
3010B708591k57076A216150E74977i79691B560492L373105o77029B189517a858924
3000b997131d63583q932q33647L18547j406400q50726P67692m15278k77768B212534
2989G140873j736736k04683m41013j369694n00160a792962j480464H70901c37473
2979C1005K577905K572751O58273k115145j16270A790724E61916b025837K78946
2970a746891D40575J741659O66135M15057o57734J740797K00444j495152J33352
2961C185133E49399a247288k56268N08594j277306i966C12630A34251L195695
2952C329946K074820j695322a170280l739366J460952J688717j82276e82930b10650
2942a277963m28636L98284M13358j098348p83706d71266B550452a241705k387679
2933c629384P22935O85302A881201J702309A426422D14537K865848J537879j73386
2924D644878P67289j624699A044608i41459j029415l30709p6563q59890a131225
2914a7216I72719a793929j860361J136790q0792l530830m71300K332818K088121
2905b179483K15080o73579a278145j592431R71828o83351j825801j149346J88133
2896e369113L91880R89022j63137L46671M1929L84887J117313A200414Q92065
2887B092479n20810K803395J648458m69294j632700A317013E27571P32340D54156
2877e82331m4806r12753e69520F13586i8522j248090j109301k82825r42494R0643
2867c590589j02485a670233B470935J105219j732030J04846p90647a524452j649600
2858c174052N50191m85720j854527O34416N51738L37792j591295q63558J174099
2849d720916l4470a131465B907249n73158m0254q22593c976252n06863J233015
2840c250100R97447k39518J04205o71152Q00216K17129k254668j22704K159730
2831b259415K74269k544097J54214o18640p94407a500432B615224J259394c51946
2821a80671A771489K060734m61005A134104Q68538K212616o80772j96462K730540
2812F068564j087701A1392b134887O77420A058083k46580a008472a80161A672562
2802A304413e85581q30914k587279j392339r13932j209449R41349J970297K0795
2793d587053j147150K67192J789457e03942A540284J36696g1290l354360i96845
2783A638395g38488b92945C824552J149593D42458c583853N01969B61321M00570
2774F61891a174904G10661K847840k10476j593445B99456b06192k516015j675814
2765d398021j97638n36978K320186e07055C272051J181172j678736K360713K079830
2756G215030j795137A769571g14895k733752l65072a736095P08690A180027P46903
2747A926930K18661I80476L636420J239726k002414j363206K352562j81443k074178
2738B587943G66493a826936k667193K15015O02815J820618G42577b179644j934836
2729d114480n78537b122635F43972K118537O88791N70980C69453d179299k175568
2720f354867b972885C4828a205582l76811I72181A61305b816045e31139B095532
2710A609132F8244a448158K50083A078483J013627N85139l52772d04883l482545
2701c887428O16580b52100H26113J773959K208023N41592O40669J78088k474626
2692C693818j013373J978097Q18725l67305r55385p33589j233454J249075J558915
2683D995524o27482J015905J209652j690827j836629j409463D25769h09604F48716
2673e81067r47045g55173j87013j659568n41995O54111A872927q83101b306639
2663c215842O66281O95760A19946M570461K289543J016030j791520j140321J596152
2654F660291J329904j130254J98701m34261J75977L06093J451727k507184B534442
2644A392327F00842J853452A40959e14024j953819j029519n3924P72599a063075
2634D73298L658562Q59090j553013A040021c33543O040H02025J150026g02072
2624e463022j41649G52834B11728g56622A09134K096993K774031O43773k2249
2615E601682j009272L283014p07161j866342M07524B458467a018717C17155J443594
2606A760749K339961k06273E61740a933500j425653K95841J96538j080350a941527
2596A046178K284794r34683a121969j630308J023392B049775K019628o53709j211631
2587B204063A062989b031401n23632i84306m0066q96048A59496K708124j267552
2578A600068G08895K955548j138695F81681N85110m78126B32080b321316j964915
2569d286231J011720c67069F56321c092665k540700j143501l86418g78578D154459
2559G309908k494012B392575A178696J625099H40808f6727B828163A48459b385081
2549c367389j264515J552135J069722M28927k704271j499540O52418J507889a200542
2539G87873Q56656J975316O54290m47631n96928j9516K53524j123528N00107J158036
2529C998199B32998g65194A75316a534144o05765A435069K244316j85381j322273
2520B171731o33602L608724K45513k392614k94052K264763J602372j475497j254266
2511C843072l98869j426683B15179O16336K075789K003007n58069k166351a549166
2501a789410C10824J793852J901765J655792O44738B638089E39316a145276k52279
2492a397555a57253r85246k283369k035179N98740J019139J618547h66276j265988
2483b132264k146093k101905R40013b136799N82123D95990J072441f8410j737789
2474a806199k863898L9780J611373R69048g87516J06884P1535n39989q02078K51741
2464a699423e04908l321209k053124J037956J835402M70667B519553J539411J469650
2455E528614k163215r92193J772628J707649N39712k395083I03199J151296O24945
2446B679440R54223j777353h53806k382329j285815j604593K770292i85915B267
2436E10246N88711g8714A134942J671485A374783a173733j019225j74088k169910
2427d536956J040363B129896j31722b088534J69142m75738R14586j451311j009294
2418c941149a540155B352219k91024B79371g39663k257421M27782j188213a867892
2408B144790J416709j64047O1177M09736K163427J759167k152670k055155A335952
2398I2715K741159J373872L21894A363313c51666b2301k154350p07465C58781
2388C972644j968116D45850a644382k654855j88329J977450A169829L055089R59662
2379E184580q77554A249062k92362J338534A111271J214808K46030Q62994J45526
2370C580629J259769k14810E79996b862145J143968Q54776c04670A706873l03972
2361A402901b465666j486567k100610J161893k574358J294519b854240k208930
2353e063170k193889c403206J589160j180031k22088e34241H24864f15581m289665
2344d905246p22543l0913d84492B918415d30971k759124j281193J454071L39188
2335b678029J234198B610378K657042r77907J328026N81085K426698n9666r53402
2326G612254j603872j83120k51821B233741g22138n065297k725780J90831J293564
2317g028820K855755a368815e04833A669597K12258a46422k948813J424816C405954
2307B063535p79630N22083G03981B57925a387255j493184i24474A062119j06497
2298I55622L099240r41453a3581j978503O93047H08579h59941r68219f88365A354198
2287C392666L796583k892768c169324n11013a668448D12779d25233k485407j290271
2278d200911a896639B444352J728155j463049A016216C9657J115103J653689B56408
2268B016160J203019O14398M89713n68877A606842F01273a200023o05682k594930
2259d400635k392326J504158a528905b40753m72897k722169J35048A51944m794
2250A47150b395951j910489l61898r574J284586o78250j899683b107776H53953
2240G18631O21557P86352p36463B43738a113321j290981k244043l188043o06767
2231h443155L264307K475988e49746q09857c55545A855668K150810O98612r35927
2222C769163D00273a578391j720516a080655k082348j267705R2644J460349r61719
2213c839434R22012G39519K513737n43362R43348K506307J693641K251l859048
2204C996393F87547B983a492710j43524d05801A233862i9348j911527L28626j71068
2194a853317j415430A476748K352396Q79358K74209p86978J14563K581851j134674
2185E757473C00428d629062a816249F75951i17303k93900G00306a724810k005341
2176c730151h33161c11126N1252A62955J073106B18289c79132l694076L05847
2167c767361F65685J459944I0844M345284J807806j486391J712698J705517j358533
2158F817225l376026p38030j034921F62414a478440k425655a129741B307567L165797
2149E473364K733233r51603C215041j325745J540953j697786a906178j600131
2141c506309l021345j013812L110892J461983j312844J601813J031472k4551B213
2131B62117h07215l330458O76314j28121o83463a062783C947014J489559K085221
2122G521794l70303l090859G12168a178603r27014O77421B269644o8852o24268
2113A576524K6225N72019R98331A175249b250200m74486a054370G14254K233091
2104B947345M338066J713953k201236J321903l66507k684046A565563D92034J260943
2095A752977J674851J026576A515113h01305F86079b44239I54992Q43955a276632
2085a909685M84138o04920Q51780c2808B052400j83607q84716R46545K013888
2076C944510j012264C76196B4430O96931j30469B41709h6432l172402f45494A395111
2065B693278f32353K20021B613878k89018G27686a200821l515673a003821B18533
2055d054968N18571J314285g85765h0471j686828k48382d80437r6096r53317c9997
2044C768078J152723j224363j23175N44133A092564c356224k931675K341521J742697
2035b203681l084326r8563Q99493P2646a376144b73184p33242j638711j626421
2026d271558a615922M355g42358a74066r83469j434859e71434f9841m20411p58770
2016a249022b94327B429166L34512q49745M19648P99014H32823a522253l708889
2007e231142R74453a216633d12576j847663l95518b93835B478377n47811R10879
1998B841445E30206f53399k786538q50716n73290O19017L53142a236972C184305
1988F463698O74675M74026q60540C222863A052230P4434B16027h82352j073117
1979a955469r25701J62908j397865J845071d27889A068651E05540b479007J068976
1970a410031A184782J82141J110335K213124k70380A188750f21386k10467j917617
1961b749470N33777o98486e56933A447789n76199a528293l105611P50356l75384
1952d258932j367083b086777O79114a93553G88348R81269J127676O52835j90187
1943C359941k86775K17616P44046f44976l356795n45249Q98025r09293k825508
1934g383796p20637J554560J444460i17470A298250K143504a28197j259203E42379
1924A134031E29230R24178m12340j80460d63243A69828e25694C463671N27592
1915C991263A688260G7443O10368K195853K319981P20820l77209l62263m23257
1906D761736r56731A250263J8167n26529K172120J629155j662816B96830K913153
1897C209983M032450o87475j890055A094585j05912i64636d23981I04696J276423
1888B181119o39624p68539b13533A687989J042570H09996a729884N21217j151643
1879b360310k025258k391734J049150a512556g37160k90338r64570L20816q57203
1870b528455M82611m303n38880d5721B364645j99523j46677P63987K529987r04961
1860D407458B148264a496811m753067j574080J790727K215276P36127k86806J527441
1851a841193D96425J856487G55006i08461j347015A571793L053852J002935K47994
1842E876574j544760j313384J800678l89016C26659a023684j231583M22252A848117
1832D824338k09333j263274A501360d283416m003100P1267L301336M31575k19582
1823d701920r80056a38747F273912L85405k431798p17135q93862R66168j93124
1814C389566b10668j899007J9846e8056m70316l177805O88026K30418k268378
1805e056111q84081K366131J066427g84642H15280l09488J893563D25647a795358
1795b995131J169150b6485E6062c031492m185056j011676r31840K065831J806760
1786e287473l303347k934116J694347M467170K293546O7410j65401J384011e25820
1776H32996R25164H26028i88180N7408B523354K539527M87663R47570k936434
1767C561680c128016P34180J07628k788018j94843n85092J689611J932207J35298
1758b097045j240527J529775L98433J83747c95996A849457E96408b562072n68692
1749c130764j167409p32579K57666f71708A103175L678132n58387D48387g57199
1739a441433d94546p97354M47570B283303K025822A439730c841658k37580a042657
1729C806266K312713o89992Q1706n3164j671114l77916J310332J699802J128506
1720G547139J278339p12218C017846G47577G5082O5975a028678C091678M82224
1711C573902C50499f20644A053509K701849r6202j497407m46400p63809j18550
1702H32990a010450k254899L2252a044666A681279K234560j771523r7739B62990
1692C821405J649908B724505b221495k755644M91343A66731P33369c464431k249532
1683e713963i17171C021625D84589b650861q24474J025337i28022j181587p38105
1674b847714a117790A252381J265347j248532j20444K098626N75951A670838a339923
1664c331225j390724J520185a048856J0960A63873G7488a512657k672365j181840
1655e366862K613886B15762M14977d75370k408853o67056q96874k86949b301586
1645c667154c05754B311537A057228B71637a999379J03978m24503j886335l861668
1636h067907j940798L552487c096379a81942q60450k039448J238204g36538j121731
1627a858269l04603F79308i71578c9508p3111j066546j670319l702269K780645
1618c771108m05841k33160J344061H19761k46678a413204r32969K22660B19518
1608A445598J288144j17754A106067J582824p57538J196569J741955j997212N48334
1599C420999j372564E71057a18235j080265k028775k019801K54935a704749A692199
1589D195720j700054N74958K792883P23220B076555a96927A672934k17635m04322
1580A050977J531230o16540C69045f37372C92600J03865J730993K192674j442317
1571B977815j048289o21668a492035l450462J227712k78842d45649k62630q01568
1562a509847G81180b79971j805931p01157R45976k18476j731824k117210p79542
1553f688135K779930i85267F89021J133195N6181J652294K29017J656264A625168
1543d690162k196607K841298J277910a67007A653575J683535j222366f2984B224279
1533G79798C35897b152716j663049K88476a564661A556514p05747j66781J318253
1524B002239J869044H35708b566218Q72652a70000j596798q52450M68585j353577
1515c504240k737357K666404Q68507k060232J478194j857853J313641L1859O84413
1506c116664j587398k692384J2147K54437K569552A87529a685688k965184k523
1497d653395N8827k330970J324170J922483a3219A21580b637804K95052n07194
1488b849946j843206q00102k23635j519290k827251j119295K413731K766341K136968
1479c865685l6624R31410j407964k601574L207862F47896K295458F9994b280196
1469a039406A352547p5282b29904j022407q87986H84778K757768r19237I75762
1459c622976k055928b581601b17216A204945J027858b463676P68425b16703j97984
1450d14687a61449A019555k48943K402289J084595l11083K48286m82428j036274
1441B675997l98977H18068b440064q00657J066881O36684m14897j036353p96389
1432c784795m38329a944258k00878j002420k074592b263281C89350B4197a306162
1422b229637q90707J071420g93351K38286A84741e5643p90341l68358M17653k359169
1412c155858a352886o58816f29010A262511J46184H6878b390703j197635J026671
1403b561667P00900e76209j05778j071284m33518k196643i26869B208796j8247
1394B190549r52516J241235J011171r69525B5453a065183l66476O5410l215464
1385d581713a895153F05400J091521m06695b310544j569809J56040d57170k11561
1376f68731B452216o63103b677139j961656a641080j520131j095741f22533B849010
1366F715010M91596r03136k821285q64962J300873k66147o28343m08773J287507
1357C902340o48929j23369I51353C49178Q78a725132m057756K15634J464661J288570
1347b814023j701630O50671J389846A1890L68436a195680A824808q54381c144988
1337d018765M43079r86718k05312L04334a112648P9046b59979G32515K24787P57156
1327A714458A55879b650430l534015J394162C12674K039742b296303l103007J024546
1318d374764k723901p807J659685J939186k905412k001157K878635m00080K04615
1309e731000K610836g77347A257934D65056b553700j133762d34950D124051N955339
1300A0079390L40918E171000B166885p29223a564819m069422L8410q83961K1216
1291f458576r94025K39956j656561J771765a804031A3719g1074G14472l19348
1282C95124a78185k681132j821903m54024r49686K679084A271322a989125k628428
1273d617553b036503A522428K85154h76494j147049j220027k419310J668417P35736
1264c258727M67304n56692m55158a253263G12504L481983j351755r54078K861992
1255D750646r15029A31080d4297F99612c48171o96053F47919J758557B43863a136144
1244a214579a96790E77019N38976a48903j518698k423079J470152B295512J540442
1235C835954E2026d78423C61866o9243J655286K213639A217471A3231a711809
1225B828424J705825j303213K448972p07453j483438J225851J307842R4274j719444
1216D397640k150750G42724i39957A139535h37448k985359J064158h36117a92636
1206A161990Q26579K250390M23053Q75459B641846F50725a359411k334274j673952
1197e367637M94004l63435M2330J528458A849982Q41577K055124k255497c523352
1187e212430j62028j451382J4124J109689P27857a954597B56556a3008C301430
1177G104191n27880l184868G34185b272835m439299K3671K218917b164666a15940
1167e17717k523968j349777a723543r25316j193428A342765K183569E02381h59951
1157b720707m012443j652572J642881K047581J073216J068140j29213c24334D92568
1147b803563l087558K25206b486954P05914n17592h92896j089094j386483h33233
1137C475216a44317k883343J303595A10742N45515M93290a25335j484772j461120
1128c071227O94064f02104E30848d5065m87630j129510o33503k124487k199765
1119f619960J720520J661803J499439j39910q74946q4663M91955o55338k65416
1110c266516J151025A219253K280240A406257a999379L91472j321311j338100
1102d267318a218699C090404j176982C40772a097166j414442N81281g4963D19025
1092d66119F54191b455244k23844o61882R03476B677700J458595A424871h01097
1082c634008k346112m873396J055777b525613E15999J10538c97306k012282c26849
1072G8231b756996n02432J543429H50194K453007L222512J214428J585104m300476
1063E024769B023918f08105B005855M65197c338483l837817P51812K56505n01418
1054f669401c098563J233837k497488j187136L49131J802759a260479j716415
1046b976894l137477N53275a273542B043057K343812K954837P46776k724153o75424
1037D688905J672594l20752A644003a415353j445720N28704A071058e88297j951639
1028b539936J147392M74718j390859P21751j667762l50486J358059p55325j243983
1019d246431r39289m40760b377305A345282K934224p69868p70613j96600J654757
1010D197182j845514F42810E2755a034070b96607l270379k943283j678684J020387
1001g168566O8390K668250a359952l119735K03766J327408j45678j419460J329515
992c184136J52731k479403J677832J095254j792097J212834C78072K904724j576479
983A706317i99769o68865B20639a12658C266350K069820J166963j894272H31578
973a687040F79938b24324j112643N94197D62663I1101K18858b567906k397453
964d965359p06398b240513Q00497l283373J244914k50203P60700B08385Q58320
955A066705a437546k994034J78356J833597n15372j440875j086994p7486M58382
946e081972K78588a019825k64582A535903K961760A860206o5811K658382p76486
937C676291b769778j420940K060216D44881d58371k862978j066299M41540J394782
928b551326B02509Q91745K713372K314767D48959c104084h01803B327024a289050
918e996796j020152K561651J581280J284483j663391O99184j159923J573612Q87758
909a252294o93413m40626e28219j423531j475044N46889j737781n365450l633037
900a3616173J49136L134877M437253J471937j694680j967575J499532J904822
892d680871r0858j151565q93491J211331P56550r53197R08019a647658f14063
882i73599n87263d79609j827670O98503l9367O26081K9736D79997a132408j637845
872b770253j398131J092934e95373l13653j238224k807549j764456l70670K408035
863d681890a928010B270373K431252A823839n08276K321270J479465J53625k00688
854E069235A385625a099818k829082j357231M31003a603723d99130q9265K22073
845c66322B95720b182959j703039k313264J095573P54891J93345P07996q54944
836d302401a417095d35587h686D50057a977699j62015m255673q10275a864800
826A488501J661278n58315q55762d50073j790610l49936o49682j939364K400602
817b779063A13324h15486k62107f9519j3461k86748M6673A522704O728P8508i08494
805c238547j300r20245J049384a344186F27367J132781p4592K609948p01129A53929
794h13060I43184c73836k437989j258358Q47q31441k021127K177413e67650B955987
783D405908A195375a175289k278351j429796k065468P81308K737623j065392o48078
774e143443J656310F59345K647596r77895K2294j094680K226595J233032k323981
765B392306b732026k794156b221745a86121l968453l057395J788637i02723B006485
755E97355L87783J411530M61651I53865i63170b93916D84091K24815a345370k953963
745d299333k513715J605940J44560J447416J527742g32575I2037K938679J730142
736D760858B224495a22463j099478k508475h9582B581848n60515K854209L77775
727E253317n84972j326380C73463i96579p65430h54966m32003G45545K530875
718C276420j39579q91008N84849a26777j519616g23826A578526E50678b87726
708A095456h03906L73558A238389a553903j471376N68367l00055J179309j22902
699a700560N0987j248701l132424L79019q47r2846b579474D27178M111307M277106
689H815591k878467B581584j037977a462288m869415p64092J1269k31155k850558
680a0166239j63236M832809i88975M35825D42622i12143o94358g41100o02361
671a343461j115317q09855K32831p62953m13302O92835l76914q58680a090240
661B01470h86381a99336j085421j993218k113424q49287q96060K816998h14200
651f06887H11360h42198k223086D15370K875640J742590M34271M55134J002685
642F925690p72404j167398a383767l304798j12474a926335A808717m5367K7770
633A791120O80269q86632A59600a780537j081344B926202K934975j538617d18102
623b747698j414003K89584P89475i17494L81777j68694F07766a2874D54226J955461
613B409687B01840b839799j389191K080088a0176B099742L788191j958694d97960
603c308562o93492J065530a412215l19144q19724O07207j260144M88825i63956
593a752510d55888r70217j320933J113910p36127m42014i8502H46713a111183
583c406235N62596k700518j938718J033424J314335K432183K74005a026355B7564
573b133707j391232k323195N68470n9014J684687l83818f88417A961408q39214
564A122194c819893m31666p68335n82565J439605j126761j14245b696678J071566
555a625112j689868K49999R34506j462046k366748j068150k378998J007906L351264
546e047247J751234P00935j581519P75121a109686q044d05281H76797N15941j66346
536A226392J094505J85703Q45441J068484o13018j483112f12530q88374j367882
527b868786p56049N87183a007783l17694j097865L77660C64830a064591E69256
517A390342f3065B658074N63104A548117A40302b556651j487049l24292J885666
508b482326i97960k92872C4120M10221A98191b159767l83893K57746m47339l050860
498e784113k184773n1565J510799O20452J58770k39448J191237k91481N74915
489d495207J634301a244658f09469j258606k360152N17753R91916a357124a46482
479B874346j25094j018982O71828l20107a637539j953924n7657J207156Q15658
470a626306A468504K865857O72123j830572j482414a61795k537634N67170q847
461b141106l346574j265459L150741J185929k38439j435827j134P35318a557082
451a752743j407393P46318a15859A620266E95327I8098b891123J094004D3194
441C81994g4380F4355a513967b35019q2165p28619D05103L010241q71228l2904
431B511212A241516B18562P86454l77235h57321l1834F90117K980032A153362
421F25580N27782J403707j251648a532026O24118A524718J960704n74194I395
411b394915f18154a14462j92615A96507b536028O38530b59107B60000J215385
402A475385J009374a933100l612881k12087J413482J960897c55009C13430P58214
393A071644d48554J85347j275274g60814A81081g46909k405755j597861k594568
384g345093R48576K564303a118972A390262K241861j537483C52364i33104o50652
375a583756j488478j240384j49125K177807k64391j196791k638662R59666K420514
366c003600e57859b55703j684780l03706j606255q16760K68092j351621b705575
356E1645J62331a93159A875493C99893c087066l54001n43859J755935j835246
347d064237q79540J168838M65671i75603j555562l195111n30183J756105a126670
337A120674f5819j463191m10470k56059n24430j454228l843038J612148L051166
328c353921J078938o04376J46156a082970E31423G363a071416n58087M49112l21314
318a501705j857526J178775a128k84222k291245r83602M19993q61021a661667
308e7773k204701p40928J08692j055991L43346R85812a300013O12212o46411L2660
298a301552I66893K67409B74782j6866K35172L99576b02372j198276j155478A02694
287A240848a263966k416141o95804J651655k70719M55608Q8282j719883Q20059
278c350909J140649R82908B92475a569004k917188b134201F17163R49964a818792
268c209745j855875m104025j664248L221297n80885L64144L293069K047658O36014
259a852596j056383j669708J977578a068822C53825J264873o95950B82339m2522
250B39817A02817a513255k985010q67646b251849n4471K20247j947602o66178
241d699853Q40417J898359d37926n13861o57203g95122c57528k316203j302569
232c976300p37078P12822a787082g21203m74562l07806N43327n59994O20174j492718
222b392782j596292P82839J208786O11990r48367j856030p25887K008952M47928
213b458863k743349k751371j261861J457371K516918b045907A66659N21664C2438
203f08183A102560J659420m45948j066560l23631a453j549186d22669H11800P42512
193A554312g22496k520389k1810R75811a092317N7932B30415a39785k826170Q134
183b957821n54740Q50731f67948a21271p16690m11927j611346L79810N77419d66247
172d10784R6979F48560b56058j289198l544456r58815l37255J321227K287213
163b777342e38975D02957m2426d33637j478792q5954f44679A386920P63935c40557
152a015854A049821j22372a853293n32239p50454R53706A38244g53954j459632
143b213586M86051j535779k149658o08994Q0376K116568a811735o99141l11212
134b822088a355480J63786j23338I71209J623033j71144H22758a96026D96410
124c142582l284544J143499a922941L15245b9263A528491b18133k34580A79002
114a950403M84650H78191N59460d31607k761011L81381J057930P220j458540j791805
104d996432J601828i85834A59472a43603k035999j663448j05988K31146Q47610
95b870282l24012J295033M93697k166768q05317J909578B8758J443969J451173
86B923900J474029p3968O39516o99535j570280H77608i73802q35406J1245Q75842
76i22121r85610j92690g81102A455985L512538J013885M13781p86668j762183
67C847338j610549B35714a546169k99382j034148k24894J508433j615144k210840
58e422144O95951R27469a838013n92306m08960a144063M45427K15698a86170j43922
48c30092j728746A68112L200803J197595G86614b951083M59757g49544c64567
38f12291n17079j19342q07432j030002k34374m31573J297768m99208j922988j871071
28f747592J536975O70043j414400P01232K71091n56159O58239a516069f57701
18a118471R4630B1683a187853j930594p42895M6800J208989j124804q0231Q25526
8b985062J307589m22089j828437q26667q39318M98325J717436a453675
##END=
